# Converted from 000_gb_shear_step_0006.cfg; coordinate origin: source_lammps_box

11052 atoms
1 atom types

-19.37175440091473 19.37174559908527 xlo xhi
-123.7982680891511 124.690731910849 ylo yhi
-7.464885943232366 7.464914056767634 zlo zhi

Masses

1 58.6934 # Ni

Atoms # atomic

1 1 -2.20179750591473 -103.0341296667511 5.892223854567636 0 0 0
2 1 -2.20179750591473 -103.0341296667511 3.403933807767634 0 0 0
3 1 -2.20179750591473 -103.0341296667511 0.9156288311676359 0 0 0
4 1 -0.7654597304147295 -100.9930907185511 5.892223854567636 0 0 0
5 1 -0.7654597304147295 -100.9930907185511 3.403933807767634 0 0 0
6 1 -2.20179750591473 -103.0341296667511 -1.572676145432366 0 0 0
7 1 -2.20179750591473 -103.0341296667511 -4.060966192232366 0 0 0
8 1 -0.7654597304147295 -100.9930907185511 0.9156288311676359 0 0 0
9 1 -0.7654597304147295 -100.9930907185511 -1.572676145432366 0 0 0
10 1 -2.20179750591473 -103.0341296667511 -6.549272661812366 0 0 0
11 1 -0.7654597304147295 -100.9930907185511 -4.060966192232366 0 0 0
12 1 -0.7654597304147295 -100.9930907185511 -6.549272661812366 0 0 0
13 1 -4.354192648414729 -103.0341296667511 4.648078831167636 0 0 0
14 1 -6.50662653441473 -103.034104817851 5.892223854567636 0 0 0
15 1 -6.50662653441473 -103.034104817851 3.403933807767634 0 0 0
16 1 -4.354192648414729 -103.0341296667511 7.136383807767634 0 0 0
17 1 -2.91789361641473 -100.993065869651 7.136383807767634 0 0 0
18 1 -5.070327502414729 -100.993065869651 5.892223854567636 0 0 0
19 1 -4.354192648414729 -103.0341296667511 -0.3285161922323656 0 0 0
20 1 -6.50662653441473 -103.034104817851 0.9156288311676359 0 0 0
21 1 -6.50662653441473 -103.034104817851 -1.572676145432366 0 0 0
22 1 -4.354192648414729 -103.0341296667511 2.159773854567636 0 0 0
23 1 -2.91789361641473 -100.993065869651 2.159773854567636 0 0 0
24 1 -5.070327502414729 -100.993065869651 3.403933807767634 0 0 0
25 1 -5.070327502414729 -100.993065869651 0.9156288311676359 0 0 0
26 1 -2.91789361641473 -100.993065869651 4.648078831167636 0 0 0
27 1 -1.481672071414732 -98.95881067115106 4.648078831167636 0 0 0
28 1 -3.634067213914729 -98.95878582225106 5.892223854567636 0 0 0
29 1 -3.634067213914729 -98.95878582225106 3.403933807767634 0 0 0
30 1 -1.481672071414732 -98.95881067115106 7.136383807767634 0 0 0
31 1 -2.197845668914731 -96.92617065115105 5.892223854567636 0 0 0
32 1 -4.354192648414729 -103.0341296667511 -5.305126145432366 0 0 0
33 1 -6.50662653441473 -103.034104817851 -4.060966192232366 0 0 0
34 1 -6.50662653441473 -103.034104817851 -6.549272661812366 0 0 0
35 1 -4.354192648414729 -103.0341296667511 -2.816821168832366 0 0 0
36 1 -2.91789361641473 -100.993065869651 -2.816821168832366 0 0 0
37 1 -5.070327502414729 -100.993065869651 -1.572676145432366 0 0 0
38 1 -5.070327502414729 -100.993065869651 -4.060966192232366 0 0 0
39 1 -2.91789361641473 -100.993065869651 -0.3285161922323656 0 0 0
40 1 -1.481672071414732 -98.95881067115106 -0.3285161922323656 0 0 0
41 1 -3.634067213914729 -98.95878582225106 0.9156288311676359 0 0 0
42 1 -3.634067213914729 -98.95878582225106 -1.572676145432366 0 0 0
43 1 -1.481672071414732 -98.95881067115106 2.159773854567636 0 0 0
44 1 -2.197845668914731 -96.92617065115105 3.403933807767634 0 0 0
45 1 -2.197845668914731 -96.92617065115105 0.9156288311676359 0 0 0
46 1 -5.070327502414729 -100.993065869651 -6.549272661812366 0 0 0
47 1 -2.91789361641473 -100.993065869651 -5.305126145432366 0 0 0
48 1 -1.481672071414732 -98.95881067115106 -5.305126145432366 0 0 0
49 1 -3.634067213914729 -98.95878582225106 -4.060966192232366 0 0 0
50 1 -3.634067213914729 -98.95878582225106 -6.549272661812366 0 0 0
51 1 -1.481672071414732 -98.95881067115106 -2.816821168832366 0 0 0
52 1 -2.197845668914731 -96.92617065115105 -1.572676145432366 0 0 0
53 1 -2.197845668914731 -96.92617065115105 -4.060966192232366 0 0 0
54 1 -2.197845668914731 -96.92617065115105 -6.549272661812366 0 0 0
55 1 -8.659060420414729 -103.034104817851 7.136383807767634 0 0 0
56 1 -10.81145556291473 -103.034104817851 5.892223854567636 0 0 0
57 1 -8.659060420414729 -103.034104817851 2.159773854567636 0 0 0
58 1 -10.81145556291473 -103.034104817851 3.403933807767634 0 0 0
59 1 -10.81145556291473 -103.034104817851 0.9156288311676359 0 0 0
60 1 -8.659060420414729 -103.034104817851 4.648078831167636 0 0 0
61 1 -7.222722644914729 -100.993065869651 4.648078831167636 0 0 0
62 1 -9.375156530914728 -100.9930410207511 5.892223854567636 0 0 0
63 1 -9.375156530914728 -100.9930410207511 3.403933807767634 0 0 0
64 1 -7.222722644914729 -100.993065869651 7.136383807767634 0 0 0
65 1 -5.786501099914728 -98.95878582225106 7.136383807767634 0 0 0
66 1 -7.93889624241473 -98.95878582225106 5.892223854567636 0 0 0
67 1 -8.659060420414729 -103.034104817851 -2.816821168832366 0 0 0
68 1 -10.81145556291473 -103.034104817851 -1.572676145432366 0 0 0
69 1 -10.81145556291473 -103.034104817851 -4.060966192232366 0 0 0
70 1 -8.659060420414729 -103.034104817851 -0.3285161922323656 0 0 0
71 1 -7.222722644914729 -100.993065869651 -0.3285161922323656 0 0 0
72 1 -9.375156530914728 -100.9930410207511 0.9156288311676359 0 0 0
73 1 -9.375156530914728 -100.9930410207511 -1.572676145432366 0 0 0
74 1 -7.222722644914729 -100.993065869651 2.159773854567636 0 0 0
75 1 -5.786501099914728 -98.95878582225106 2.159773854567636 0 0 0
76 1 -7.93889624241473 -98.95878582225106 3.403933807767634 0 0 0
77 1 -7.93889624241473 -98.95878582225106 0.9156288311676359 0 0 0
78 1 -5.786501099914728 -98.95878582225106 4.648078831167636 0 0 0
79 1 -4.35027955491473 -96.92617065115105 4.648078831167636 0 0 0
80 1 -6.502674697414729 -96.92617065115105 5.892223854567636 0 0 0
81 1 -6.502674697414729 -96.92617065115105 3.403933807767634 0 0 0
82 1 -4.35027955491473 -96.92617065115105 7.136383807767634 0 0 0
83 1 -10.81145556291473 -103.034104817851 -6.549272661812366 0 0 0
84 1 -8.659060420414729 -103.034104817851 -5.305126145432366 0 0 0
85 1 -7.222722644914729 -100.993065869651 -5.305126145432366 0 0 0
86 1 -9.375156530914728 -100.9930410207511 -4.060966192232366 0 0 0
87 1 -9.375156530914728 -100.9930410207511 -6.549272661812366 0 0 0
88 1 -7.222722644914729 -100.993065869651 -2.816821168832366 0 0 0
89 1 -5.786501099914728 -98.95878582225106 -2.816821168832366 0 0 0
90 1 -7.93889624241473 -98.95878582225106 -1.572676145432366 0 0 0
91 1 -7.93889624241473 -98.95878582225106 -4.060966192232366 0 0 0
92 1 -5.786501099914728 -98.95878582225106 -0.3285161922323656 0 0 0
93 1 -4.35027955491473 -96.92617065115105 -0.3285161922323656 0 0 0
94 1 -6.502674697414729 -96.92617065115105 0.9156288311676359 0 0 0
95 1 -6.502674697414729 -96.92617065115105 -1.572676145432366 0 0 0
96 1 -4.35027955491473 -96.92617065115105 2.159773854567636 0 0 0
97 1 -7.93889624241473 -98.95878582225106 -6.549272661812366 0 0 0
98 1 -5.786501099914728 -98.95878582225106 -5.305126145432366 0 0 0
99 1 -4.35027955491473 -96.92617065115105 -5.305126145432366 0 0 0
100 1 -6.502674697414729 -96.92617065115105 -4.060966192232366 0 0 0
101 1 -6.502674697414729 -96.92617065115105 -6.549272661812366 0 0 0
102 1 -4.35027955491473 -96.92617065115105 -2.816821168832366 0 0 0
103 1 -12.96388944891473 -103.034079968951 4.648078831167636 0 0 0
104 1 -15.11628459141473 -103.034079968951 5.892223854567636 0 0 0
105 1 -15.11628459141473 -103.034079968951 3.403933807767634 0 0 0
106 1 -12.96388944891473 -103.034079968951 7.136383807767634 0 0 0
107 1 -11.52755167341473 -100.9930410207511 7.136383807767634 0 0 0
108 1 -13.67998555941473 -100.9930410207511 5.892223854567636 0 0 0
109 1 -12.96388944891473 -103.034079968951 -0.3285161922323656 0 0 0
110 1 -15.11628459141473 -103.034079968951 0.9156288311676359 0 0 0
111 1 -15.11628459141473 -103.034079968951 -1.572676145432366 0 0 0
112 1 -12.96388944891473 -103.034079968951 2.159773854567636 0 0 0
113 1 -11.52755167341473 -100.9930410207511 2.159773854567636 0 0 0
114 1 -13.67998555941473 -100.9930410207511 3.403933807767634 0 0 0
115 1 -13.67998555941473 -100.9930410207511 0.9156288311676359 0 0 0
116 1 -11.52755167341473 -100.9930410207511 4.648078831167636 0 0 0
117 1 -10.09133012841473 -98.95876097335105 4.648078831167636 0 0 0
118 1 -12.24372527091473 -98.95876097335105 5.892223854567636 0 0 0
119 1 -12.24372527091473 -98.95876097335105 3.403933807767634 0 0 0
120 1 -10.09133012841473 -98.95876097335105 7.136383807767634 0 0 0
121 1 -8.65510858341473 -96.92592216215105 7.136383807767634 0 0 0
122 1 -10.80750372591473 -96.92592216215105 5.892223854567636 0 0 0
123 1 -12.96388944891473 -103.034079968951 -5.305126145432366 0 0 0
124 1 -15.11628459141473 -103.034079968951 -4.060966192232366 0 0 0
125 1 -15.11628459141473 -103.034079968951 -6.549272661812366 0 0 0
126 1 -12.96388944891473 -103.034079968951 -2.816821168832366 0 0 0
127 1 -11.52755167341473 -100.9930410207511 -2.816821168832366 0 0 0
128 1 -13.67998555941473 -100.9930410207511 -1.572676145432366 0 0 0
129 1 -13.67998555941473 -100.9930410207511 -4.060966192232366 0 0 0
130 1 -11.52755167341473 -100.9930410207511 -0.3285161922323656 0 0 0
131 1 -10.09133012841473 -98.95876097335105 -0.3285161922323656 0 0 0
132 1 -12.24372527091473 -98.95876097335105 0.9156288311676359 0 0 0
133 1 -12.24372527091473 -98.95876097335105 -1.572676145432366 0 0 0
134 1 -10.09133012841473 -98.95876097335105 2.159773854567636 0 0 0
135 1 -8.65510858341473 -96.92592216215105 2.159773854567636 0 0 0
136 1 -10.80750372591473 -96.92592216215105 3.403933807767634 0 0 0
137 1 -10.80750372591473 -96.92592216215105 0.9156288311676359 0 0 0
138 1 -8.65510858341473 -96.92592216215105 4.648078831167636 0 0 0
139 1 -13.67998555941473 -100.9930410207511 -6.549272661812366 0 0 0
140 1 -11.52755167341473 -100.9930410207511 -5.305126145432366 0 0 0
141 1 -10.09133012841473 -98.95876097335105 -5.305126145432366 0 0 0
142 1 -12.24372527091473 -98.95876097335105 -4.060966192232366 0 0 0
143 1 -12.24372527091473 -98.95876097335105 -6.549272661812366 0 0 0
144 1 -10.09133012841473 -98.95876097335105 -2.816821168832366 0 0 0
145 1 -8.65510858341473 -96.92592216215105 -2.816821168832366 0 0 0
146 1 -10.80750372591473 -96.92592216215105 -1.572676145432366 0 0 0
147 1 -10.80750372591473 -96.92592216215105 -4.060966192232366 0 0 0
148 1 -8.65510858341473 -96.92592216215105 -0.3285161922323656 0 0 0
149 1 -10.80750372591473 -96.92592216215105 -6.549272661812366 0 0 0
150 1 -8.65510858341473 -96.92592216215105 -5.305126145432366 0 0 0
151 1 -17.26870298001473 -103.034079968951 7.136383807767634 0 0 0
152 1 -17.26870298001473 -103.034079968951 2.159773854567636 0 0 0
153 1 -17.26870298001473 -103.034079968951 4.648078831167636 0 0 0
154 1 -15.83239232496473 -100.9930410207511 4.648078831167636 0 0 0
155 1 -17.98480683921473 -100.9930410207511 5.892223854567636 0 0 0
156 1 -17.98480683921473 -100.9930410207511 3.403933807767634 0 0 0
157 1 -15.83239232496473 -100.9930410207511 7.136383807767634 0 0 0
158 1 -14.39615915691473 -98.95876097335105 7.136383807767634 0 0 0
159 1 -16.54857754551473 -98.95876097335105 5.892223854567636 0 0 0
160 1 -17.26870298001473 -103.034079968951 -2.816821168832366 0 0 0
161 1 -17.26870298001473 -103.034079968951 -0.3285161922323656 0 0 0
162 1 -15.83239232496473 -100.9930410207511 -0.3285161922323656 0 0 0
163 1 -17.98480683921473 -100.9930410207511 0.9156288311676359 0 0 0
164 1 -17.98480683921473 -100.9930410207511 -1.572676145432366 0 0 0
165 1 -15.83239232496473 -100.9930410207511 2.159773854567636 0 0 0
166 1 -14.39615915691473 -98.95876097335105 2.159773854567636 0 0 0
167 1 -16.54857754551473 -98.95876097335105 3.403933807767634 0 0 0
168 1 -16.54857754551473 -98.95876097335105 0.9156288311676359 0 0 0
169 1 -14.39615915691473 -98.95876097335105 4.648078831167636 0 0 0
170 1 -12.95993761191473 -96.92592216215105 4.648078831167636 0 0 0
171 1 -15.11233275441473 -96.92592216215105 5.892223854567636 0 0 0
172 1 -15.11233275441473 -96.92592216215105 3.403933807767634 0 0 0
173 1 -12.95993761191473 -96.92592216215105 7.136383807767634 0 0 0
174 1 -17.26870298001473 -103.034079968951 -5.305126145432366 0 0 0
175 1 -15.83239232496473 -100.9930410207511 -5.305126145432366 0 0 0
176 1 -17.98480683921473 -100.9930410207511 -4.060966192232366 0 0 0
177 1 -17.98480683921473 -100.9930410207511 -6.549272661812366 0 0 0
178 1 -15.83239232496473 -100.9930410207511 -2.816821168832366 0 0 0
179 1 -14.39615915691473 -98.95876097335105 -2.816821168832366 0 0 0
180 1 -16.54857754551473 -98.95876097335105 -1.572676145432366 0 0 0
181 1 -16.54857754551473 -98.95876097335105 -4.060966192232366 0 0 0
182 1 -14.39615915691473 -98.95876097335105 -0.3285161922323656 0 0 0
183 1 -12.95993761191473 -96.92592216215105 -0.3285161922323656 0 0 0
184 1 -15.11233275441473 -96.92592216215105 0.9156288311676359 0 0 0
185 1 -15.11233275441473 -96.92592216215105 -1.572676145432366 0 0 0
186 1 -12.95993761191473 -96.92592216215105 2.159773854567636 0 0 0
187 1 -16.54857754551473 -98.95876097335105 -6.549272661812366 0 0 0
188 1 -14.39615915691473 -98.95876097335105 -5.305126145432366 0 0 0
189 1 -12.95993761191473 -96.92592216215105 -5.305126145432366 0 0 0
190 1 -15.11233275441473 -96.92592216215105 -4.060966192232366 0 0 0
191 1 -15.11233275441473 -96.92592216215105 -6.549272661812366 0 0 0
192 1 -12.95993761191473 -96.92592216215105 -2.816821168832366 0 0 0
193 1 -18.70099205976473 -98.95876097335105 4.648078831167636 0 0 0
194 1 -18.70099205976473 -98.95876097335105 7.136383807767634 0 0 0
195 1 -17.26476664041473 -96.92592216215105 7.136383807767634 0 0 0
196 1 -18.70099205976473 -98.95876097335105 -0.3285161922323656 0 0 0
197 1 -18.70099205976473 -98.95876097335105 2.159773854567636 0 0 0
198 1 -17.26476664041473 -96.92592216215105 2.159773854567636 0 0 0
199 1 -17.26476664041473 -96.92592216215105 4.648078831167636 0 0 0
200 1 -18.70099205976473 -98.95876097335105 -5.305126145432366 0 0 0
201 1 -18.70099205976473 -98.95876097335105 -2.816821168832366 0 0 0
202 1 -17.26476664041473 -96.92592216215105 -2.816821168832366 0 0 0
203 1 -17.26476664041473 -96.92592216215105 -0.3285161922323656 0 0 0
204 1 -17.26476664041473 -96.92592216215105 -5.305126145432366 0 0 0
205 1 -0.7616241239147286 -94.89253667515105 5.892223854567636 0 0 0
206 1 -0.7616241239147286 -94.89253667515105 3.403933807767634 0 0 0
207 1 -0.7616241239147286 -94.89253667515105 0.9156288311676359 0 0 0
208 1 -0.7616241239147286 -94.89253667515105 -1.572676145432366 0 0 0
209 1 -0.7616241239147286 -94.89253667515105 -4.060966192232366 0 0 0
210 1 -0.7616241239147286 -94.89253667515105 -6.549272661812366 0 0 0
211 1 -2.914058009914729 -94.89253667515105 7.136383807767634 0 0 0
212 1 -5.066453152414731 -94.89228818615105 5.892223854567636 0 0 0
213 1 -2.914058009914729 -94.89253667515105 2.159773854567636 0 0 0
214 1 -5.066453152414731 -94.89228818615105 3.403933807767634 0 0 0
215 1 -5.066453152414731 -94.89228818615105 0.9156288311676359 0 0 0
216 1 -2.914058009914729 -94.89253667515105 4.648078831167636 0 0 0
217 1 -1.477836464914731 -92.85865421015106 4.648078831167636 0 0 0
218 1 -3.630231607414729 -92.85865421015106 5.892223854567636 0 0 0
219 1 -3.630231607414729 -92.85865421015106 3.403933807767634 0 0 0
220 1 -1.477836464914731 -92.85865421015106 7.136383807767634 0 0 0
221 1 -2.19401006241473 -90.82502023415105 5.892223854567636 0 0 0
222 1 -2.914058009914729 -94.89253667515105 -2.816821168832366 0 0 0
223 1 -5.066453152414731 -94.89228818615105 -1.572676145432366 0 0 0
224 1 -5.066453152414731 -94.89228818615105 -4.060966192232366 0 0 0
225 1 -2.914058009914729 -94.89253667515105 -0.3285161922323656 0 0 0
226 1 -1.477836464914731 -92.85865421015106 -0.3285161922323656 0 0 0
227 1 -3.630231607414729 -92.85865421015106 0.9156288311676359 0 0 0
228 1 -3.630231607414729 -92.85865421015106 -1.572676145432366 0 0 0
229 1 -1.477836464914731 -92.85865421015106 2.159773854567636 0 0 0
230 1 -2.19401006241473 -90.82502023415105 3.403933807767634 0 0 0
231 1 -2.19401006241473 -90.82502023415105 0.9156288311676359 0 0 0
232 1 -0.7577885174147276 -88.79138625815105 5.892223854567636 0 0 0
233 1 -0.7577885174147276 -88.79138625815105 3.403933807767634 0 0 0
234 1 -5.066453152414731 -94.89228818615105 -6.549272661812366 0 0 0
235 1 -2.914058009914729 -94.89253667515105 -5.305126145432366 0 0 0
236 1 -1.477836464914731 -92.85865421015106 -5.305126145432366 0 0 0
237 1 -3.630231607414729 -92.85865421015106 -4.060966192232366 0 0 0
238 1 -3.630231607414729 -92.85865421015106 -6.549272661812366 0 0 0
239 1 -1.477836464914731 -92.85865421015106 -2.816821168832366 0 0 0
240 1 -2.19401006241473 -90.82502023415105 -1.572676145432366 0 0 0
241 1 -2.19401006241473 -90.82502023415105 -4.060966192232366 0 0 0
242 1 -0.7577885174147276 -88.79138625815105 0.9156288311676359 0 0 0
243 1 -0.7577885174147276 -88.79138625815105 -1.572676145432366 0 0 0
244 1 -2.19401006241473 -90.82502023415105 -6.549272661812366 0 0 0
245 1 -0.7577885174147276 -88.79138625815105 -4.060966192232366 0 0 0
246 1 -0.7577885174147276 -88.79138625815105 -6.549274154792366 0 0 0
247 1 -7.21888703841473 -94.89228818615105 4.648078831167636 0 0 0
248 1 -9.371282180914728 -94.89228818615105 5.892223854567636 0 0 0
249 1 -9.371282180914728 -94.89228818615105 3.403933807767634 0 0 0
250 1 -7.21888703841473 -94.89228818615105 7.136383807767634 0 0 0
251 1 -5.782665493414731 -92.85865421015106 7.136383807767634 0 0 0
252 1 -7.935060635914729 -92.85865421015106 5.892223854567636 0 0 0
253 1 -7.21888703841473 -94.89228818615105 -0.3285161922323656 0 0 0
254 1 -9.371282180914728 -94.89228818615105 0.9156288311676359 0 0 0
255 1 -9.371282180914728 -94.89228818615105 -1.572676145432366 0 0 0
256 1 -7.21888703841473 -94.89228818615105 2.159773854567636 0 0 0
257 1 -5.782665493414731 -92.85865421015106 2.159773854567636 0 0 0
258 1 -7.935060635914729 -92.85865421015106 3.403933807767634 0 0 0
259 1 -7.935060635914729 -92.85865421015106 0.9156288311676359 0 0 0
260 1 -5.782665493414731 -92.85865421015106 4.648078831167636 0 0 0
261 1 -4.346443948414729 -90.82502023415105 4.648078831167636 0 0 0
262 1 -6.498839090914728 -90.82502023415105 5.892223854567636 0 0 0
263 1 -6.498839090914728 -90.82502023415105 3.403933807767634 0 0 0
264 1 -4.346443948414729 -90.82502023415105 7.136383807767634 0 0 0
265 1 -2.910222403414728 -88.79138625815105 7.136383807767634 0 0 0
266 1 -5.06261754591473 -88.79138625815105 5.892223854567636 0 0 0
267 1 -7.21888703841473 -94.89228818615105 -5.305126145432366 0 0 0
268 1 -9.371282180914728 -94.89228818615105 -4.060966192232366 0 0 0
269 1 -9.371282180914728 -94.89228818615105 -6.549272661812366 0 0 0
270 1 -7.21888703841473 -94.89228818615105 -2.816821168832366 0 0 0
271 1 -5.782665493414731 -92.85865421015106 -2.816821168832366 0 0 0
272 1 -7.935060635914729 -92.85865421015106 -1.572676145432366 0 0 0
273 1 -7.935060635914729 -92.85865421015106 -4.060966192232366 0 0 0
274 1 -5.782665493414731 -92.85865421015106 -0.3285161922323656 0 0 0
275 1 -4.346443948414729 -90.82502023415105 -0.3285161922323656 0 0 0
276 1 -6.498839090914728 -90.82502023415105 0.9156288311676359 0 0 0
277 1 -6.498839090914728 -90.82502023415105 -1.572676145432366 0 0 0
278 1 -4.346443948414729 -90.82502023415105 2.159773854567636 0 0 0
279 1 -2.910222403414728 -88.79138625815105 2.159773854567636 0 0 0
280 1 -5.06261754591473 -88.79138625815105 3.403933807767634 0 0 0
281 1 -5.06261754591473 -88.79138625815105 0.9156288311676359 0 0 0
282 1 -2.910222403414728 -88.79138625815105 4.648078831167636 0 0 0
283 1 -1.47400085841473 -86.75775228215105 4.648078831167636 0 0 0
284 1 -3.626396000914729 -86.75775228215105 5.892223854567636 0 0 0
285 1 -3.626396000914729 -86.75775228215105 3.403933807767634 0 0 0
286 1 -1.47400085841473 -86.75775228215105 7.136383807767634 0 0 0
287 1 -2.190174455914729 -84.72411830615104 5.892223854567636 0 0 0
288 1 -7.935060635914729 -92.85865421015106 -6.549272661812366 0 0 0
289 1 -5.782665493414731 -92.85865421015106 -5.305126145432366 0 0 0
290 1 -4.346443948414729 -90.82502023415105 -5.305126145432366 0 0 0
291 1 -6.498839090914728 -90.82502023415105 -4.060966192232366 0 0 0
292 1 -6.498839090914728 -90.82502023415105 -6.549272661812366 0 0 0
293 1 -4.346443948414729 -90.82502023415105 -2.816821168832366 0 0 0
294 1 -2.910222403414728 -88.79138625815105 -2.816821168832366 0 0 0
295 1 -5.06261754591473 -88.79138625815105 -1.572676145432366 0 0 0
296 1 -5.06261754591473 -88.79138625815105 -4.060966192232366 0 0 0
297 1 -2.910222403414728 -88.79138625815105 -0.3285161922323656 0 0 0
298 1 -1.47400085841473 -86.75775228215105 -0.3285161922323656 0 0 0
299 1 -3.626396000914729 -86.75775228215105 0.9156288311676359 0 0 0
300 1 -3.626396000914729 -86.75775228215105 -1.572676145432366 0 0 0
301 1 -1.47400085841473 -86.75775228215105 2.159773854567636 0 0 0
302 1 -2.190174455914729 -84.72411830615104 3.403933807767634 0 0 0
303 1 -2.190174455914729 -84.72411830615104 0.9156288311676359 0 0 0
304 1 -0.7539529109147303 -82.69048433015105 5.892223854567636 0 0 0
305 1 -0.7539529109147303 -82.69048433015105 3.403933807767634 0 0 0
306 1 -5.06261754591473 -88.79138625815105 -6.549274154792366 0 0 0
307 1 -2.910222403414728 -88.79138625815105 -5.305126145432366 0 0 0
308 1 -1.47400085841473 -86.75775228215105 -5.305126145432366 0 0 0
309 1 -3.626396000914729 -86.75775228215105 -4.060966192232366 0 0 0
310 1 -3.626396000914729 -86.75775228215105 -6.549274154792366 0 0 0
311 1 -1.47400085841473 -86.75775228215105 -2.816821168832366 0 0 0
312 1 -2.190174455914729 -84.72411830615104 -1.572676145432366 0 0 0
313 1 -2.190174455914729 -84.72411830615104 -4.060966192232366 0 0 0
314 1 -0.7539529109147303 -82.69048433015105 0.9156288311676359 0 0 0
315 1 -0.7539529109147303 -82.69048433015105 -1.572676145432366 0 0 0
316 1 -2.190174455914729 -84.72411830615104 -6.549274154792366 0 0 0
317 1 -0.7539529109147303 -82.69048433015105 -4.060966192232366 0 0 0
318 1 -0.7539529109147303 -82.69048433015105 -6.549274154792366 0 0 0
319 1 -11.52371606691473 -94.89228818615105 7.136383807767634 0 0 0
320 1 -13.67611120941473 -94.89228818615105 5.892223854567636 0 0 0
321 1 -11.52371606691473 -94.89228818615105 2.159773854567636 0 0 0
322 1 -13.67611120941473 -94.89228818615105 3.403933807767634 0 0 0
323 1 -13.67611120941473 -94.89228818615105 0.9156288311676359 0 0 0
324 1 -11.52371606691473 -94.89228818615105 4.648078831167636 0 0 0
325 1 -10.08749452191473 -92.85865421015106 4.648078831167636 0 0 0
326 1 -12.23988966441473 -92.85865421015106 5.892223854567636 0 0 0
327 1 -12.23988966441473 -92.85865421015106 3.403933807767634 0 0 0
328 1 -10.08749452191473 -92.85865421015106 7.136383807767634 0 0 0
329 1 -8.651272976914729 -90.82502023415105 7.136383807767634 0 0 0
330 1 -10.80366811941473 -90.82502023415105 5.892223854567636 0 0 0
331 1 -11.52371606691473 -94.89228818615105 -2.816821168832366 0 0 0
332 1 -13.67611120941473 -94.89228818615105 -1.572676145432366 0 0 0
333 1 -13.67611120941473 -94.89228818615105 -4.060966192232366 0 0 0
334 1 -11.52371606691473 -94.89228818615105 -0.3285161922323656 0 0 0
335 1 -10.08749452191473 -92.85865421015106 -0.3285161922323656 0 0 0
336 1 -12.23988966441473 -92.85865421015106 0.9156288311676359 0 0 0
337 1 -12.23988966441473 -92.85865421015106 -1.572676145432366 0 0 0
338 1 -10.08749452191473 -92.85865421015106 2.159773854567636 0 0 0
339 1 -8.651272976914729 -90.82502023415105 2.159773854567636 0 0 0
340 1 -10.80366811941473 -90.82502023415105 3.403933807767634 0 0 0
341 1 -10.80366811941473 -90.82502023415105 0.9156288311676359 0 0 0
342 1 -8.651272976914729 -90.82502023415105 4.648078831167636 0 0 0
343 1 -7.215051431914729 -88.79138625815105 4.648078831167636 0 0 0
344 1 -9.36744657441473 -88.79138625815105 5.892223854567636 0 0 0
345 1 -9.36744657441473 -88.79138625815105 3.403933807767634 0 0 0
346 1 -7.215051431914729 -88.79138625815105 7.136383807767634 0 0 0
347 1 -5.77882988691473 -86.75775228215105 7.136383807767634 0 0 0
348 1 -7.931225029414728 -86.75775228215105 5.892223854567636 0 0 0
349 1 -13.67611120941473 -94.89228818615105 -6.549272661812366 0 0 0
350 1 -11.52371606691473 -94.89228818615105 -5.305126145432366 0 0 0
351 1 -10.08749452191473 -92.85865421015106 -5.305126145432366 0 0 0
352 1 -12.23988966441473 -92.85865421015106 -4.060966192232366 0 0 0
353 1 -12.23988966441473 -92.85865421015106 -6.549272661812366 0 0 0
354 1 -10.08749452191473 -92.85865421015106 -2.816821168832366 0 0 0
355 1 -8.651272976914729 -90.82502023415105 -2.816821168832366 0 0 0
356 1 -10.80366811941473 -90.82502023415105 -1.572676145432366 0 0 0
357 1 -10.80366811941473 -90.82502023415105 -4.060966192232366 0 0 0
358 1 -8.651272976914729 -90.82502023415105 -0.3285161922323656 0 0 0
359 1 -7.215051431914729 -88.79138625815105 -0.3285161922323656 0 0 0
360 1 -9.36744657441473 -88.79138625815105 0.9156288311676359 0 0 0
361 1 -9.36744657441473 -88.79138625815105 -1.572676145432366 0 0 0
362 1 -7.215051431914729 -88.79138625815105 2.159773854567636 0 0 0
363 1 -5.77882988691473 -86.75775228215105 2.159773854567636 0 0 0
364 1 -7.931225029414728 -86.75775228215105 3.403933807767634 0 0 0
365 1 -7.931225029414728 -86.75775228215105 0.9156288311676359 0 0 0
366 1 -5.77882988691473 -86.75775228215105 4.648078831167636 0 0 0
367 1 -4.34260834191473 -84.72411830615104 4.648078831167636 0 0 0
368 1 -6.495003484414729 -84.72411830615104 5.892223854567636 0 0 0
369 1 -6.495003484414729 -84.72411830615104 3.403933807767634 0 0 0
370 1 -4.34260834191473 -84.72411830615104 7.136383807767634 0 0 0
371 1 -2.906386796914731 -82.69048433015105 7.136383807767634 0 0 0
372 1 -5.058781939414729 -82.69048433015105 5.892223854567636 0 0 0
373 1 -10.80366811941473 -90.82502023415105 -6.549272661812366 0 0 0
374 1 -8.651272976914729 -90.82502023415105 -5.305126145432366 0 0 0
375 1 -7.215051431914729 -88.79138625815105 -5.305126145432366 0 0 0
376 1 -9.36744657441473 -88.79138625815105 -4.060966192232366 0 0 0
377 1 -9.36744657441473 -88.79138625815105 -6.549272661812366 0 0 0
378 1 -7.215051431914729 -88.79138625815105 -2.816821168832366 0 0 0
379 1 -5.77882988691473 -86.75775228215105 -2.816821168832366 0 0 0
380 1 -7.931225029414728 -86.75775228215105 -1.572676145432366 0 0 0
381 1 -7.931225029414728 -86.75775228215105 -4.060966192232366 0 0 0
382 1 -5.77882988691473 -86.75775228215105 -0.3285161922323656 0 0 0
383 1 -4.34260834191473 -84.72411830615104 -0.3285161922323656 0 0 0
384 1 -6.495003484414729 -84.72411830615104 0.9156288311676359 0 0 0
385 1 -6.495003484414729 -84.72411830615104 -1.572676145432366 0 0 0
386 1 -4.34260834191473 -84.72411830615104 2.159773854567636 0 0 0
387 1 -2.906386796914731 -82.69048433015105 2.159773854567636 0 0 0
388 1 -5.058781939414729 -82.69048433015105 3.403933807767634 0 0 0
389 1 -5.058781939414729 -82.69048433015105 0.9156288311676359 0 0 0
390 1 -2.906386796914731 -82.69048433015105 4.648078831167636 0 0 0
391 1 -7.931225029414728 -86.75775228215105 -6.549274154792366 0 0 0
392 1 -5.77882988691473 -86.75775228215105 -5.305126145432366 0 0 0
393 1 -4.34260834191473 -84.72411830615104 -5.305126145432366 0 0 0
394 1 -6.495003484414729 -84.72411830615104 -4.060966192232366 0 0 0
395 1 -6.495003484414729 -84.72411830615104 -6.549274154792366 0 0 0
396 1 -4.34260834191473 -84.72411830615104 -2.816821168832366 0 0 0
397 1 -2.906386796914731 -82.69048433015105 -2.816821168832366 0 0 0
398 1 -5.058781939414729 -82.69048433015105 -1.572676145432366 0 0 0
399 1 -5.058781939414729 -82.69048433015105 -4.060966192232366 0 0 0
400 1 -2.906386796914731 -82.69048433015105 -0.3285161922323656 0 0 0
401 1 -5.058781939414729 -82.69048433015105 -6.549274154792366 0 0 0
402 1 -2.906386796914731 -82.69048433015105 -5.305126145432366 0 0 0
403 1 -15.82854509541473 -94.89228818615105 4.648078831167636 0 0 0
404 1 -17.98096348401473 -94.89228818615105 5.892223854567636 0 0 0
405 1 -17.98096348401473 -94.89228818615105 3.403933807767634 0 0 0
406 1 -15.82854509541473 -94.89228818615105 7.136383807767634 0 0 0
407 1 -14.39232355041473 -92.85865421015106 7.136383807767634 0 0 0
408 1 -16.54474193901473 -92.85865421015106 5.892223854567636 0 0 0
409 1 -15.82854509541473 -94.89228818615105 -0.3285161922323656 0 0 0
410 1 -17.98096348401473 -94.89228818615105 0.9156288311676359 0 0 0
411 1 -17.98096348401473 -94.89228818615105 -1.572676145432366 0 0 0
412 1 -15.82854509541473 -94.89228818615105 2.159773854567636 0 0 0
413 1 -14.39232355041473 -92.85865421015106 2.159773854567636 0 0 0
414 1 -16.54474193901473 -92.85865421015106 3.403933807767634 0 0 0
415 1 -16.54474193901473 -92.85865421015106 0.9156288311676359 0 0 0
416 1 -14.39232355041473 -92.85865421015106 4.648078831167636 0 0 0
417 1 -12.95610200541473 -90.82502023415105 4.648078831167636 0 0 0
418 1 -15.10853589141473 -90.82502023415105 5.892223854567636 0 0 0
419 1 -15.10853589141473 -90.82502023415105 3.403933807767634 0 0 0
420 1 -12.95610200541473 -90.82502023415105 7.136383807767634 0 0 0
421 1 -11.51988046041473 -88.79138625815105 7.136383807767634 0 0 0
422 1 -13.67231434641473 -88.79138625815105 5.892223854567636 0 0 0
423 1 -15.82854509541473 -94.89228818615105 -5.305126145432366 0 0 0
424 1 -17.98096348401473 -94.89228818615105 -4.060966192232366 0 0 0
425 1 -17.98096348401473 -94.89228818615105 -6.549272661812366 0 0 0
426 1 -15.82854509541473 -94.89228818615105 -2.816821168832366 0 0 0
427 1 -14.39232355041473 -92.85865421015106 -2.816821168832366 0 0 0
428 1 -16.54474193901473 -92.85865421015106 -1.572676145432366 0 0 0
429 1 -16.54474193901473 -92.85865421015106 -4.060966192232366 0 0 0
430 1 -14.39232355041473 -92.85865421015106 -0.3285161922323656 0 0 0
431 1 -12.95610200541473 -90.82502023415105 -0.3285161922323656 0 0 0
432 1 -15.10853589141473 -90.82502023415105 0.9156288311676359 0 0 0
433 1 -15.10853589141473 -90.82502023415105 -1.572676145432366 0 0 0
434 1 -12.95610200541473 -90.82502023415105 2.159773854567636 0 0 0
435 1 -11.51988046041473 -88.79138625815105 2.159773854567636 0 0 0
436 1 -13.67231434641473 -88.79138625815105 3.403933807767634 0 0 0
437 1 -13.67231434641473 -88.79138625815105 0.9156288311676359 0 0 0
438 1 -11.51988046041473 -88.79138625815105 4.648078831167636 0 0 0
439 1 -10.08365891541473 -86.75775228215105 4.648078831167636 0 0 0
440 1 -12.23609280141473 -86.75775228215105 5.892223854567636 0 0 0
441 1 -12.23609280141473 -86.75775228215105 3.403933807767634 0 0 0
442 1 -10.08365891541473 -86.75775228215105 7.136383807767634 0 0 0
443 1 -8.647437370414728 -84.72411830615104 7.136383807767634 0 0 0
444 1 -10.79983251291473 -84.72411830615104 5.892223854567636 0 0 0
445 1 -16.54474193901473 -92.85865421015106 -6.549272661812366 0 0 0
446 1 -14.39232355041473 -92.85865421015106 -5.305126145432366 0 0 0
447 1 -12.95610200541473 -90.82502023415105 -5.305126145432366 0 0 0
448 1 -15.10853589141473 -90.82502023415105 -4.060966192232366 0 0 0
449 1 -15.10853589141473 -90.82502023415105 -6.549272661812366 0 0 0
450 1 -12.95610200541473 -90.82502023415105 -2.816821168832366 0 0 0
451 1 -11.51988046041473 -88.79138625815105 -2.816821168832366 0 0 0
452 1 -13.67231434641473 -88.79138625815105 -1.572676145432366 0 0 0
453 1 -13.67231434641473 -88.79138625815105 -4.060966192232366 0 0 0
454 1 -11.51988046041473 -88.79138625815105 -0.3285161922323656 0 0 0
455 1 -10.08365891541473 -86.75775228215105 -0.3285161922323656 0 0 0
456 1 -12.23609280141473 -86.75775228215105 0.9156288311676359 0 0 0
457 1 -12.23609280141473 -86.75775228215105 -1.572676145432366 0 0 0
458 1 -10.08365891541473 -86.75775228215105 2.159773854567636 0 0 0
459 1 -8.647437370414728 -84.72411830615104 2.159773854567636 0 0 0
460 1 -10.79983251291473 -84.72411830615104 3.403933807767634 0 0 0
461 1 -10.79983251291473 -84.72411830615104 0.9156288311676359 0 0 0
462 1 -8.647437370414728 -84.72411830615104 4.648078831167636 0 0 0
463 1 -7.211215825414728 -82.69048433015105 4.648078831167636 0 0 0
464 1 -9.363610967914729 -82.69048433015105 5.892223854567636 0 0 0
465 1 -9.363610967914729 -82.69048433015105 3.403933807767634 0 0 0
466 1 -7.211215825414728 -82.69048433015105 7.136383807767634 0 0 0
467 1 -13.67231434641473 -88.79138625815105 -6.549272661812366 0 0 0
468 1 -11.51988046041473 -88.79138625815105 -5.305126145432366 0 0 0
469 1 -10.08365891541473 -86.75775228215105 -5.305126145432366 0 0 0
470 1 -12.23609280141473 -86.75775228215105 -4.060966192232366 0 0 0
471 1 -12.23609280141473 -86.75775228215105 -6.549272661812366 0 0 0
472 1 -10.08365891541473 -86.75775228215105 -2.816821168832366 0 0 0
473 1 -8.647437370414728 -84.72411830615104 -2.816821168832366 0 0 0
474 1 -10.79983251291473 -84.72411830615104 -1.572676145432366 0 0 0
475 1 -10.79983251291473 -84.72411830615104 -4.060966192232366 0 0 0
476 1 -8.647437370414728 -84.72411830615104 -0.3285161922323656 0 0 0
477 1 -7.211215825414728 -82.69048433015105 -0.3285161922323656 0 0 0
478 1 -9.363610967914729 -82.69048433015105 0.9156288311676359 0 0 0
479 1 -9.363610967914729 -82.69048433015105 -1.572676145432366 0 0 0
480 1 -7.211215825414728 -82.69048433015105 2.159773854567636 0 0 0
481 1 -10.79983251291473 -84.72411830615104 -6.549274154792366 0 0 0
482 1 -8.647437370414728 -84.72411830615104 -5.305126145432366 0 0 0
483 1 -7.211215825414728 -82.69048433015105 -5.305126145432366 0 0 0
484 1 -9.363610967914729 -82.69048433015105 -4.060966192232366 0 0 0
485 1 -9.363610967914729 -82.69048433015105 -6.549274154792366 0 0 0
486 1 -7.211215825414728 -82.69048433015105 -2.816821168832366 0 0 0
487 1 -18.69716032761473 -92.85865421015106 4.648078831167636 0 0 0
488 1 -18.69716032761473 -92.85865421015106 7.136383807767634 0 0 0
489 1 -17.26093490826473 -90.82502023415105 7.136383807767634 0 0 0
490 1 -18.69716032761473 -92.85865421015106 -0.3285161922323656 0 0 0
491 1 -18.69716032761473 -92.85865421015106 2.159773854567636 0 0 0
492 1 -17.26093490826473 -90.82502023415105 2.159773854567636 0 0 0
493 1 -17.26093490826473 -90.82502023415105 4.648078831167636 0 0 0
494 1 -15.82471336326473 -88.79138625815105 4.648078831167636 0 0 0
495 1 -17.97713175186473 -88.79138625815105 5.892223854567636 0 0 0
496 1 -17.97713175186473 -88.79138625815105 3.403933807767634 0 0 0
497 1 -15.82471336326473 -88.79138625815105 7.136383807767634 0 0 0
498 1 -14.38848794391473 -86.75775228215105 7.136383807767634 0 0 0
499 1 -16.54091020686473 -86.75775228215105 5.892223854567636 0 0 0
500 1 -18.69716032761473 -92.85865421015106 -5.305126145432366 0 0 0
501 1 -18.69716032761473 -92.85865421015106 -2.816821168832366 0 0 0
502 1 -17.26093490826473 -90.82502023415105 -2.816821168832366 0 0 0
503 1 -17.26093490826473 -90.82502023415105 -0.3285161922323656 0 0 0
504 1 -15.82471336326473 -88.79138625815105 -0.3285161922323656 0 0 0
505 1 -17.97713175186473 -88.79138625815105 0.9156288311676359 0 0 0
506 1 -17.97713175186473 -88.79138625815105 -1.572676145432366 0 0 0
507 1 -15.82471336326473 -88.79138625815105 2.159773854567636 0 0 0
508 1 -14.38848794391473 -86.75775228215105 2.159773854567636 0 0 0
509 1 -16.54091020686473 -86.75775228215105 3.403933807767634 0 0 0
510 1 -16.54091020686473 -86.75775228215105 0.9156288311676359 0 0 0
511 1 -14.38848794391473 -86.75775228215105 4.648078831167636 0 0 0
512 1 -12.95226639891473 -84.72411830615104 4.648078831167636 0 0 0
513 1 -15.10470028491473 -84.72411830615104 5.892223854567636 0 0 0
514 1 -15.10470028491473 -84.72411830615104 3.403933807767634 0 0 0
515 1 -12.95226639891473 -84.72411830615104 7.136383807767634 0 0 0
516 1 -11.51604485391473 -82.69048433015105 7.136383807767634 0 0 0
517 1 -13.66847873991473 -82.69048433015105 5.892223854567636 0 0 0
518 1 -17.26093490826473 -90.82502023415105 -5.305126145432366 0 0 0
519 1 -15.82471336326473 -88.79138625815105 -5.305126145432366 0 0 0
520 1 -17.97713175186473 -88.79138625815105 -4.060966192232366 0 0 0
521 1 -17.97713175186473 -88.79138625815105 -6.549272661812366 0 0 0
522 1 -15.82471336326473 -88.79138625815105 -2.816821168832366 0 0 0
523 1 -14.38848794391473 -86.75775228215105 -2.816821168832366 0 0 0
524 1 -16.54091020686473 -86.75775228215105 -1.572676145432366 0 0 0
525 1 -16.54091020686473 -86.75775228215105 -4.060966192232366 0 0 0
526 1 -14.38848794391473 -86.75775228215105 -0.3285161922323656 0 0 0
527 1 -12.95226639891473 -84.72411830615104 -0.3285161922323656 0 0 0
528 1 -15.10470028491473 -84.72411830615104 0.9156288311676359 0 0 0
529 1 -15.10470028491473 -84.72411830615104 -1.572676145432366 0 0 0
530 1 -12.95226639891473 -84.72411830615104 2.159773854567636 0 0 0
531 1 -11.51604485391473 -82.69048433015105 2.159773854567636 0 0 0
532 1 -13.66847873991473 -82.69048433015105 3.403933807767634 0 0 0
533 1 -13.66847873991473 -82.69048433015105 0.9156288311676359 0 0 0
534 1 -11.51604485391473 -82.69048433015105 4.648078831167636 0 0 0
535 1 -16.54091020686473 -86.75775228215105 -6.549272661812366 0 0 0
536 1 -14.38848794391473 -86.75775228215105 -5.305126145432366 0 0 0
537 1 -12.95226639891473 -84.72411830615104 -5.305126145432366 0 0 0
538 1 -15.10470028491473 -84.72411830615104 -4.060966192232366 0 0 0
539 1 -15.10470028491473 -84.72411830615104 -6.549274154792366 0 0 0
540 1 -12.95226639891473 -84.72411830615104 -2.816821168832366 0 0 0
541 1 -11.51604485391473 -82.69048433015105 -2.816821168832366 0 0 0
542 1 -13.66847873991473 -82.69048433015105 -1.572676145432366 0 0 0
543 1 -13.66847873991473 -82.69048433015105 -4.060966192232366 0 0 0
544 1 -11.51604485391473 -82.69048433015105 -0.3285161922323656 0 0 0
545 1 -13.66847873991473 -82.69048433015105 -6.549274154792366 0 0 0
546 1 -11.51604485391473 -82.69048433015105 -5.305126145432366 0 0 0
547 1 -18.69332472111473 -86.75775228215105 4.648078831167636 0 0 0
548 1 -18.69332472111473 -86.75775228215105 7.136383807767634 0 0 0
549 1 -17.25710317611473 -84.72411830615104 7.136383807767634 0 0 0
550 1 -18.69332472111473 -86.75775228215105 -0.3285161922323656 0 0 0
551 1 -18.69332472111473 -86.75775228215105 2.159773854567636 0 0 0
552 1 -17.25710317611473 -84.72411830615104 2.159773854567636 0 0 0
553 1 -17.25710317611473 -84.72411830615104 4.648078831167636 0 0 0
554 1 -15.82088163111473 -82.69048433015105 4.648078831167636 0 0 0
555 1 -17.97330001971473 -82.69048433015105 5.892223854567636 0 0 0
556 1 -17.97330001971473 -82.69048433015105 3.403933807767634 0 0 0
557 1 -15.82088163111473 -82.69048433015105 7.136383807767634 0 0 0
558 1 -18.69332472111473 -86.75775228215105 -5.305126145432366 0 0 0
559 1 -18.69332472111473 -86.75775228215105 -2.816821168832366 0 0 0
560 1 -17.25710317611473 -84.72411830615104 -2.816821168832366 0 0 0
561 1 -17.25710317611473 -84.72411830615104 -0.3285161922323656 0 0 0
562 1 -15.82088163111473 -82.69048433015105 -0.3285161922323656 0 0 0
563 1 -17.97330001971473 -82.69048433015105 0.9156288311676359 0 0 0
564 1 -17.97330001971473 -82.69048433015105 -1.572676145432366 0 0 0
565 1 -15.82088163111473 -82.69048433015105 2.159773854567636 0 0 0
566 1 -17.25710317611473 -84.72411830615104 -5.305126145432366 0 0 0
567 1 -15.82088163111473 -82.69048433015105 -5.305126145432366 0 0 0
568 1 -17.97330001971473 -82.69048433015105 -4.060966192232366 0 0 0
569 1 -17.97330001971473 -82.69048433015105 -6.549274154792366 0 0 0
570 1 -15.82088163111473 -82.69048433015105 -2.816821168832366 0 0 0
571 1 -1.470165251914729 -80.65660186515106 4.648078831167636 0 0 0
572 1 -3.622560394414728 -80.65660186515106 5.892223854567636 0 0 0
573 1 -3.622560394414728 -80.65660186515106 3.403933807767634 0 0 0
574 1 -1.470165251914729 -80.65660186515106 7.136383807767634 0 0 0
575 1 -2.186338849414728 -78.62296788915106 5.892223854567636 0 0 0
576 1 -1.470165251914729 -80.65660186515106 -0.3285161922323656 0 0 0
577 1 -3.622560394414728 -80.65660186515106 0.9156288311676359 0 0 0
578 1 -3.622560394414728 -80.65660186515106 -1.572676145432366 0 0 0
579 1 -1.470165251914729 -80.65660186515106 2.159773854567636 0 0 0
580 1 -2.186338849414728 -78.62296788915106 3.403933807767634 0 0 0
581 1 -2.186338849414728 -78.62296788915106 0.9156288311676359 0 0 0
582 1 -0.7501173044147293 -76.58933391315105 5.892223854567636 0 0 0
583 1 -0.7501173044147293 -76.58933391315105 3.403933807767634 0 0 0
584 1 -1.470165251914729 -80.65660186515106 -5.305126145432366 0 0 0
585 1 -3.622560394414728 -80.65660186515106 -4.060966192232366 0 0 0
586 1 -3.622560394414728 -80.65660186515106 -6.549274154792366 0 0 0
587 1 -1.470165251914729 -80.65660186515106 -2.816821168832366 0 0 0
588 1 -2.186338849414728 -78.62296788915106 -1.572676145432366 0 0 0
589 1 -2.186338849414728 -78.62296788915106 -4.060966192232366 0 0 0
590 1 -0.7501173044147293 -76.58933391315105 0.9156288311676359 0 0 0
591 1 -0.7501173044147293 -76.58933391315105 -1.572676145432366 0 0 0
592 1 -2.186338849414728 -78.62296788915106 -6.549274154792366 0 0 0
593 1 -0.7501173044147293 -76.58933391315105 -4.060966192232366 0 0 0
594 1 -0.7501173044147293 -76.58933391315105 -6.549272661812366 0 0 0
595 1 -5.774994280414729 -80.65660186515106 7.136383807767634 0 0 0
596 1 -7.927389422914729 -80.65660186515106 5.892223854567636 0 0 0
597 1 -5.774994280414729 -80.65660186515106 2.159773854567636 0 0 0
598 1 -7.927389422914729 -80.65660186515106 3.403933807767634 0 0 0
599 1 -7.927389422914729 -80.65660186515106 0.9156288311676359 0 0 0
600 1 -5.774994280414729 -80.65660186515106 4.648078831167636 0 0 0
601 1 -4.338772735414729 -78.62296788915106 4.648078831167636 0 0 0
602 1 -6.49116787791473 -78.62296788915106 5.892223854567636 0 0 0
603 1 -6.49116787791473 -78.62296788915106 3.403933807767634 0 0 0
604 1 -4.338772735414729 -78.62296788915106 7.136383807767634 0 0 0
605 1 -2.90255119041473 -76.58933391315105 7.136383807767634 0 0 0
606 1 -5.054946332914728 -76.58933391315105 5.892223854567636 0 0 0
607 1 -5.774994280414729 -80.65660186515106 -2.816821168832366 0 0 0
608 1 -7.927389422914729 -80.65660186515106 -1.572676145432366 0 0 0
609 1 -7.927389422914729 -80.65660186515106 -4.060966192232366 0 0 0
610 1 -5.774994280414729 -80.65660186515106 -0.3285161922323656 0 0 0
611 1 -4.338772735414729 -78.62296788915106 -0.3285161922323656 0 0 0
612 1 -6.49116787791473 -78.62296788915106 0.9156288311676359 0 0 0
613 1 -6.49116787791473 -78.62296788915106 -1.572676145432366 0 0 0
614 1 -4.338772735414729 -78.62296788915106 2.159773854567636 0 0 0
615 1 -2.90255119041473 -76.58933391315105 2.159773854567636 0 0 0
616 1 -5.054946332914728 -76.58933391315105 3.403933807767634 0 0 0
617 1 -5.054946332914728 -76.58933391315105 0.9156288311676359 0 0 0
618 1 -2.90255119041473 -76.58933391315105 4.648078831167636 0 0 0
619 1 -1.466329645414731 -74.55569993715105 4.648078831167636 0 0 0
620 1 -3.618724787914729 -74.55569993715105 5.892223854567636 0 0 0
621 1 -3.618724787914729 -74.55569993715105 3.403933807767634 0 0 0
622 1 -1.466329645414731 -74.55569993715105 7.136383807767634 0 0 0
623 1 -2.182503242914731 -72.52206596115104 5.892223854567636 0 0 0
624 1 -7.927389422914729 -80.65660186515106 -6.549274154792366 0 0 0
625 1 -5.774994280414729 -80.65660186515106 -5.305126145432366 0 0 0
626 1 -4.338772735414729 -78.62296788915106 -5.305126145432366 0 0 0
627 1 -6.49116787791473 -78.62296788915106 -4.060966192232366 0 0 0
628 1 -6.49116787791473 -78.62296788915106 -6.549274154792366 0 0 0
629 1 -4.338772735414729 -78.62296788915106 -2.816821168832366 0 0 0
630 1 -2.90255119041473 -76.58933391315105 -2.816821168832366 0 0 0
631 1 -5.054946332914728 -76.58933391315105 -1.572676145432366 0 0 0
632 1 -5.054946332914728 -76.58933391315105 -4.060966192232366 0 0 0
633 1 -2.90255119041473 -76.58933391315105 -0.3285161922323656 0 0 0
634 1 -1.466329645414731 -74.55569993715105 -0.3285161922323656 0 0 0
635 1 -3.618724787914729 -74.55569993715105 0.9156288311676359 0 0 0
636 1 -3.618724787914729 -74.55569993715105 -1.572676145432366 0 0 0
637 1 -1.466329645414731 -74.55569993715105 2.159773854567636 0 0 0
638 1 -2.182503242914731 -72.52206596115104 3.403933807767634 0 0 0
639 1 -2.182503242914731 -72.52206596115104 0.9156288311676359 0 0 0
640 1 -0.7462816979147284 -70.48843198515105 5.892223854567636 0 0 0
641 1 -0.7462816979147284 -70.48843198515105 3.403933807767634 0 0 0
642 1 -5.054946332914728 -76.58933391315105 -6.549274154792366 0 0 0
643 1 -2.90255119041473 -76.58933391315105 -5.305126145432366 0 0 0
644 1 -1.466329645414731 -74.55569993715105 -5.305126145432366 0 0 0
645 1 -3.618724787914729 -74.55569993715105 -4.060966192232366 0 0 0
646 1 -3.618724787914729 -74.55569993715105 -6.549272661812366 0 0 0
647 1 -1.466329645414731 -74.55569993715105 -2.816821168832366 0 0 0
648 1 -2.182503242914731 -72.52206596115104 -1.572676145432366 0 0 0
649 1 -2.182503242914731 -72.52206596115104 -4.060966192232366 0 0 0
650 1 -0.7462816979147284 -70.48843198515105 0.9156288311676359 0 0 0
651 1 -0.7462816979147284 -70.48843198515105 -1.572676145432366 0 0 0
652 1 -2.182503242914731 -72.52206596115104 -6.549272661812366 0 0 0
653 1 -0.7462816979147284 -70.48843198515105 -4.060966192232366 0 0 0
654 1 -0.7462816979147284 -70.48843198515105 -6.549272661812366 0 0 0
655 1 -10.07982330891473 -80.65660186515106 4.648078831167636 0 0 0
656 1 -12.23225719491473 -80.65660186515106 5.892223854567636 0 0 0
657 1 -12.23225719491473 -80.65660186515106 3.403933807767634 0 0 0
658 1 -10.07982330891473 -80.65660186515106 7.136383807767634 0 0 0
659 1 -8.643601763914729 -78.62296788915106 7.136383807767634 0 0 0
660 1 -10.79603564991473 -78.62296788915106 5.892223854567636 0 0 0
661 1 -10.07982330891473 -80.65660186515106 -0.3285161922323656 0 0 0
662 1 -12.23225719491473 -80.65660186515106 0.9156288311676359 0 0 0
663 1 -12.23225719491473 -80.65660186515106 -1.572676145432366 0 0 0
664 1 -10.07982330891473 -80.65660186515106 2.159773854567636 0 0 0
665 1 -8.643601763914729 -78.62296788915106 2.159773854567636 0 0 0
666 1 -10.79603564991473 -78.62296788915106 3.403933807767634 0 0 0
667 1 -10.79603564991473 -78.62296788915106 0.9156288311676359 0 0 0
668 1 -8.643601763914729 -78.62296788915106 4.648078831167636 0 0 0
669 1 -7.20738021891473 -76.58933391315105 4.648078831167636 0 0 0
670 1 -9.359814104914729 -76.58933391315105 5.892223854567636 0 0 0
671 1 -9.359814104914729 -76.58933391315105 3.403933807767634 0 0 0
672 1 -7.20738021891473 -76.58933391315105 7.136383807767634 0 0 0
673 1 -5.771158673914728 -74.55569993715105 7.136383807767634 0 0 0
674 1 -7.923592559914727 -74.55569993715105 5.892223854567636 0 0 0
675 1 -10.07982330891473 -80.65660186515106 -5.305126145432366 0 0 0
676 1 -12.23225719491473 -80.65660186515106 -4.060966192232366 0 0 0
677 1 -12.23225719491473 -80.65660186515106 -6.549274154792366 0 0 0
678 1 -10.07982330891473 -80.65660186515106 -2.816821168832366 0 0 0
679 1 -8.643601763914729 -78.62296788915106 -2.816821168832366 0 0 0
680 1 -10.79603564991473 -78.62296788915106 -1.572676145432366 0 0 0
681 1 -10.79603564991473 -78.62296788915106 -4.060966192232366 0 0 0
682 1 -8.643601763914729 -78.62296788915106 -0.3285161922323656 0 0 0
683 1 -7.20738021891473 -76.58933391315105 -0.3285161922323656 0 0 0
684 1 -9.359814104914729 -76.58933391315105 0.9156288311676359 0 0 0
685 1 -9.359814104914729 -76.58933391315105 -1.572676145432366 0 0 0
686 1 -7.20738021891473 -76.58933391315105 2.159773854567636 0 0 0
687 1 -5.771158673914728 -74.55569993715105 2.159773854567636 0 0 0
688 1 -7.923592559914727 -74.55569993715105 3.403933807767634 0 0 0
689 1 -7.923592559914727 -74.55569993715105 0.9156288311676359 0 0 0
690 1 -5.771158673914728 -74.55569993715105 4.648078831167636 0 0 0
691 1 -4.33493712891473 -72.52206596115104 4.648078831167636 0 0 0
692 1 -6.487371014914729 -72.52206596115104 5.892223854567636 0 0 0
693 1 -6.487371014914729 -72.52206596115104 3.403933807767634 0 0 0
694 1 -4.33493712891473 -72.52206596115104 7.136383807767634 0 0 0
695 1 -2.898715583914729 -70.48843198515105 7.136383807767634 0 0 0
696 1 -5.051149469914728 -70.48843198515105 5.892223854567636 0 0 0
697 1 -10.79603564991473 -78.62296788915106 -6.549274154792366 0 0 0
698 1 -8.643601763914729 -78.62296788915106 -5.305126145432366 0 0 0
699 1 -7.20738021891473 -76.58933391315105 -5.305126145432366 0 0 0
700 1 -9.359814104914729 -76.58933391315105 -4.060966192232366 0 0 0
701 1 -9.359814104914729 -76.58933391315105 -6.549274154792366 0 0 0
702 1 -7.20738021891473 -76.58933391315105 -2.816821168832366 0 0 0
703 1 -5.771158673914728 -74.55569993715105 -2.816821168832366 0 0 0
704 1 -7.923592559914727 -74.55569993715105 -1.572676145432366 0 0 0
705 1 -7.923592559914727 -74.55569993715105 -4.060966192232366 0 0 0
706 1 -5.771158673914728 -74.55569993715105 -0.3285161922323656 0 0 0
707 1 -4.33493712891473 -72.52206596115104 -0.3285161922323656 0 0 0
708 1 -6.487371014914729 -72.52206596115104 0.9156288311676359 0 0 0
709 1 -6.487371014914729 -72.52206596115104 -1.572676145432366 0 0 0
710 1 -4.33493712891473 -72.52206596115104 2.159773854567636 0 0 0
711 1 -2.898715583914729 -70.48843198515105 2.159773854567636 0 0 0
712 1 -5.051149469914728 -70.48843198515105 3.403933807767634 0 0 0
713 1 -5.051149469914728 -70.48843198515105 0.9156288311676359 0 0 0
714 1 -2.898715583914729 -70.48843198515105 4.648078831167636 0 0 0
715 1 -1.462494038914731 -68.45479800915105 4.648078831167636 0 0 0
716 1 -3.614927924914729 -68.45479800915105 5.892223854567636 0 0 0
717 1 -3.614927924914729 -68.45479800915105 3.403933807767634 0 0 0
718 1 -1.462494038914731 -68.45479800915105 7.136383807767634 0 0 0
719 1 -7.923592559914727 -74.55569993715105 -6.549274154792366 0 0 0
720 1 -5.771158673914728 -74.55569993715105 -5.305126145432366 0 0 0
721 1 -4.33493712891473 -72.52206596115104 -5.305126145432366 0 0 0
722 1 -6.487371014914729 -72.52206596115104 -4.060966192232366 0 0 0
723 1 -6.487371014914729 -72.52206596115104 -6.549272661812366 0 0 0
724 1 -4.33493712891473 -72.52206596115104 -2.816821168832366 0 0 0
725 1 -2.898715583914729 -70.48843198515105 -2.816821168832366 0 0 0
726 1 -5.051149469914728 -70.48843198515105 -1.572676145432366 0 0 0
727 1 -5.051149469914728 -70.48843198515105 -4.060966192232366 0 0 0
728 1 -2.898715583914729 -70.48843198515105 -0.3285161922323656 0 0 0
729 1 -1.462494038914731 -68.45479800915105 -0.3285161922323656 0 0 0
730 1 -3.614927924914729 -68.45479800915105 0.9156288311676359 0 0 0
731 1 -3.614927924914729 -68.45479800915105 -1.572676145432366 0 0 0
732 1 -1.462494038914731 -68.45479800915105 2.159773854567636 0 0 0
733 1 -5.051149469914728 -70.48843198515105 -6.549272661812366 0 0 0
734 1 -2.898715583914729 -70.48843198515105 -5.305126145432366 0 0 0
735 1 -1.462494038914731 -68.45479800915105 -5.305126145432366 0 0 0
736 1 -3.614927924914729 -68.45479800915105 -4.060966192232366 0 0 0
737 1 -3.614927924914729 -68.45479800915105 -6.549272661812366 0 0 0
738 1 -1.462494038914731 -68.45479800915105 -2.816821168832366 0 0 0
739 1 -14.38465233741473 -80.65660186515106 7.136383807767634 0 0 0
740 1 -16.53707847471473 -80.65660186515106 5.892223854567636 0 0 0
741 1 -14.38465233741473 -80.65660186515106 2.159773854567636 0 0 0
742 1 -16.53707847471473 -80.65660186515106 3.403933807767634 0 0 0
743 1 -16.53707847471473 -80.65660186515106 0.9156288311676359 0 0 0
744 1 -14.38465233741473 -80.65660186515106 4.648078831167636 0 0 0
745 1 -12.94843079241473 -78.62296788915106 4.648078831167636 0 0 0
746 1 -15.10086467841473 -78.62296788915106 5.892223854567636 0 0 0
747 1 -15.10086467841473 -78.62296788915106 3.403933807767634 0 0 0
748 1 -12.94843079241473 -78.62296788915106 7.136383807767634 0 0 0
749 1 -11.51220924741473 -76.58933391315105 7.136383807767634 0 0 0
750 1 -13.66464313341473 -76.58933391315105 5.892223854567636 0 0 0
751 1 -14.38465233741473 -80.65660186515106 -2.816821168832366 0 0 0
752 1 -16.53707847471473 -80.65660186515106 -1.572676145432366 0 0 0
753 1 -16.53707847471473 -80.65660186515106 -4.060966192232366 0 0 0
754 1 -14.38465233741473 -80.65660186515106 -0.3285161922323656 0 0 0
755 1 -12.94843079241473 -78.62296788915106 -0.3285161922323656 0 0 0
756 1 -15.10086467841473 -78.62296788915106 0.9156288311676359 0 0 0
757 1 -15.10086467841473 -78.62296788915106 -1.572676145432366 0 0 0
758 1 -12.94843079241473 -78.62296788915106 2.159773854567636 0 0 0
759 1 -11.51220924741473 -76.58933391315105 2.159773854567636 0 0 0
760 1 -13.66464313341473 -76.58933391315105 3.403933807767634 0 0 0
761 1 -13.66464313341473 -76.58933391315105 0.9156288311676359 0 0 0
762 1 -11.51220924741473 -76.58933391315105 4.648078831167636 0 0 0
763 1 -10.07598770241473 -74.55569993715105 4.648078831167636 0 0 0
764 1 -12.22842158841473 -74.55569993715105 5.892223854567636 0 0 0
765 1 -12.22842158841473 -74.55569993715105 3.403933807767634 0 0 0
766 1 -10.07598770241473 -74.55569993715105 7.136383807767634 0 0 0
767 1 -8.639766157414728 -72.52206596115104 7.136383807767634 0 0 0
768 1 -10.79220004341473 -72.52206596115104 5.892223854567636 0 0 0
769 1 -16.53707847471473 -80.65660186515106 -6.549274154792366 0 0 0
770 1 -14.38465233741473 -80.65660186515106 -5.305126145432366 0 0 0
771 1 -12.94843079241473 -78.62296788915106 -5.305126145432366 0 0 0
772 1 -15.10086467841473 -78.62296788915106 -4.060966192232366 0 0 0
773 1 -15.10086467841473 -78.62296788915106 -6.549274154792366 0 0 0
774 1 -12.94843079241473 -78.62296788915106 -2.816821168832366 0 0 0
775 1 -11.51220924741473 -76.58933391315105 -2.816821168832366 0 0 0
776 1 -13.66464313341473 -76.58933391315105 -1.572676145432366 0 0 0
777 1 -13.66464313341473 -76.58933391315105 -4.060966192232366 0 0 0
778 1 -11.51220924741473 -76.58933391315105 -0.3285161922323656 0 0 0
779 1 -10.07598770241473 -74.55569993715105 -0.3285161922323656 0 0 0
780 1 -12.22842158841473 -74.55569993715105 0.9156288311676359 0 0 0
781 1 -12.22842158841473 -74.55569993715105 -1.572676145432366 0 0 0
782 1 -10.07598770241473 -74.55569993715105 2.159773854567636 0 0 0
783 1 -8.639766157414728 -72.52206596115104 2.159773854567636 0 0 0
784 1 -10.79220004341473 -72.52206596115104 3.403933807767634 0 0 0
785 1 -10.79220004341473 -72.52206596115104 0.9156288311676359 0 0 0
786 1 -8.639766157414728 -72.52206596115104 4.648078831167636 0 0 0
787 1 -7.20354461241473 -70.48843198515105 4.648078831167636 0 0 0
788 1 -9.355978498414729 -70.48843198515105 5.892223854567636 0 0 0
789 1 -9.355978498414729 -70.48843198515105 3.403933807767634 0 0 0
790 1 -7.20354461241473 -70.48843198515105 7.136383807767634 0 0 0
791 1 -5.767323067414729 -68.45479800915105 7.136383807767634 0 0 0
792 1 -7.91975695341473 -68.45479800915105 5.892223854567636 0 0 0
793 1 -13.66464313341473 -76.58933391315105 -6.549274154792366 0 0 0
794 1 -11.51220924741473 -76.58933391315105 -5.305126145432366 0 0 0
795 1 -10.07598770241473 -74.55569993715105 -5.305126145432366 0 0 0
796 1 -12.22842158841473 -74.55569993715105 -4.060966192232366 0 0 0
797 1 -12.22842158841473 -74.55569993715105 -6.549274154792366 0 0 0
798 1 -10.07598770241473 -74.55569993715105 -2.816821168832366 0 0 0
799 1 -8.639766157414728 -72.52206596115104 -2.816821168832366 0 0 0
800 1 -10.79220004341473 -72.52206596115104 -1.572676145432366 0 0 0
801 1 -10.79220004341473 -72.52206596115104 -4.060966192232366 0 0 0
802 1 -8.639766157414728 -72.52206596115104 -0.3285161922323656 0 0 0
803 1 -7.20354461241473 -70.48843198515105 -0.3285161922323656 0 0 0
804 1 -9.355978498414729 -70.48843198515105 0.9156288311676359 0 0 0
805 1 -9.355978498414729 -70.48843198515105 -1.572676145432366 0 0 0
806 1 -7.20354461241473 -70.48843198515105 2.159773854567636 0 0 0
807 1 -5.767323067414729 -68.45479800915105 2.159773854567636 0 0 0
808 1 -7.91975695341473 -68.45479800915105 3.403933807767634 0 0 0
809 1 -7.91975695341473 -68.45479800915105 0.9156288311676359 0 0 0
810 1 -5.767323067414729 -68.45479800915105 4.648078831167636 0 0 0
811 1 -10.79220004341473 -72.52206596115104 -6.549274154792366 0 0 0
812 1 -8.639766157414728 -72.52206596115104 -5.305126145432366 0 0 0
813 1 -7.20354461241473 -70.48843198515105 -5.305126145432366 0 0 0
814 1 -9.355978498414729 -70.48843198515105 -4.060966192232366 0 0 0
815 1 -9.355978498414729 -70.48843198515105 -6.549274154792366 0 0 0
816 1 -7.20354461241473 -70.48843198515105 -2.816821168832366 0 0 0
817 1 -5.767323067414729 -68.45479800915105 -2.816821168832366 0 0 0
818 1 -7.91975695341473 -68.45479800915105 -1.572676145432366 0 0 0
819 1 -7.91975695341473 -68.45479800915105 -4.060966192232366 0 0 0
820 1 -5.767323067414729 -68.45479800915105 -0.3285161922323656 0 0 0
821 1 -7.91975695341473 -68.45479800915105 -6.549272661812366 0 0 0
822 1 -5.767323067414729 -68.45479800915105 -5.305126145432366 0 0 0
823 1 -18.68949298896473 -80.65660186515106 4.648078831167636 0 0 0
824 1 -18.68949298896473 -80.65660186515106 7.136383807767634 0 0 0
825 1 -17.25327144396473 -78.62296788915106 7.136383807767634 0 0 0
826 1 -18.68949298896473 -80.65660186515106 -0.3285161922323656 0 0 0
827 1 -18.68949298896473 -80.65660186515106 2.159773854567636 0 0 0
828 1 -17.25327144396473 -78.62296788915106 2.159773854567636 0 0 0
829 1 -17.25327144396473 -78.62296788915106 4.648078831167636 0 0 0
830 1 -15.81704989896473 -76.58933391315105 4.648078831167636 0 0 0
831 1 -17.96946828756473 -76.58933391315105 5.892223854567636 0 0 0
832 1 -17.96946828756473 -76.58933391315105 3.403933807767634 0 0 0
833 1 -15.81704989896473 -76.58933391315105 7.136383807767634 0 0 0
834 1 -14.38081673091473 -74.55569993715105 7.136383807767634 0 0 0
835 1 -16.53324674256473 -74.55569993715105 5.892223854567636 0 0 0
836 1 -18.68949298896473 -80.65660186515106 -5.305126145432366 0 0 0
837 1 -18.68949298896473 -80.65660186515106 -2.816821168832366 0 0 0
838 1 -17.25327144396473 -78.62296788915106 -2.816821168832366 0 0 0
839 1 -17.25327144396473 -78.62296788915106 -0.3285161922323656 0 0 0
840 1 -15.81704989896473 -76.58933391315105 -0.3285161922323656 0 0 0
841 1 -17.96946828756473 -76.58933391315105 0.9156288311676359 0 0 0
842 1 -17.96946828756473 -76.58933391315105 -1.572676145432366 0 0 0
843 1 -15.81704989896473 -76.58933391315105 2.159773854567636 0 0 0
844 1 -14.38081673091473 -74.55569993715105 2.159773854567636 0 0 0
845 1 -16.53324674256473 -74.55569993715105 3.403933807767634 0 0 0
846 1 -16.53324674256473 -74.55569993715105 0.9156288311676359 0 0 0
847 1 -14.38081673091473 -74.55569993715105 4.648078831167636 0 0 0
848 1 -12.94459518591473 -72.52206596115104 4.648078831167636 0 0 0
849 1 -15.09702907191473 -72.52206596115104 5.892223854567636 0 0 0
850 1 -15.09702907191473 -72.52206596115104 3.403933807767634 0 0 0
851 1 -12.94459518591473 -72.52206596115104 7.136383807767634 0 0 0
852 1 -11.50837364091473 -70.48843198515105 7.136383807767634 0 0 0
853 1 -13.66080752691473 -70.48843198515105 5.892223854567636 0 0 0
854 1 -17.25327144396473 -78.62296788915106 -5.305126145432366 0 0 0
855 1 -15.81704989896473 -76.58933391315105 -5.305126145432366 0 0 0
856 1 -17.96946828756473 -76.58933391315105 -4.060966192232366 0 0 0
857 1 -17.96946828756473 -76.58933391315105 -6.549274154792366 0 0 0
858 1 -15.81704989896473 -76.58933391315105 -2.816821168832366 0 0 0
859 1 -14.38081673091473 -74.55569993715105 -2.816821168832366 0 0 0
860 1 -16.53324674256473 -74.55569993715105 -1.572676145432366 0 0 0
861 1 -16.53324674256473 -74.55569993715105 -4.060966192232366 0 0 0
862 1 -14.38081673091473 -74.55569993715105 -0.3285161922323656 0 0 0
863 1 -12.94459518591473 -72.52206596115104 -0.3285161922323656 0 0 0
864 1 -15.09702907191473 -72.52206596115104 0.9156288311676359 0 0 0
865 1 -15.09702907191473 -72.52206596115104 -1.572676145432366 0 0 0
866 1 -12.94459518591473 -72.52206596115104 2.159773854567636 0 0 0
867 1 -11.50837364091473 -70.48843198515105 2.159773854567636 0 0 0
868 1 -13.66080752691473 -70.48843198515105 3.403933807767634 0 0 0
869 1 -13.66080752691473 -70.48843198515105 0.9156288311676359 0 0 0
870 1 -11.50837364091473 -70.48843198515105 4.648078831167636 0 0 0
871 1 -10.07215209591473 -68.45479800915105 4.648078831167636 0 0 0
872 1 -12.22458598191473 -68.45479800915105 5.892223854567636 0 0 0
873 1 -12.22458598191473 -68.45479800915105 3.403933807767634 0 0 0
874 1 -10.07215209591473 -68.45479800915105 7.136383807767634 0 0 0
875 1 -16.53324674256473 -74.55569993715105 -6.549274154792366 0 0 0
876 1 -14.38081673091473 -74.55569993715105 -5.305126145432366 0 0 0
877 1 -12.94459518591473 -72.52206596115104 -5.305126145432366 0 0 0
878 1 -15.09702907191473 -72.52206596115104 -4.060966192232366 0 0 0
879 1 -15.09702907191473 -72.52206596115104 -6.549274154792366 0 0 0
880 1 -12.94459518591473 -72.52206596115104 -2.816821168832366 0 0 0
881 1 -11.50837364091473 -70.48843198515105 -2.816821168832366 0 0 0
882 1 -13.66080752691473 -70.48843198515105 -1.572676145432366 0 0 0
883 1 -13.66080752691473 -70.48843198515105 -4.060966192232366 0 0 0
884 1 -11.50837364091473 -70.48843198515105 -0.3285161922323656 0 0 0
885 1 -10.07215209591473 -68.45479800915105 -0.3285161922323656 0 0 0
886 1 -12.22458598191473 -68.45479800915105 0.9156288311676359 0 0 0
887 1 -12.22458598191473 -68.45479800915105 -1.572676145432366 0 0 0
888 1 -10.07215209591473 -68.45479800915105 2.159773854567636 0 0 0
889 1 -13.66080752691473 -70.48843198515105 -6.549274154792366 0 0 0
890 1 -11.50837364091473 -70.48843198515105 -5.305126145432366 0 0 0
891 1 -10.07215209591473 -68.45479800915105 -5.305126145432366 0 0 0
892 1 -12.22458598191473 -68.45479800915105 -4.060966192232366 0 0 0
893 1 -12.22458598191473 -68.45479800915105 -6.549274154792366 0 0 0
894 1 -10.07215209591473 -68.45479800915105 -2.816821168832366 0 0 0
895 1 -18.68566125681473 -74.55569993715105 4.648078831167636 0 0 0
896 1 -18.68566125681473 -74.55569993715105 7.136383807767634 0 0 0
897 1 -17.24943971181473 -72.52206596115104 7.136383807767634 0 0 0
898 1 -18.68566125681473 -74.55569993715105 -0.3285161922323656 0 0 0
899 1 -18.68566125681473 -74.55569993715105 2.159773854567636 0 0 0
900 1 -17.24943971181473 -72.52206596115104 2.159773854567636 0 0 0
901 1 -17.24943971181473 -72.52206596115104 4.648078831167636 0 0 0
902 1 -15.81321816681473 -70.48843198515105 4.648078831167636 0 0 0
903 1 -17.96563655541473 -70.48843198515105 5.892223854567636 0 0 0
904 1 -17.96563655541473 -70.48843198515105 3.403933807767634 0 0 0
905 1 -15.81321816681473 -70.48843198515105 7.136383807767634 0 0 0
906 1 -14.37698112441473 -68.45479800915105 7.136383807767634 0 0 0
907 1 -16.52941501041473 -68.45479800915105 5.892223854567636 0 0 0
908 1 -18.68566125681473 -74.55569993715105 -5.305126145432366 0 0 0
909 1 -18.68566125681473 -74.55569993715105 -2.816821168832366 0 0 0
910 1 -17.24943971181473 -72.52206596115104 -2.816821168832366 0 0 0
911 1 -17.24943971181473 -72.52206596115104 -0.3285161922323656 0 0 0
912 1 -15.81321816681473 -70.48843198515105 -0.3285161922323656 0 0 0
913 1 -17.96563655541473 -70.48843198515105 0.9156288311676359 0 0 0
914 1 -17.96563655541473 -70.48843198515105 -1.572676145432366 0 0 0
915 1 -15.81321816681473 -70.48843198515105 2.159773854567636 0 0 0
916 1 -14.37698112441473 -68.45479800915105 2.159773854567636 0 0 0
917 1 -16.52941501041473 -68.45479800915105 3.403933807767634 0 0 0
918 1 -16.52941501041473 -68.45479800915105 0.9156288311676359 0 0 0
919 1 -14.37698112441473 -68.45479800915105 4.648078831167636 0 0 0
920 1 -17.24943971181473 -72.52206596115104 -5.305126145432366 0 0 0
921 1 -15.81321816681473 -70.48843198515105 -5.305126145432366 0 0 0
922 1 -17.96563655541473 -70.48843198515105 -4.060966192232366 0 0 0
923 1 -17.96563655541473 -70.48843198515105 -6.549274154792366 0 0 0
924 1 -15.81321816681473 -70.48843198515105 -2.816821168832366 0 0 0
925 1 -14.37698112441473 -68.45479800915105 -2.816821168832366 0 0 0
926 1 -16.52941501041473 -68.45479800915105 -1.572676145432366 0 0 0
927 1 -16.52941501041473 -68.45479800915105 -4.060966192232366 0 0 0
928 1 -14.37698112441473 -68.45479800915105 -0.3285161922323656 0 0 0
929 1 -16.52941501041473 -68.45479800915105 -6.549274154792366 0 0 0
930 1 -14.37698112441473 -68.45479800915105 -5.305126145432366 0 0 0
931 1 -18.68183339901473 -68.45479800915105 4.648078831167636 0 0 0
932 1 -18.68183339901473 -68.45479800915105 7.136368877967636 0 0 0
933 1 -18.68183339901473 -68.45479800915105 -0.3285311220323663 0 0 0
934 1 -18.68183339901473 -68.45479800915105 2.159773854567636 0 0 0
935 1 -18.68183339901473 -68.45479800915105 -5.305126145432366 0 0 0
936 1 -18.68183339901473 -68.45479800915105 -2.816821168832366 0 0 0
937 1 -2.17866763641473 -66.42091554415106 5.892223854567636 0 0 0
938 1 -0.0262724939147283 -66.42091554415106 2.159773854567636 0 0 0
939 1 -2.17866763641473 -66.42091554415106 3.403933807767634 0 0 0
940 1 -2.17866763641473 -66.42091554415106 0.9156288311676359 0 0 0
941 1 -0.0262724939147283 -66.42091554415106 4.648078831167636 0 0 0
942 1 -0.7424460914147275 -64.38728156815105 5.892223854567636 0 0 0
943 1 -0.7424460914147275 -64.38728156815105 3.403933807767634 0 0 0
944 1 -0.0262724939147283 -66.42091554415106 -2.816821168832366 0 0 0
945 1 -2.17866763641473 -66.42091554415106 -1.572676145432366 0 0 0
946 1 -2.17866763641473 -66.42091554415106 -4.060966192232366 0 0 0
947 1 -0.7424460914147275 -64.38728156815105 0.9156288311676359 0 0 0
948 1 -0.7424460914147275 -64.38728156815105 -1.572676145432366 0 0 0
949 1 -2.17866763641473 -66.42091554415106 -6.549272661812366 0 0 0
950 1 -0.0262724939147283 -66.42091554415106 -5.305126145432366 0 0 0
951 1 -0.7424460914147275 -64.38728156815105 -4.060966192232366 0 0 0
952 1 -0.7424460914147275 -64.38728156815105 -6.549272661812366 0 0 0
953 1 -4.33110152241473 -66.42091554415106 4.648078831167636 0 0 0
954 1 -6.483535408414729 -66.42091554415106 5.892223854567636 0 0 0
955 1 -6.483535408414729 -66.42091554415106 3.403933807767634 0 0 0
956 1 -4.33110152241473 -66.42091554415106 7.136383807767634 0 0 0
957 1 -2.894879977414728 -64.38728156815105 7.136383807767634 0 0 0
958 1 -5.047313863414729 -64.38728156815105 5.892223854567636 0 0 0
959 1 -4.33110152241473 -66.42091554415106 -0.3285161922323656 0 0 0
960 1 -6.483535408414729 -66.42091554415106 0.9156288311676359 0 0 0
961 1 -6.483535408414729 -66.42091554415106 -1.572676145432366 0 0 0
962 1 -4.33110152241473 -66.42091554415106 2.159773854567636 0 0 0
963 1 -2.894879977414728 -64.38728156815105 2.159773854567636 0 0 0
964 1 -5.047313863414729 -64.38728156815105 3.403933807767634 0 0 0
965 1 -5.047313863414729 -64.38728156815105 0.9156288311676359 0 0 0
966 1 -2.894879977414728 -64.38728156815105 4.648078831167636 0 0 0
967 1 -1.45865843241473 -62.35364759215105 4.648078831167636 0 0 0
968 1 -3.611092318414729 -62.35364759215105 5.892223854567636 0 0 0
969 1 -3.611092318414729 -62.35364759215105 3.403933807767634 0 0 0
970 1 -1.45865843241473 -62.35364759215105 7.136383807767634 0 0 0
971 1 -2.174870773414728 -60.32001361615105 5.892223854567636 0 0 0
972 1 -4.33110152241473 -66.42091554415106 -5.305126145432366 0 0 0
973 1 -6.483535408414729 -66.42091554415106 -4.060966192232366 0 0 0
974 1 -6.483535408414729 -66.42091554415106 -6.549272661812366 0 0 0
975 1 -4.33110152241473 -66.42091554415106 -2.816821168832366 0 0 0
976 1 -2.894879977414728 -64.38728156815105 -2.816821168832366 0 0 0
977 1 -5.047313863414729 -64.38728156815105 -1.572676145432366 0 0 0
978 1 -5.047313863414729 -64.38728156815105 -4.060966192232366 0 0 0
979 1 -2.894879977414728 -64.38728156815105 -0.3285161922323656 0 0 0
980 1 -1.45865843241473 -62.35364759215105 -0.3285161922323656 0 0 0
981 1 -3.611092318414729 -62.35364759215105 0.9156288311676359 0 0 0
982 1 -3.611092318414729 -62.35364759215105 -1.572676145432366 0 0 0
983 1 -1.45865843241473 -62.35364759215105 2.159773854567636 0 0 0
984 1 -2.174870773414728 -60.32001361615105 3.403933807767634 0 0 0
985 1 -2.174870773414728 -60.32001361615105 0.9156288311676359 0 0 0
986 1 -0.7386104849147301 -58.28637964015104 5.892223854567636 0 0 0
987 1 -0.7386104849147301 -58.28637964015104 3.403933807767634 0 0 0
988 1 -5.047313863414729 -64.38728156815105 -6.549272661812366 0 0 0
989 1 -2.894879977414728 -64.38728156815105 -5.305126145432366 0 0 0
990 1 -1.45865843241473 -62.35364759215105 -5.305126145432366 0 0 0
991 1 -3.611092318414729 -62.35364759215105 -4.060966192232366 0 0 0
992 1 -3.611092318414729 -62.35364759215105 -6.549272661812366 0 0 0
993 1 -1.45865843241473 -62.35364759215105 -2.816821168832366 0 0 0
994 1 -2.174870773414728 -60.32001361615105 -1.572676145432366 0 0 0
995 1 -2.174870773414728 -60.32001361615105 -4.060966192232366 0 0 0
996 1 -0.7386104849147301 -58.28637964015104 0.9156288311676359 0 0 0
997 1 -0.7386104849147301 -58.28637964015104 -1.572676145432366 0 0 0
998 1 -2.174870773414728 -60.32001361615105 -6.549272661812366 0 0 0
999 1 -0.7386104849147301 -58.28637964015104 -4.060966192232366 0 0 0
1000 1 -0.7386104849147301 -58.28637964015104 -6.549272661812366 0 0 0
1001 1 -8.635930550914729 -66.42091554415106 7.136383807767634 0 0 0
1002 1 -10.78836443691473 -66.42091554415106 5.892223854567636 0 0 0
1003 1 -8.635930550914729 -66.42091554415106 2.159773854567636 0 0 0
1004 1 -10.78836443691473 -66.42091554415106 3.403933807767634 0 0 0
1005 1 -10.78836443691473 -66.42091554415106 0.9156288311676359 0 0 0
1006 1 -8.635930550914729 -66.42091554415106 4.648078831167636 0 0 0
1007 1 -7.199709005914729 -64.38728156815105 4.648078831167636 0 0 0
1008 1 -9.352142891914729 -64.38728156815105 5.892223854567636 0 0 0
1009 1 -9.352142891914729 -64.38728156815105 3.403933807767634 0 0 0
1010 1 -7.199709005914729 -64.38728156815105 7.136383807767634 0 0 0
1011 1 -5.76348746091473 -62.35364759215105 7.136383807767634 0 0 0
1012 1 -7.915921346914729 -62.35364759215105 5.892223854567636 0 0 0
1013 1 -8.635930550914729 -66.42091554415106 -2.816821168832366 0 0 0
1014 1 -10.78836443691473 -66.42091554415106 -1.572676145432366 0 0 0
1015 1 -10.78836443691473 -66.42091554415106 -4.060966192232366 0 0 0
1016 1 -8.635930550914729 -66.42091554415106 -0.3285161922323656 0 0 0
1017 1 -7.199709005914729 -64.38728156815105 -0.3285161922323656 0 0 0
1018 1 -9.352142891914729 -64.38728156815105 0.9156288311676359 0 0 0
1019 1 -9.352142891914729 -64.38728156815105 -1.572676145432366 0 0 0
1020 1 -7.199709005914729 -64.38728156815105 2.159773854567636 0 0 0
1021 1 -5.76348746091473 -62.35364759215105 2.159773854567636 0 0 0
1022 1 -7.915921346914729 -62.35364759215105 3.403933807767634 0 0 0
1023 1 -7.915921346914729 -62.35364759215105 0.9156288311676359 0 0 0
1024 1 -5.76348746091473 -62.35364759215105 4.648078831167636 0 0 0
1025 1 -4.32726591591473 -60.32001361615105 4.648078831167636 0 0 0
1026 1 -6.479699801914728 -60.32001361615105 5.892223854567636 0 0 0
1027 1 -6.479699801914728 -60.32001361615105 3.403933807767634 0 0 0
1028 1 -4.32726591591473 -60.32001361615105 7.136383807767634 0 0 0
1029 1 -2.891044370914731 -58.28637964015104 7.136383807767634 0 0 0
1030 1 -5.04347825691473 -58.28637964015104 5.892223854567636 0 0 0
1031 1 -10.78836443691473 -66.42091554415106 -6.549272661812366 0 0 0
1032 1 -8.635930550914729 -66.42091554415106 -5.305126145432366 0 0 0
1033 1 -7.199709005914729 -64.38728156815105 -5.305126145432366 0 0 0
1034 1 -9.352142891914729 -64.38728156815105 -4.060966192232366 0 0 0
1035 1 -9.352142891914729 -64.38728156815105 -6.549272661812366 0 0 0
1036 1 -7.199709005914729 -64.38728156815105 -2.816821168832366 0 0 0
1037 1 -5.76348746091473 -62.35364759215105 -2.816821168832366 0 0 0
1038 1 -7.915921346914729 -62.35364759215105 -1.572676145432366 0 0 0
1039 1 -7.915921346914729 -62.35364759215105 -4.060966192232366 0 0 0
1040 1 -5.76348746091473 -62.35364759215105 -0.3285161922323656 0 0 0
1041 1 -4.32726591591473 -60.32001361615105 -0.3285161922323656 0 0 0
1042 1 -6.479699801914728 -60.32001361615105 0.9156288311676359 0 0 0
1043 1 -6.479699801914728 -60.32001361615105 -1.572676145432366 0 0 0
1044 1 -4.32726591591473 -60.32001361615105 2.159773854567636 0 0 0
1045 1 -2.891044370914731 -58.28637964015104 2.159773854567636 0 0 0
1046 1 -5.04347825691473 -58.28637964015104 3.403933807767634 0 0 0
1047 1 -5.04347825691473 -58.28637964015104 0.9156288311676359 0 0 0
1048 1 -2.891044370914731 -58.28637964015104 4.648078831167636 0 0 0
1049 1 -1.454822825914729 -56.25274566415105 4.648078831167636 0 0 0
1050 1 -3.607256711914729 -56.25274566415105 5.892223854567636 0 0 0
1051 1 -3.607256711914729 -56.25274566415105 3.403933807767634 0 0 0
1052 1 -1.454822825914729 -56.25274566415105 7.136383807767634 0 0 0
1053 1 -0.01860128091473001 -54.21911168815105 7.136383807767634 0 0 0
1054 1 -2.171035166914727 -54.21911168815105 5.892223854567636 0 0 0
1055 1 -7.915921346914729 -62.35364759215105 -6.549272661812366 0 0 0
1056 1 -5.76348746091473 -62.35364759215105 -5.305126145432366 0 0 0
1057 1 -4.32726591591473 -60.32001361615105 -5.305126145432366 0 0 0
1058 1 -6.479699801914728 -60.32001361615105 -4.060966192232366 0 0 0
1059 1 -6.479699801914728 -60.32001361615105 -6.549272661812366 0 0 0
1060 1 -4.32726591591473 -60.32001361615105 -2.816821168832366 0 0 0
1061 1 -2.891044370914731 -58.28637964015104 -2.816821168832366 0 0 0
1062 1 -5.04347825691473 -58.28637964015104 -1.572676145432366 0 0 0
1063 1 -5.04347825691473 -58.28637964015104 -4.060966192232366 0 0 0
1064 1 -2.891044370914731 -58.28637964015104 -0.3285161922323656 0 0 0
1065 1 -1.454822825914729 -56.25274566415105 -0.3285161922323656 0 0 0
1066 1 -3.607256711914729 -56.25274566415105 0.9156288311676359 0 0 0
1067 1 -3.607256711914729 -56.25274566415105 -1.572676145432366 0 0 0
1068 1 -1.454822825914729 -56.25274566415105 2.159773854567636 0 0 0
1069 1 -2.171035166914727 -54.21911168815105 3.403933807767634 0 0 0
1070 1 -2.171035166914727 -54.21911168815105 0.9156288311676359 0 0 0
1071 1 -0.01860128091473001 -54.21911168815105 4.648078831167636 0 0 0
1072 1 -5.04347825691473 -58.28637964015104 -6.549272661812366 0 0 0
1073 1 -2.891044370914731 -58.28637964015104 -5.305126145432366 0 0 0
1074 1 -1.454822825914729 -56.25274566415105 -5.305126145432366 0 0 0
1075 1 -3.607256711914729 -56.25274566415105 -4.060966192232366 0 0 0
1076 1 -3.607256711914729 -56.25274566415105 -6.549271168832366 0 0 0
1077 1 -1.454822825914729 -56.25274566415105 -2.816821168832366 0 0 0
1078 1 -2.171035166914727 -54.21911168815105 -1.572676145432366 0 0 0
1079 1 -2.171035166914727 -54.21911168815105 -4.060966192232366 0 0 0
1080 1 -2.171035166914727 -54.21911168815105 -6.549271168832366 0 0 0
1081 1 -0.01860128091473001 -54.21911168815105 -5.305126145432366 0 0 0
1082 1 -12.94075957941473 -66.42091554415106 4.648078831167636 0 0 0
1083 1 -15.09319346541473 -66.42091554415106 5.892223854567636 0 0 0
1084 1 -15.09319346541473 -66.42091554415106 3.403933807767634 0 0 0
1085 1 -12.94075957941473 -66.42091554415106 7.136383807767634 0 0 0
1086 1 -11.50453803441473 -64.38728156815105 7.136383807767634 0 0 0
1087 1 -13.65697192041473 -64.38728156815105 5.892223854567636 0 0 0
1088 1 -12.94075957941473 -66.42091554415106 -0.3285161922323656 0 0 0
1089 1 -15.09319346541473 -66.42091554415106 0.9156288311676359 0 0 0
1090 1 -15.09319346541473 -66.42091554415106 -1.572676145432366 0 0 0
1091 1 -12.94075957941473 -66.42091554415106 2.159773854567636 0 0 0
1092 1 -11.50453803441473 -64.38728156815105 2.159773854567636 0 0 0
1093 1 -13.65697192041473 -64.38728156815105 3.403933807767634 0 0 0
1094 1 -13.65697192041473 -64.38728156815105 0.9156288311676359 0 0 0
1095 1 -11.50453803441473 -64.38728156815105 4.648078831167636 0 0 0
1096 1 -10.06831648941473 -62.35364759215105 4.648078831167636 0 0 0
1097 1 -12.22075037541473 -62.35364759215105 5.892223854567636 0 0 0
1098 1 -12.22075037541473 -62.35364759215105 3.403933807767634 0 0 0
1099 1 -10.06831648941473 -62.35364759215105 7.136383807767634 0 0 0
1100 1 -8.63209494441473 -60.32001361615105 7.136383807767634 0 0 0
1101 1 -10.78452883041473 -60.32001361615105 5.892223854567636 0 0 0
1102 1 -12.94075957941473 -66.42091554415106 -5.305126145432366 0 0 0
1103 1 -15.09319346541473 -66.42091554415106 -4.060966192232366 0 0 0
1104 1 -15.09319346541473 -66.42091554415106 -6.549274154792366 0 0 0
1105 1 -12.94075957941473 -66.42091554415106 -2.816821168832366 0 0 0
1106 1 -11.50453803441473 -64.38728156815105 -2.816821168832366 0 0 0
1107 1 -13.65697192041473 -64.38728156815105 -1.572676145432366 0 0 0
1108 1 -13.65697192041473 -64.38728156815105 -4.060966192232366 0 0 0
1109 1 -11.50453803441473 -64.38728156815105 -0.3285161922323656 0 0 0
1110 1 -10.06831648941473 -62.35364759215105 -0.3285161922323656 0 0 0
1111 1 -12.22075037541473 -62.35364759215105 0.9156288311676359 0 0 0
1112 1 -12.22075037541473 -62.35364759215105 -1.572676145432366 0 0 0
1113 1 -10.06831648941473 -62.35364759215105 2.159773854567636 0 0 0
1114 1 -8.63209494441473 -60.32001361615105 2.159773854567636 0 0 0
1115 1 -10.78452883041473 -60.32001361615105 3.403933807767634 0 0 0
1116 1 -10.78452883041473 -60.32001361615105 0.9156288311676359 0 0 0
1117 1 -8.63209494441473 -60.32001361615105 4.648078831167636 0 0 0
1118 1 -7.195873399414728 -58.28637964015104 4.648078831167636 0 0 0
1119 1 -9.348307285414728 -58.28637964015104 5.892223854567636 0 0 0
1120 1 -9.348307285414728 -58.28637964015104 3.403933807767634 0 0 0
1121 1 -7.195873399414728 -58.28637964015104 7.136383807767634 0 0 0
1122 1 -5.759651854414729 -56.25274566415105 7.136383807767634 0 0 0
1123 1 -7.912085740414728 -56.25274566415105 5.892223854567636 0 0 0
1124 1 -13.65697192041473 -64.38728156815105 -6.549274154792366 0 0 0
1125 1 -11.50453803441473 -64.38728156815105 -5.305126145432366 0 0 0
1126 1 -10.06831648941473 -62.35364759215105 -5.305126145432366 0 0 0
1127 1 -12.22075037541473 -62.35364759215105 -4.060966192232366 0 0 0
1128 1 -12.22075037541473 -62.35364759215105 -6.549272661812366 0 0 0
1129 1 -10.06831648941473 -62.35364759215105 -2.816821168832366 0 0 0
1130 1 -8.63209494441473 -60.32001361615105 -2.816821168832366 0 0 0
1131 1 -10.78452883041473 -60.32001361615105 -1.572676145432366 0 0 0
1132 1 -10.78452883041473 -60.32001361615105 -4.060966192232366 0 0 0
1133 1 -8.63209494441473 -60.32001361615105 -0.3285161922323656 0 0 0
1134 1 -7.195873399414728 -58.28637964015104 -0.3285161922323656 0 0 0
1135 1 -9.348307285414728 -58.28637964015104 0.9156288311676359 0 0 0
1136 1 -9.348307285414728 -58.28637964015104 -1.572676145432366 0 0 0
1137 1 -7.195873399414728 -58.28637964015104 2.159773854567636 0 0 0
1138 1 -5.759651854414729 -56.25274566415105 2.159773854567636 0 0 0
1139 1 -7.912085740414728 -56.25274566415105 3.403933807767634 0 0 0
1140 1 -7.912085740414728 -56.25274566415105 0.9156288311676359 0 0 0
1141 1 -5.759651854414729 -56.25274566415105 4.648078831167636 0 0 0
1142 1 -4.323430309414729 -54.21911168815105 4.648078831167636 0 0 0
1143 1 -6.475864195414729 -54.21911168815105 5.892223854567636 0 0 0
1144 1 -6.475864195414729 -54.21911168815105 3.403933807767634 0 0 0
1145 1 -4.323430309414729 -54.21911168815105 7.136383807767634 0 0 0
1146 1 -10.78452883041473 -60.32001361615105 -6.549272661812366 0 0 0
1147 1 -8.63209494441473 -60.32001361615105 -5.305126145432366 0 0 0
1148 1 -7.195873399414728 -58.28637964015104 -5.305126145432366 0 0 0
1149 1 -9.348307285414728 -58.28637964015104 -4.060966192232366 0 0 0
1150 1 -9.348307285414728 -58.28637964015104 -6.549272661812366 0 0 0
1151 1 -7.195873399414728 -58.28637964015104 -2.816821168832366 0 0 0
1152 1 -5.759651854414729 -56.25274566415105 -2.816821168832366 0 0 0
1153 1 -7.912085740414728 -56.25274566415105 -1.572676145432366 0 0 0
1154 1 -7.912085740414728 -56.25274566415105 -4.060966192232366 0 0 0
1155 1 -5.759651854414729 -56.25274566415105 -0.3285161922323656 0 0 0
1156 1 -4.323430309414729 -54.21911168815105 -0.3285161922323656 0 0 0
1157 1 -6.475864195414729 -54.21911168815105 0.9156288311676359 0 0 0
1158 1 -6.475864195414729 -54.21911168815105 -1.572676145432366 0 0 0
1159 1 -4.323430309414729 -54.21911168815105 2.159773854567636 0 0 0
1160 1 -7.912085740414728 -56.25274566415105 -6.549271168832366 0 0 0
1161 1 -5.759651854414729 -56.25274566415105 -5.305126145432366 0 0 0
1162 1 -4.323430309414729 -54.21911168815105 -5.305126145432366 0 0 0
1163 1 -6.475864195414729 -54.21911168815105 -4.060966192232366 0 0 0
1164 1 -6.475864195414729 -54.21911168815105 -6.549271168832366 0 0 0
1165 1 -4.323430309414729 -54.21911168815105 -2.816821168832366 0 0 0
1166 1 -17.24561185401473 -66.42091554415106 7.136368877967636 0 0 0
1167 1 -17.24561185401473 -66.42091554415106 2.159773854567636 0 0 0
1168 1 -17.24561185401473 -66.42091554415106 4.648078831167636 0 0 0
1169 1 -15.80939030901473 -64.38728156815105 4.648078831167636 0 0 0
1170 1 -17.96180482326473 -64.38728156815105 5.892223854567636 0 0 0
1171 1 -17.96180482326473 -64.38728156815105 3.403918877967635 0 0 0
1172 1 -15.80939030901473 -64.38728156815105 7.136368877967636 0 0 0
1173 1 -14.37318426141473 -62.35364759215105 7.136383807767634 0 0 0
1174 1 -16.52558327826473 -62.35364759215105 5.892223854567636 0 0 0
1175 1 -17.24561185401473 -66.42091554415106 -2.816821168832366 0 0 0
1176 1 -17.24561185401473 -66.42091554415106 -0.3285311220323663 0 0 0
1177 1 -15.80939030901473 -64.38728156815105 -0.3285311220323663 0 0 0
1178 1 -17.96180482326473 -64.38728156815105 0.9156288311676359 0 0 0
1179 1 -17.96180482326473 -64.38728156815105 -1.572676145432366 0 0 0
1180 1 -15.80939030901473 -64.38728156815105 2.159773854567636 0 0 0
1181 1 -14.37318426141473 -62.35364759215105 2.159773854567636 0 0 0
1182 1 -16.52558327826473 -62.35364759215105 3.403918877967635 0 0 0
1183 1 -16.52558327826473 -62.35364759215105 0.9156288311676359 0 0 0
1184 1 -14.37318426141473 -62.35364759215105 4.648078831167636 0 0 0
1185 1 -12.93696271641473 -60.32001361615105 4.648078831167636 0 0 0
1186 1 -15.08935785891473 -60.32001361615105 5.892223854567636 0 0 0
1187 1 -15.08935785891473 -60.32001361615105 3.403933807767634 0 0 0
1188 1 -12.93696271641473 -60.32001361615105 7.136383807767634 0 0 0
1189 1 -11.50074117141473 -58.28637964015104 7.136383807767634 0 0 0
1190 1 -13.65313631391473 -58.28637964015104 5.892223854567636 0 0 0
1191 1 -17.24561185401473 -66.42091554415106 -5.305126145432366 0 0 0
1192 1 -15.80939030901473 -64.38728156815105 -5.305126145432366 0 0 0
1193 1 -17.96180482326473 -64.38728156815105 -4.060981122032365 0 0 0
1194 1 -17.96180482326473 -64.38728156815105 -6.549274154792366 0 0 0
1195 1 -15.80939030901473 -64.38728156815105 -2.816821168832366 0 0 0
1196 1 -14.37318426141473 -62.35364759215105 -2.816821168832366 0 0 0
1197 1 -16.52558327826473 -62.35364759215105 -1.572676145432366 0 0 0
1198 1 -16.52558327826473 -62.35364759215105 -4.060981122032365 0 0 0
1199 1 -14.37318426141473 -62.35364759215105 -0.3285161922323656 0 0 0
1200 1 -12.93696271641473 -60.32001361615105 -0.3285161922323656 0 0 0
1201 1 -15.08935785891473 -60.32001361615105 0.9156288311676359 0 0 0
1202 1 -15.08935785891473 -60.32001361615105 -1.572676145432366 0 0 0
1203 1 -12.93696271641473 -60.32001361615105 2.159773854567636 0 0 0
1204 1 -11.50074117141473 -58.28637964015104 2.159773854567636 0 0 0
1205 1 -13.65313631391473 -58.28637964015104 3.403933807767634 0 0 0
1206 1 -13.65313631391473 -58.28637964015104 0.9156288311676359 0 0 0
1207 1 -11.50074117141473 -58.28637964015104 4.648078831167636 0 0 0
1208 1 -10.06448088291473 -56.25274566415105 4.648078831167636 0 0 0
1209 1 -12.21691476891473 -56.25274566415105 5.892223854567636 0 0 0
1210 1 -12.21691476891473 -56.25274566415105 3.403933807767634 0 0 0
1211 1 -10.06448088291473 -56.25274566415105 7.136383807767634 0 0 0
1212 1 -8.628259337914729 -54.21911168815105 7.136383807767634 0 0 0
1213 1 -10.78069322391473 -54.21911168815105 5.892223854567636 0 0 0
1214 1 -16.52558327826473 -62.35364759215105 -6.549274154792366 0 0 0
1215 1 -14.37318426141473 -62.35364759215105 -5.305126145432366 0 0 0
1216 1 -12.93696271641473 -60.32001361615105 -5.305126145432366 0 0 0
1217 1 -15.08935785891473 -60.32001361615105 -4.060966192232366 0 0 0
1218 1 -15.08935785891473 -60.32001361615105 -6.549274154792366 0 0 0
1219 1 -12.93696271641473 -60.32001361615105 -2.816821168832366 0 0 0
1220 1 -11.50074117141473 -58.28637964015104 -2.816821168832366 0 0 0
1221 1 -13.65313631391473 -58.28637964015104 -1.572676145432366 0 0 0
1222 1 -13.65313631391473 -58.28637964015104 -4.060966192232366 0 0 0
1223 1 -11.50074117141473 -58.28637964015104 -0.3285161922323656 0 0 0
1224 1 -10.06448088291473 -56.25274566415105 -0.3285161922323656 0 0 0
1225 1 -12.21691476891473 -56.25274566415105 0.9156288311676359 0 0 0
1226 1 -12.21691476891473 -56.25274566415105 -1.572676145432366 0 0 0
1227 1 -10.06448088291473 -56.25274566415105 2.159773854567636 0 0 0
1228 1 -8.628259337914729 -54.21911168815105 2.159773854567636 0 0 0
1229 1 -10.78069322391473 -54.21911168815105 3.403933807767634 0 0 0
1230 1 -10.78069322391473 -54.21911168815105 0.9156288311676359 0 0 0
1231 1 -8.628259337914729 -54.21911168815105 4.648078831167636 0 0 0
1232 1 -13.65313631391473 -58.28637964015104 -6.549272661812366 0 0 0
1233 1 -11.50074117141473 -58.28637964015104 -5.305126145432366 0 0 0
1234 1 -10.06448088291473 -56.25274566415105 -5.305126145432366 0 0 0
1235 1 -12.21691476891473 -56.25274566415105 -4.060966192232366 0 0 0
1236 1 -12.21691476891473 -56.25274566415105 -6.549272661812366 0 0 0
1237 1 -10.06448088291473 -56.25274566415105 -2.816821168832366 0 0 0
1238 1 -8.628259337914729 -54.21911168815105 -2.816821168832366 0 0 0
1239 1 -10.78069322391473 -54.21911168815105 -1.572676145432366 0 0 0
1240 1 -10.78069322391473 -54.21911168815105 -4.060966192232366 0 0 0
1241 1 -8.628259337914729 -54.21911168815105 -0.3285161922323656 0 0 0
1242 1 -10.78069322391473 -54.21911168815105 -6.549271168832366 0 0 0
1243 1 -8.628259337914729 -54.21911168815105 -5.305126145432366 0 0 0
1244 1 -18.67800166686473 -62.35364759215105 4.648078831167636 0 0 0
1245 1 -18.67800166686473 -62.35364759215105 7.136368877967636 0 0 0
1246 1 -17.24178012186473 -60.32001361615105 7.136368877967636 0 0 0
1247 1 -18.67800166686473 -62.35364759215105 -0.3285311220323663 0 0 0
1248 1 -18.67800166686473 -62.35364759215105 2.159773854567636 0 0 0
1249 1 -17.24178012186473 -60.32001361615105 2.159773854567636 0 0 0
1250 1 -17.24178012186473 -60.32001361615105 4.648078831167636 0 0 0
1251 1 -15.80555857686473 -58.28637964015104 4.648078831167636 0 0 0
1252 1 -17.95797696546473 -58.28637964015104 5.892223854567636 0 0 0
1253 1 -17.95797696546473 -58.28637964015104 3.403918877967635 0 0 0
1254 1 -15.80555857686473 -58.28637964015104 7.136383807767634 0 0 0
1255 1 -14.36934865491473 -56.25274566415105 7.136383807767634 0 0 0
1256 1 -16.52175542046473 -56.25274566415105 5.892223854567636 0 0 0
1257 1 -18.67800166686473 -62.35364759215105 -5.305126145432366 0 0 0
1258 1 -18.67800166686473 -62.35364759215105 -2.816821168832366 0 0 0
1259 1 -17.24178012186473 -60.32001361615105 -2.816821168832366 0 0 0
1260 1 -17.24178012186473 -60.32001361615105 -0.3285311220323663 0 0 0
1261 1 -15.80555857686473 -58.28637964015104 -0.3285161922323656 0 0 0
1262 1 -17.95797696546473 -58.28637964015104 0.9156288311676359 0 0 0
1263 1 -17.95797696546473 -58.28637964015104 -1.572676145432366 0 0 0
1264 1 -15.80555857686473 -58.28637964015104 2.159773854567636 0 0 0
1265 1 -14.36934865491473 -56.25274566415105 2.159773854567636 0 0 0
1266 1 -16.52175542046473 -56.25274566415105 3.403933807767634 0 0 0
1267 1 -16.52175542046473 -56.25274566415105 0.9156288311676359 0 0 0
1268 1 -14.36934865491473 -56.25274566415105 4.648078831167636 0 0 0
1269 1 -12.93312710991473 -54.21911168815105 4.648078831167636 0 0 0
1270 1 -15.08552225241473 -54.21911168815105 5.892223854567636 0 0 0
1271 1 -15.08552225241473 -54.21911168815105 3.403933807767634 0 0 0
1272 1 -12.93312710991473 -54.21911168815105 7.136383807767634 0 0 0
1273 1 -17.24178012186473 -60.32001361615105 -5.305126145432366 0 0 0
1274 1 -15.80555857686473 -58.28637964015104 -5.305126145432366 0 0 0
1275 1 -17.95797696546473 -58.28637964015104 -4.060981122032365 0 0 0
1276 1 -17.95797696546473 -58.28637964015104 -6.549274154792366 0 0 0
1277 1 -15.80555857686473 -58.28637964015104 -2.816821168832366 0 0 0
1278 1 -14.36934865491473 -56.25274566415105 -2.816821168832366 0 0 0
1279 1 -16.52175542046473 -56.25274566415105 -1.572676145432366 0 0 0
1280 1 -16.52175542046473 -56.25274566415105 -4.060966192232366 0 0 0
1281 1 -14.36934865491473 -56.25274566415105 -0.3285161922323656 0 0 0
1282 1 -12.93312710991473 -54.21911168815105 -0.3285161922323656 0 0 0
1283 1 -15.08552225241473 -54.21911168815105 0.9156288311676359 0 0 0
1284 1 -15.08552225241473 -54.21911168815105 -1.572676145432366 0 0 0
1285 1 -12.93312710991473 -54.21911168815105 2.159773854567636 0 0 0
1286 1 -16.52175542046473 -56.25274566415105 -6.549272661812366 0 0 0
1287 1 -14.36934865491473 -56.25274566415105 -5.305126145432366 0 0 0
1288 1 -12.93312710991473 -54.21911168815105 -5.305126145432366 0 0 0
1289 1 -15.08552225241473 -54.21911168815105 -4.060966192232366 0 0 0
1290 1 -15.08552225241473 -54.21911168815105 -6.549272661812366 0 0 0
1291 1 -12.93312710991473 -54.21911168815105 -2.816821168832366 0 0 0
1292 1 -18.67417380906473 -56.25274566415105 4.648078831167636 0 0 0
1293 1 -18.67417380906473 -56.25274566415105 7.136368877967636 0 0 0
1294 1 -17.23795226406473 -54.21886319915106 7.136383807767634 0 0 0
1295 1 -18.67417380906473 -56.25274566415105 -0.3285311220323663 0 0 0
1296 1 -18.67417380906473 -56.25274566415105 2.159773854567636 0 0 0
1297 1 -17.23795226406473 -54.21886319915106 2.159773854567636 0 0 0
1298 1 -17.23795226406473 -54.21886319915106 4.648078831167636 0 0 0
1299 1 -18.67417380906473 -56.25274566415105 -5.305126145432366 0 0 0
1300 1 -18.67417380906473 -56.25274566415105 -2.816821168832366 0 0 0
1301 1 -17.23795226406473 -54.21886319915106 -2.816821168832366 0 0 0
1302 1 -17.23795226406473 -54.21886319915106 -0.3285161922323656 0 0 0
1303 1 -17.23795226406473 -54.21886319915106 -5.305126145432366 0 0 0
1304 1 -0.7347748784147292 -52.18522922315105 5.892223854567636 0 0 0
1305 1 -0.7347748784147292 -52.18522922315105 3.403933807767634 0 0 0
1306 1 -0.7347748784147292 -52.18522922315105 0.9156288311676359 0 0 0
1307 1 -0.7347748784147292 -52.18522922315105 -1.572676145432366 0 0 0
1308 1 -0.7347748784147292 -52.18522922315105 -4.060966192232366 0 0 0
1309 1 -0.7347748784147292 -52.18522922315105 -6.549272661812366 0 0 0
1310 1 -2.88720876441473 -52.18547771215106 7.136383807767634 0 0 0
1311 1 -5.039642650414729 -52.18547771215106 5.892223854567636 0 0 0
1312 1 -2.88720876441473 -52.18547771215106 2.159773854567636 0 0 0
1313 1 -5.039642650414729 -52.18547771215106 3.403933807767634 0 0 0
1314 1 -5.039642650414729 -52.18547771215106 0.9156288311676359 0 0 0
1315 1 -2.88720876441473 -52.18547771215106 4.648078831167636 0 0 0
1316 1 -1.450987219414731 -50.15159524715105 4.648078831167636 0 0 0
1317 1 -3.60342110541473 -50.15159524715105 5.892223854567636 0 0 0
1318 1 -3.60342110541473 -50.15159524715105 3.403933807767634 0 0 0
1319 1 -1.450987219414731 -50.15159524715105 7.136383807767634 0 0 0
1320 1 -2.16719956041473 -48.11796127115105 5.892223854567636 0 0 0
1321 1 -2.88720876441473 -52.18547771215106 -2.816821168832366 0 0 0
1322 1 -5.039642650414729 -52.18547771215106 -1.572676145432366 0 0 0
1323 1 -5.039642650414729 -52.18547771215106 -4.060966192232366 0 0 0
1324 1 -2.88720876441473 -52.18547771215106 -0.3285161922323656 0 0 0
1325 1 -1.450987219414731 -50.15159524715105 -0.3285161922323656 0 0 0
1326 1 -3.60342110541473 -50.15159524715105 0.9156288311676359 0 0 0
1327 1 -3.60342110541473 -50.15159524715105 -1.572676145432366 0 0 0
1328 1 -1.450987219414731 -50.15159524715105 2.159773854567636 0 0 0
1329 1 -2.16719956041473 -48.11796127115105 3.403933807767634 0 0 0
1330 1 -2.16719956041473 -48.11796127115105 0.9156288311676359 0 0 0
1331 1 -0.7309392719147283 -46.08432729515104 5.892223854567636 0 0 0
1332 1 -0.7309392719147283 -46.08432729515104 3.403918877967635 0 0 0
1333 1 -5.039642650414729 -52.18547771215106 -6.549271168832366 0 0 0
1334 1 -2.88720876441473 -52.18547771215106 -5.305126145432366 0 0 0
1335 1 -1.450987219414731 -50.15159524715105 -5.305126145432366 0 0 0
1336 1 -3.60342110541473 -50.15159524715105 -4.060966192232366 0 0 0
1337 1 -3.60342110541473 -50.15159524715105 -6.549271168832366 0 0 0
1338 1 -1.450987219414731 -50.15159524715105 -2.816821168832366 0 0 0
1339 1 -2.16719956041473 -48.11796127115105 -1.572676145432366 0 0 0
1340 1 -2.16719956041473 -48.11796127115105 -4.060966192232366 0 0 0
1341 1 -0.7309392719147283 -46.08432729515104 0.9156288311676359 0 0 0
1342 1 -0.7309392719147283 -46.08432729515104 -1.572676145432366 0 0 0
1343 1 -2.16719956041473 -48.11796127115105 -6.549272661812366 0 0 0
1344 1 -0.7309392719147283 -46.08432729515104 -4.060981122032365 0 0 0
1345 1 -0.7309392719147283 -46.08432729515104 -6.549277140752365 0 0 0
1346 1 -7.19203779291473 -52.18547771215106 4.648078831167636 0 0 0
1347 1 -9.344471678914729 -52.18522922315105 5.892223854567636 0 0 0
1348 1 -9.344471678914729 -52.18522922315105 3.403933807767634 0 0 0
1349 1 -7.19203779291473 -52.18547771215106 7.136383807767634 0 0 0
1350 1 -5.75581624791473 -50.15159524715105 7.136383807767634 0 0 0
1351 1 -7.908250133914731 -50.15159524715105 5.892238784367633 0 0 0
1352 1 -7.19203779291473 -52.18547771215106 -0.3285161922323656 0 0 0
1353 1 -9.344471678914729 -52.18522922315105 0.9156288311676359 0 0 0
1354 1 -9.344471678914729 -52.18522922315105 -1.572676145432366 0 0 0
1355 1 -7.19203779291473 -52.18547771215106 2.159773854567636 0 0 0
1356 1 -5.75581624791473 -50.15159524715105 2.159773854567636 0 0 0
1357 1 -7.908250133914731 -50.15159524715105 3.403933807767634 0 0 0
1358 1 -7.908250133914731 -50.15159524715105 0.9156288311676359 0 0 0
1359 1 -5.75581624791473 -50.15159524715105 4.648078831167636 0 0 0
1360 1 -4.319594702914728 -48.11796127115105 4.648078831167636 0 0 0
1361 1 -6.472028588914728 -48.11796127115105 5.892238784367633 0 0 0
1362 1 -6.472028588914728 -48.11796127115105 3.403933807767634 0 0 0
1363 1 -4.319594702914728 -48.11796127115105 7.136383807767634 0 0 0
1364 1 -2.883373157914729 -46.08432729515104 7.136383807767634 0 0 0
1365 1 -5.035807043914728 -46.08432729515104 5.892223854567636 0 0 0
1366 1 -7.19203779291473 -52.18547771215106 -5.305126145432366 0 0 0
1367 1 -9.344471678914729 -52.18522922315105 -4.060966192232366 0 0 0
1368 1 -9.344471678914729 -52.18522922315105 -6.549269675852366 0 0 0
1369 1 -7.19203779291473 -52.18547771215106 -2.816821168832366 0 0 0
1370 1 -5.75581624791473 -50.15159524715105 -2.816821168832366 0 0 0
1371 1 -7.908250133914731 -50.15159524715105 -1.572661215632365 0 0 0
1372 1 -7.908250133914731 -50.15159524715105 -4.060966192232366 0 0 0
1373 1 -5.75581624791473 -50.15159524715105 -0.3285161922323656 0 0 0
1374 1 -4.319594702914728 -48.11796127115105 -0.3285161922323656 0 0 0
1375 1 -6.472028588914728 -48.11796127115105 0.9156288311676359 0 0 0
1376 1 -6.472028588914728 -48.11796127115105 -1.572661215632365 0 0 0
1377 1 -4.319594702914728 -48.11796127115105 2.159773854567636 0 0 0
1378 1 -2.883373157914729 -46.08432729515104 2.159773854567636 0 0 0
1379 1 -5.035807043914728 -46.08432729515104 3.403933807767634 0 0 0
1380 1 -5.035807043914728 -46.08432729515104 0.9156288311676359 0 0 0
1381 1 -2.883373157914729 -46.08432729515104 4.648078831167636 0 0 0
1382 1 -1.44715161291473 -44.05069331915105 4.648063901367635 0 0 0
1383 1 -3.599585498914729 -44.05069331915105 5.892223854567636 0 0 0
1384 1 -3.599585498914729 -44.05069331915105 3.403918877967635 0 0 0
1385 1 -1.44715161291473 -44.05069331915105 7.136368877967636 0 0 0
1386 1 -2.16332521041473 -42.01705934315105 5.892223854567636 0 0 0
1387 1 -7.908250133914731 -50.15159524715105 -6.549268182872366 0 0 0
1388 1 -5.75581624791473 -50.15159524715105 -5.305126145432366 0 0 0
1389 1 -4.319594702914728 -48.11796127115105 -5.305126145432366 0 0 0
1390 1 -6.472028588914728 -48.11796127115105 -4.060966192232366 0 0 0
1391 1 -6.472028588914728 -48.11796127115105 -6.549268182872366 0 0 0
1392 1 -4.319594702914728 -48.11796127115105 -2.816821168832366 0 0 0
1393 1 -2.883373157914729 -46.08432729515104 -2.816821168832366 0 0 0
1394 1 -5.035807043914728 -46.08432729515104 -1.572676145432366 0 0 0
1395 1 -5.035807043914728 -46.08432729515104 -4.060966192232366 0 0 0
1396 1 -2.883373157914729 -46.08432729515104 -0.3285161922323656 0 0 0
1397 1 -1.44715161291473 -44.05069331915105 -0.3285311220323663 0 0 0
1398 1 -3.599585498914729 -44.05069331915105 0.9156288311676359 0 0 0
1399 1 -3.599585498914729 -44.05069331915105 -1.572676145432366 0 0 0
1400 1 -1.44715161291473 -44.05069331915105 2.159773854567636 0 0 0
1401 1 -2.16332521041473 -42.01705934315105 3.403918877967635 0 0 0
1402 1 -2.16332521041473 -42.01705934315105 0.9156139013676352 0 0 0
1403 1 -5.035807043914728 -46.08432729515104 -6.549269675852366 0 0 0
1404 1 -2.883373157914729 -46.08432729515104 -5.305126145432366 0 0 0
1405 1 -1.44715161291473 -44.05069331915105 -5.305126145432366 0 0 0
1406 1 -3.599585498914729 -44.05069331915105 -4.060981122032365 0 0 0
1407 1 -3.599585498914729 -44.05069331915105 -6.549274154792366 0 0 0
1408 1 -1.44715161291473 -44.05069331915105 -2.816836098632366 0 0 0
1409 1 -2.16332521041473 -42.01705934315105 -1.572676145432366 0 0 0
1410 1 -2.16332521041473 -42.01705934315105 -4.060981122032365 0 0 0
1411 1 -2.16332521041473 -42.01705934315105 -6.549283112672366 0 0 0
1412 1 -11.49690556491473 -52.18522922315105 7.136383807767634 0 0 0
1413 1 -13.64930070741473 -52.18522922315105 5.892223854567636 0 0 0
1414 1 -11.49690556491473 -52.18522922315105 2.159773854567636 0 0 0
1415 1 -13.64930070741473 -52.18522922315105 3.403933807767634 0 0 0
1416 1 -13.64930070741473 -52.18522922315105 0.9156288311676359 0 0 0
1417 1 -11.49690556491473 -52.18522922315105 4.648078831167636 0 0 0
1418 1 -10.06068401991473 -50.15159524715105 4.648078831167636 0 0 0
1419 1 -12.21307916241473 -50.15159524715105 5.892238784367633 0 0 0
1420 1 -12.21307916241473 -50.15159524715105 3.403933807767634 0 0 0
1421 1 -10.06068401991473 -50.15159524715105 7.136383807767634 0 0 0
1422 1 -8.624423731414728 -48.11796127115105 7.136383807767634 0 0 0
1423 1 -10.77685761741473 -48.11796127115105 5.892238784367633 0 0 0
1424 1 -11.49690556491473 -52.18522922315105 -2.816821168832366 0 0 0
1425 1 -13.64930070741473 -52.18522922315105 -1.572676145432366 0 0 0
1426 1 -13.64930070741473 -52.18522922315105 -4.060966192232366 0 0 0
1427 1 -11.49690556491473 -52.18522922315105 -0.3285161922323656 0 0 0
1428 1 -10.06068401991473 -50.15159524715105 -0.3285161922323656 0 0 0
1429 1 -12.21307916241473 -50.15159524715105 0.9156288311676359 0 0 0
1430 1 -12.21307916241473 -50.15159524715105 -1.572661215632365 0 0 0
1431 1 -10.06068401991473 -50.15159524715105 2.159788784367633 0 0 0
1432 1 -8.624423731414728 -48.11796127115105 2.159788784367633 0 0 0
1433 1 -10.77685761741473 -48.11796127115105 3.403933807767634 0 0 0
1434 1 -10.77685761741473 -48.11796127115105 0.9156288311676359 0 0 0
1435 1 -8.624423731414728 -48.11796127115105 4.648078831167636 0 0 0
1436 1 -7.188202186414729 -46.08432729515104 4.648078831167636 0 0 0
1437 1 -9.340636072414728 -46.08432729515104 5.892238784367633 0 0 0
1438 1 -9.340636072414728 -46.08432729515104 3.403933807767634 0 0 0
1439 1 -7.188202186414729 -46.08432729515104 7.136383807767634 0 0 0
1440 1 -5.751980641414729 -44.05069331915105 7.136383807767634 0 0 0
1441 1 -7.90441452741473 -44.05069331915105 5.892238784367633 0 0 0
1442 1 -13.64930070741473 -52.18522922315105 -6.549271168832366 0 0 0
1443 1 -11.49690556491473 -52.18522922315105 -5.305126145432366 0 0 0
1444 1 -10.06068401991473 -50.15159524715105 -5.305111215632365 0 0 0
1445 1 -12.21307916241473 -50.15159524715105 -4.060966192232366 0 0 0
1446 1 -12.21307916241473 -50.15159524715105 -6.549268182872366 0 0 0
1447 1 -10.06068401991473 -50.15159524715105 -2.816821168832366 0 0 0
1448 1 -8.624423731414728 -48.11796127115105 -2.816821168832366 0 0 0
1449 1 -10.77685761741473 -48.11796127115105 -1.572661215632365 0 0 0
1450 1 -10.77685761741473 -48.11796127115105 -4.060966192232366 0 0 0
1451 1 -8.624423731414728 -48.11796127115105 -0.3285161922323656 0 0 0
1452 1 -7.188202186414729 -46.08432729515104 -0.3285161922323656 0 0 0
1453 1 -9.340636072414728 -46.08432729515104 0.9156288311676359 0 0 0
1454 1 -9.340636072414728 -46.08432729515104 -1.572661215632365 0 0 0
1455 1 -7.188202186414729 -46.08432729515104 2.159788784367633 0 0 0
1456 1 -5.751980641414729 -44.05069331915105 2.159773854567636 0 0 0
1457 1 -7.90441452741473 -44.05069331915105 3.403933807767634 0 0 0
1458 1 -7.90441452741473 -44.05069331915105 0.9156288311676359 0 0 0
1459 1 -5.751980641414729 -44.05069331915105 4.648078831167636 0 0 0
1460 1 -4.31575909641473 -42.01705934315105 4.648078831167636 0 0 0
1461 1 -6.468192982414729 -42.01705934315105 5.892238784367633 0 0 0
1462 1 -6.468192982414729 -42.01705934315105 3.403933807767634 0 0 0
1463 1 -4.31575909641473 -42.01705934315105 7.136368877967636 0 0 0
1464 1 -10.77685761741473 -48.11796127115105 -6.549266689892366 0 0 0
1465 1 -8.624423731414728 -48.11796127115105 -5.305111215632365 0 0 0
1466 1 -7.188202186414729 -46.08432729515104 -5.305111215632365 0 0 0
1467 1 -9.340636072414728 -46.08432729515104 -4.060966192232366 0 0 0
1468 1 -9.340636072414728 -46.08432729515104 -6.549263703932366 0 0 0
1469 1 -7.188202186414729 -46.08432729515104 -2.816821168832366 0 0 0
1470 1 -5.751980641414729 -44.05069331915105 -2.816821168832366 0 0 0
1471 1 -7.90441452741473 -44.05069331915105 -1.572661215632365 0 0 0
1472 1 -7.90441452741473 -44.05069331915105 -4.060966192232366 0 0 0
1473 1 -5.751980641414729 -44.05069331915105 -0.3285161922323656 0 0 0
1474 1 -4.31575909641473 -42.01705934315105 -0.3285311220323663 0 0 0
1475 1 -6.468192982414729 -42.01705934315105 0.9156288311676359 0 0 0
1476 1 -6.468192982414729 -42.01705934315105 -1.572661215632365 0 0 0
1477 1 -4.31575909641473 -42.01705934315105 2.159773854567636 0 0 0
1478 1 -7.90441452741473 -44.05069331915105 -6.549265196912366 0 0 0
1479 1 -5.751980641414729 -44.05069331915105 -5.305126145432366 0 0 0
1480 1 -4.31575909641473 -42.01705934315105 -5.305126145432366 0 0 0
1481 1 -6.468192982414729 -42.01705934315105 -4.060966192232366 0 0 0
1482 1 -6.468192982414729 -42.01705934315105 -6.549268182872366 0 0 0
1483 1 -4.31575909641473 -42.01705934315105 -2.816821168832366 0 0 0
1484 1 -15.80173071906473 -52.18522922315105 4.648078831167636 0 0 0
1485 1 -17.95414910766473 -52.18522922315105 5.892223854567636 0 0 0
1486 1 -17.95414910766473 -52.18522922315105 3.403933807767634 0 0 0
1487 1 -15.80173071906473 -52.18522922315105 7.136383807767634 0 0 0
1488 1 -14.36551304841473 -50.15159524715105 7.136383807767634 0 0 0
1489 1 -16.51792756266473 -50.15159524715105 5.892223854567636 0 0 0
1490 1 -15.80173071906473 -52.18522922315105 -0.3285161922323656 0 0 0
1491 1 -17.95414910766473 -52.18522922315105 0.9156288311676359 0 0 0
1492 1 -17.95414910766473 -52.18522922315105 -1.572676145432366 0 0 0
1493 1 -15.80173071906473 -52.18522922315105 2.159773854567636 0 0 0
1494 1 -14.36551304841473 -50.15159524715105 2.159773854567636 0 0 0
1495 1 -16.51792756266473 -50.15159524715105 3.403933807767634 0 0 0
1496 1 -16.51792756266473 -50.15159524715105 0.9156288311676359 0 0 0
1497 1 -14.36551304841473 -50.15159524715105 4.648078831167636 0 0 0
1498 1 -12.92929150341473 -48.11796127115105 4.648078831167636 0 0 0
1499 1 -15.08172538941473 -48.11796127115105 5.892238784367633 0 0 0
1500 1 -15.08172538941473 -48.11796127115105 3.403933807767634 0 0 0
1501 1 -12.92929150341473 -48.11796127115105 7.136383807767634 0 0 0
1502 1 -11.49306995841473 -46.08432729515104 7.136383807767634 0 0 0
1503 1 -13.64546510091473 -46.08432729515104 5.892238784367633 0 0 0
1504 1 -15.80173071906473 -52.18522922315105 -5.305126145432366 0 0 0
1505 1 -17.95414910766473 -52.18522922315105 -4.060966192232366 0 0 0
1506 1 -17.95414910766473 -52.18522922315105 -6.549272661812366 0 0 0
1507 1 -15.80173071906473 -52.18522922315105 -2.816821168832366 0 0 0
1508 1 -14.36551304841473 -50.15159524715105 -2.816821168832366 0 0 0
1509 1 -16.51792756266473 -50.15159524715105 -1.572676145432366 0 0 0
1510 1 -16.51792756266473 -50.15159524715105 -4.060966192232366 0 0 0
1511 1 -14.36551304841473 -50.15159524715105 -0.3285161922323656 0 0 0
1512 1 -12.92929150341473 -48.11796127115105 -0.3285161922323656 0 0 0
1513 1 -15.08172538941473 -48.11796127115105 0.9156288311676359 0 0 0
1514 1 -15.08172538941473 -48.11796127115105 -1.572661215632365 0 0 0
1515 1 -12.92929150341473 -48.11796127115105 2.159788784367633 0 0 0
1516 1 -11.49306995841473 -46.08432729515104 2.159788784367633 0 0 0
1517 1 -13.64546510091473 -46.08432729515104 3.403933807767634 0 0 0
1518 1 -13.64546510091473 -46.08432729515104 0.9156437609676331 0 0 0
1519 1 -11.49306995841473 -46.08432729515104 4.648093760967633 0 0 0
1520 1 -10.05684841341473 -44.05069331915105 4.648093760967633 0 0 0
1521 1 -12.20924355591473 -44.05069331915105 5.892238784367633 0 0 0
1522 1 -12.20924355591473 -44.05069331915105 3.403933807767634 0 0 0
1523 1 -10.05684841341473 -44.05069331915105 7.136383807767634 0 0 0
1524 1 -8.620588124914729 -42.01705934315105 7.136383807767634 0 0 0
1525 1 -10.77302201091473 -42.01705934315105 5.892238784367633 0 0 0
1526 1 -16.51792756266473 -50.15159524715105 -6.549271168832366 0 0 0
1527 1 -14.36551304841473 -50.15159524715105 -5.305126145432366 0 0 0
1528 1 -12.92929150341473 -48.11796127115105 -5.305111215632365 0 0 0
1529 1 -15.08172538941473 -48.11796127115105 -4.060966192232366 0 0 0
1530 1 -15.08172538941473 -48.11796127115105 -6.549266689892366 0 0 0
1531 1 -12.92929150341473 -48.11796127115105 -2.816821168832366 0 0 0
1532 1 -11.49306995841473 -46.08432729515104 -2.816806239032365 0 0 0
1533 1 -13.64546510091473 -46.08432729515104 -1.572661215632365 0 0 0
1534 1 -13.64546510091473 -46.08432729515104 -4.060966192232366 0 0 0
1535 1 -11.49306995841473 -46.08432729515104 -0.3285161922323656 0 0 0
1536 1 -10.05684841341473 -44.05069331915105 -0.3285161922323656 0 0 0
1537 1 -12.20924355591473 -44.05069331915105 0.9156437609676331 0 0 0
1538 1 -12.20924355591473 -44.05069331915105 -1.572661215632365 0 0 0
1539 1 -10.05684841341473 -44.05069331915105 2.159788784367633 0 0 0
1540 1 -8.620588124914729 -42.01705934315105 2.159788784367633 0 0 0
1541 1 -10.77302201091473 -42.01705934315105 3.403948737567633 0 0 0
1542 1 -10.77302201091473 -42.01705934315105 0.9156437609676331 0 0 0
1543 1 -8.620588124914729 -42.01705934315105 4.648093760967633 0 0 0
1544 1 -13.64546510091473 -46.08432729515104 -6.549263703932366 0 0 0
1545 1 -11.49306995841473 -46.08432729515104 -5.305111215632365 0 0 0
1546 1 -10.05684841341473 -44.05069331915105 -5.305111215632365 0 0 0
1547 1 -12.20924355591473 -44.05069331915105 -4.060966192232366 0 0 0
1548 1 -12.20924355591473 -44.05069331915105 -6.549259224992365 0 0 0
1549 1 -10.05684841341473 -44.05069331915105 -2.816806239032365 0 0 0
1550 1 -8.620588124914729 -42.01705934315105 -2.816806239032365 0 0 0
1551 1 -10.77302201091473 -42.01705934315105 -1.572661215632365 0 0 0
1552 1 -10.77302201091473 -42.01705934315105 -4.060951262432366 0 0 0
1553 1 -8.620588124914729 -42.01705934315105 -0.3285161922323656 0 0 0
1554 1 -10.77302201091473 -42.01705934315105 -6.549256239032366 0 0 0
1555 1 -8.620588124914729 -42.01705934315105 -5.305111215632365 0 0 0
1556 1 -18.67034595126473 -50.15159524715105 4.648078831167636 0 0 0
1557 1 -18.67034595126473 -50.15159524715105 7.136383807767634 0 0 0
1558 1 -17.23412828061473 -48.11796127115105 7.136383807767634 0 0 0
1559 1 -18.67034595126473 -50.15159524715105 -0.3285161922323656 0 0 0
1560 1 -18.67034595126473 -50.15159524715105 2.159773854567636 0 0 0
1561 1 -17.23412828061473 -48.11796127115105 2.159773854567636 0 0 0
1562 1 -17.23412828061473 -48.11796127115105 4.648078831167636 0 0 0
1563 1 -15.79790673561473 -46.08432729515104 4.648078831167636 0 0 0
1564 1 -17.95032512421473 -46.08432729515104 5.892238784367633 0 0 0
1565 1 -17.95032512421473 -46.08432729515104 3.403933807767634 0 0 0
1566 1 -15.79790673561473 -46.08432729515104 7.136383807767634 0 0 0
1567 1 -14.36167744191473 -44.05069331915105 7.136383807767634 0 0 0
1568 1 -16.51410357921473 -44.05069331915105 5.892238784367633 0 0 0
1569 1 -18.67034595126473 -50.15159524715105 -5.305126145432366 0 0 0
1570 1 -18.67034595126473 -50.15159524715105 -2.816821168832366 0 0 0
1571 1 -17.23412828061473 -48.11796127115105 -2.816821168832366 0 0 0
1572 1 -17.23412828061473 -48.11796127115105 -0.3285161922323656 0 0 0
1573 1 -15.79790673561473 -46.08432729515104 -0.3285161922323656 0 0 0
1574 1 -17.95032512421473 -46.08432729515104 0.9156288311676359 0 0 0
1575 1 -17.95032512421473 -46.08432729515104 -1.572661215632365 0 0 0
1576 1 -15.79790673561473 -46.08432729515104 2.159788784367633 0 0 0
1577 1 -14.36167744191473 -44.05069331915105 2.159788784367633 0 0 0
1578 1 -16.51410357921473 -44.05069331915105 3.403933807767634 0 0 0
1579 1 -16.51410357921473 -44.05069331915105 0.9156437609676331 0 0 0
1580 1 -14.36167744191473 -44.05069331915105 4.648093760967633 0 0 0
1581 1 -12.92545589691473 -42.01705934315105 4.648093760967633 0 0 0
1582 1 -15.07788978291473 -42.01705934315105 5.892253714167634 0 0 0
1583 1 -15.07788978291473 -42.01705934315105 3.403948737567633 0 0 0
1584 1 -12.92545589691473 -42.01705934315105 7.136398737567633 0 0 0
1585 1 -17.23412828061473 -48.11796127115105 -5.305126145432366 0 0 0
1586 1 -15.79790673561473 -46.08432729515104 -5.305111215632365 0 0 0
1587 1 -17.95032512421473 -46.08432729515104 -4.060966192232366 0 0 0
1588 1 -17.95032512421473 -46.08432729515104 -6.549266689892366 0 0 0
1589 1 -15.79790673561473 -46.08432729515104 -2.816821168832366 0 0 0
1590 1 -14.36167744191473 -44.05069331915105 -2.816806239032365 0 0 0
1591 1 -16.51410357921473 -44.05069331915105 -1.572661215632365 0 0 0
1592 1 -16.51410357921473 -44.05069331915105 -4.060966192232366 0 0 0
1593 1 -14.36167744191473 -44.05069331915105 -0.3285161922323656 0 0 0
1594 1 -12.92545589691473 -42.01705934315105 -0.3285012624323658 0 0 0
1595 1 -15.07788978291473 -42.01705934315105 0.9156437609676331 0 0 0
1596 1 -15.07788978291473 -42.01705934315105 -1.572646285832366 0 0 0
1597 1 -12.92545589691473 -42.01705934315105 2.159803714167634 0 0 0
1598 1 -16.51410357921473 -44.05069331915105 -6.549260717972365 0 0 0
1599 1 -14.36167744191473 -44.05069331915105 -5.305111215632365 0 0 0
1600 1 -12.92545589691473 -42.01705934315105 -5.305096285832366 0 0 0
1601 1 -15.07788978291473 -42.01705934315105 -4.060951262432366 0 0 0
1602 1 -15.07788978291473 -42.01705934315105 -6.549253253072366 0 0 0
1603 1 -12.92545589691473 -42.01705934315105 -2.816806239032365 0 0 0
1604 1 -18.66652584216473 -44.05069331915105 4.648093760967633 0 0 0
1605 1 -18.66652584216473 -44.05069331915105 7.136383807767634 0 0 0
1606 1 -17.23030429716473 -42.01705934315105 7.136398737567633 0 0 0
1607 1 -18.66652584216473 -44.05069331915105 -0.3285161922323656 0 0 0
1608 1 -18.66652584216473 -44.05069331915105 2.159788784367633 0 0 0
1609 1 -17.23030429716473 -42.01705934315105 2.159788784367633 0 0 0
1610 1 -17.23030429716473 -42.01705934315105 4.648093760967633 0 0 0
1611 1 -18.66652584216473 -44.05069331915105 -5.305111215632365 0 0 0
1612 1 -18.66652584216473 -44.05069331915105 -2.816806239032365 0 0 0
1613 1 -17.23030429716473 -42.01705934315105 -2.816806239032365 0 0 0
1614 1 -17.23030429716473 -42.01705934315105 -0.3285012624323658 0 0 0
1615 1 -17.23030429716473 -42.01705934315105 -5.305111215632365 0 0 0
1616 1 -0.7271036654147274 -39.98342536715106 5.892208924767635 0 0 0
1617 1 -0.7271036654147274 -39.98342536715106 3.403903948167635 0 0 0
1618 1 -0.7271036654147274 -39.98342536715106 0.9155989715676345 0 0 0
1619 1 -0.7271036654147274 -39.98342536715106 -1.572691075232366 0 0 0
1620 1 -0.7271036654147274 -39.98342536715106 -4.060996051832365 0 0 0
1621 1 -0.7271036654147274 -39.98342536715106 -6.549295056512365 0 0 0
1622 1 -2.879537551414728 -39.98342536715106 7.136368877967636 0 0 0
1623 1 -5.03193269391473 -39.98342536715106 5.892223854567636 0 0 0
1624 1 -2.879537551414728 -39.98342536715106 2.159758924767635 0 0 0
1625 1 -5.03193269391473 -39.98342536715106 3.403918877967635 0 0 0
1626 1 -5.03193269391473 -39.98342536715106 0.9156288311676359 0 0 0
1627 1 -2.879537551414728 -39.98342536715106 4.648063901367635 0 0 0
1628 1 -1.443316006414729 -37.94979139115105 4.648048971567635 0 0 0
1629 1 -3.595711148914729 -37.94979139115105 5.892208924767635 0 0 0
1630 1 -3.595711148914729 -37.94979139115105 3.403903948167635 0 0 0
1631 1 -1.443316006414729 -37.94979139115105 7.136339018367634 0 0 0
1632 1 -2.159489603914729 -35.91615741515105 5.892179065167634 0 0 0
1633 1 -2.879537551414728 -39.98342536715106 -2.816836098632366 0 0 0
1634 1 -5.03193269391473 -39.98342536715106 -1.572676145432366 0 0 0
1635 1 -5.03193269391473 -39.98342536715106 -4.060981122032365 0 0 0
1636 1 -2.879537551414728 -39.98342536715106 -0.3285311220323663 0 0 0
1637 1 -1.443316006414729 -37.94979139115105 -0.328560981632366 0 0 0
1638 1 -3.595711148914729 -37.94979139115105 0.9155989715676345 0 0 0
1639 1 -3.595711148914729 -37.94979139115105 -1.572691075232366 0 0 0
1640 1 -1.443316006414729 -37.94979139115105 2.159743994967634 0 0 0
1641 1 -2.159489603914729 -35.91615741515105 3.403874088567635 0 0 0
1642 1 -2.159489603914729 -35.91615741515105 0.9155840417676337 0 0 0
1643 1 -0.72326805891473 -33.88227495015106 5.892149205567634 0 0 0
1644 1 -0.72326805891473 -33.88227495015106 3.403844228967634 0 0 0
1645 1 -5.03193269391473 -39.98342536715106 -6.549278633732365 0 0 0
1646 1 -2.879537551414728 -39.98342536715106 -5.305141075232365 0 0 0
1647 1 -1.443316006414729 -37.94979139115105 -5.305156005032366 0 0 0
1648 1 -3.595711148914729 -37.94979139115105 -4.060996051832365 0 0 0
1649 1 -3.595711148914729 -37.94979139115105 -6.549295056512365 0 0 0
1650 1 -1.443316006414729 -37.94979139115105 -2.816851028432366 0 0 0
1651 1 -2.159489603914729 -35.91615741515105 -1.572720934832366 0 0 0
1652 1 -2.159489603914729 -35.91615741515105 -4.061025911432366 0 0 0
1653 1 -0.72326805891473 -33.88227495015106 0.9155541821676341 0 0 0
1654 1 -0.72326805891473 -33.88227495015106 -1.572750794432365 0 0 0
1655 1 -2.159489603914729 -35.91615741515105 -6.549320437172366 0 0 0
1656 1 -0.72326805891473 -33.88227495015106 -4.061055771032366 0 0 0
1657 1 -0.72326805891473 -33.88227495015106 -6.549353282732365 0 0 0
1658 1 -7.184366579914728 -39.98342536715106 4.648078831167636 0 0 0
1659 1 -9.336800465914727 -39.98342536715106 5.892238784367633 0 0 0
1660 1 -9.336800465914727 -39.98342536715106 3.403933807767634 0 0 0
1661 1 -7.184366579914728 -39.98342536715106 7.136383807767634 0 0 0
1662 1 -5.74814503491473 -37.94979139115105 7.136368877967636 0 0 0
1663 1 -7.900578920914729 -37.94979139115105 5.892238784367633 0 0 0
1664 1 -7.184366579914728 -39.98342536715106 -0.3285161922323656 0 0 0
1665 1 -9.336800465914727 -39.98342536715106 0.9156437609676331 0 0 0
1666 1 -9.336800465914727 -39.98342536715106 -1.572661215632365 0 0 0
1667 1 -7.184366579914728 -39.98342536715106 2.159788784367633 0 0 0
1668 1 -5.74814503491473 -37.94979139115105 2.159773854567636 0 0 0
1669 1 -7.900578920914729 -37.94979139115105 3.403933807767634 0 0 0
1670 1 -7.900578920914729 -37.94979139115105 0.9156288311676359 0 0 0
1671 1 -5.74814503491473 -37.94979139115105 4.648063901367635 0 0 0
1672 1 -4.311923489914729 -35.91615741515105 4.648048971567635 0 0 0
1673 1 -6.464318632414731 -35.91615741515105 5.892208924767635 0 0 0
1674 1 -6.464318632414731 -35.91615741515105 3.403903948167635 0 0 0
1675 1 -4.311923489914729 -35.91615741515105 7.136339018367634 0 0 0
1676 1 -2.875701944914731 -33.88227495015106 7.136309158767634 0 0 0
1677 1 -5.028097087414729 -33.88252343915104 5.892179065167634 0 0 0
1678 1 -7.184366579914728 -39.98342536715106 -5.305111215632365 0 0 0
1679 1 -9.336800465914727 -39.98342536715106 -4.060966192232366 0 0 0
1680 1 -9.336800465914727 -39.98342536715106 -6.549259224992365 0 0 0
1681 1 -7.184366579914728 -39.98342536715106 -2.816821168832366 0 0 0
1682 1 -5.74814503491473 -37.94979139115105 -2.816836098632366 0 0 0
1683 1 -7.900578920914729 -37.94979139115105 -1.572661215632365 0 0 0
1684 1 -7.900578920914729 -37.94979139115105 -4.060966192232366 0 0 0
1685 1 -5.74814503491473 -37.94979139115105 -0.3285311220323663 0 0 0
1686 1 -4.311923489914729 -35.91615741515105 -0.328560981632366 0 0 0
1687 1 -6.464318632414731 -35.91615741515105 0.9156139013676352 0 0 0
1688 1 -6.464318632414731 -35.91615741515105 -1.572691075232366 0 0 0
1689 1 -4.311923489914729 -35.91615741515105 2.159743994967634 0 0 0
1690 1 -2.875701944914731 -33.88227495015106 2.159714135367635 0 0 0
1691 1 -5.028097087414729 -33.88252343915104 3.403874088567635 0 0 0
1692 1 -5.028097087414729 -33.88252343915104 0.9155691119676348 0 0 0
1693 1 -2.875701944914731 -33.88227495015106 4.648004182167634 0 0 0
1694 1 -1.439441656414729 -31.84864097415105 4.647959392767635 0 0 0
1695 1 -3.591875542414728 -31.84864097415105 5.892134275767635 0 0 0
1696 1 -3.591875542414728 -31.84864097415105 3.403829299167635 0 0 0
1697 1 -1.439441656414729 -31.84864097415105 7.136264369367636 0 0 0
1698 1 -2.155653997414728 -29.81500699815105 5.892059626767633 0 0 0
1699 1 -7.900578920914729 -37.94979139115105 -6.549268182872366 0 0 0
1700 1 -5.74814503491473 -37.94979139115105 -5.305126145432366 0 0 0
1701 1 -4.311923489914729 -35.91615741515105 -5.305156005032366 0 0 0
1702 1 -6.464318632414731 -35.91615741515105 -4.060996051832365 0 0 0
1703 1 -6.464318632414731 -35.91615741515105 -6.549289084592366 0 0 0
1704 1 -4.311923489914729 -35.91615741515105 -2.816851028432366 0 0 0
1705 1 -2.875701944914731 -33.88227495015106 -2.816895817832365 0 0 0
1706 1 -5.028097087414729 -33.88252343915104 -1.572720934832366 0 0 0
1707 1 -5.028097087414729 -33.88252343915104 -4.061025911432366 0 0 0
1708 1 -2.875701944914731 -33.88227495015106 -0.3285908412323657 0 0 0
1709 1 -1.439441656414729 -31.84864097415105 -0.3286356306323661 0 0 0
1710 1 -3.591875542414728 -31.84864097415105 0.9155243225676344 0 0 0
1711 1 -3.591875542414728 -31.84864097415105 -1.572765724232366 0 0 0
1712 1 -1.439441656414729 -31.84864097415105 2.159669345967634 0 0 0
1713 1 -2.155653997414728 -29.81500699815105 3.403769579967634 0 0 0
1714 1 -2.155653997414728 -29.81500699815105 0.9154646033676332 0 0 0
1715 1 -0.7194324524147291 -27.78137302215104 5.891999907567635 0 0 0
1716 1 -0.7194324524147291 -27.78137302215104 3.403709860767634 0 0 0
1717 1 -5.028097087414729 -33.88252343915104 -6.549323423132366 0 0 0
1718 1 -2.875701944914731 -33.88227495015106 -5.305185864632366 0 0 0
1719 1 -1.439441656414729 -31.84864097415105 -5.305230654032366 0 0 0
1720 1 -3.591875542414728 -31.84864097415105 -4.061070700832365 0 0 0
1721 1 -3.591875542414728 -31.84864097415105 -6.549372691472366 0 0 0
1722 1 -1.439441656414729 -31.84864097415105 -2.816940607232366 0 0 0
1723 1 -2.155653997414728 -29.81500699815105 -1.572840373232365 0 0 0
1724 1 -2.155653997414728 -29.81500699815105 -4.061130420032366 0 0 0
1725 1 -0.7194324524147291 -27.78137302215104 0.9154048841676339 0 0 0
1726 1 -0.7194324524147291 -27.78137302215104 -1.572900092432366 0 0 0
1727 1 -2.155653997414728 -29.81500699815105 -6.549432410672366 0 0 0
1728 1 -0.7194324524147291 -27.78137302215104 -4.061190139232366 0 0 0
1729 1 -0.7194324524147291 -27.78137302215104 -6.549493622852365 0 0 0
1730 1 -11.48923435191473 -39.98342536715106 7.136398737567633 0 0 0
1731 1 -13.64166823791473 -39.98342536715106 5.892253714167634 0 0 0
1732 1 -11.48923435191473 -39.98342536715106 2.159803714167634 0 0 0
1733 1 -13.64166823791473 -39.98342536715106 3.403948737567633 0 0 0
1734 1 -13.64166823791473 -39.98342536715106 0.9156586907676338 0 0 0
1735 1 -11.48923435191473 -39.98342536715106 4.648093760967633 0 0 0
1736 1 -10.05297406341473 -37.94979139115105 4.648093760967633 0 0 0
1737 1 -12.20540794941473 -37.94979139115105 5.892253714167634 0 0 0
1738 1 -12.20540794941473 -37.94979139115105 3.403948737567633 0 0 0
1739 1 -10.05297406341473 -37.94979139115105 7.136398737567633 0 0 0
1740 1 -8.61675251841473 -35.91615741515105 7.136383807767634 0 0 0
1741 1 -10.76918640441473 -35.91615741515105 5.892253714167634 0 0 0
1742 1 -11.48923435191473 -39.98342536715106 -2.816806239032365 0 0 0
1743 1 -13.64166823791473 -39.98342536715106 -1.572646285832366 0 0 0
1744 1 -13.64166823791473 -39.98342536715106 -4.060951262432366 0 0 0
1745 1 -11.48923435191473 -39.98342536715106 -0.3285012624323658 0 0 0
1746 1 -10.05297406341473 -37.94979139115105 -0.3285012624323658 0 0 0
1747 1 -12.20540794941473 -37.94979139115105 0.9156586907676338 0 0 0
1748 1 -12.20540794941473 -37.94979139115105 -1.572646285832366 0 0 0
1749 1 -10.05297406341473 -37.94979139115105 2.159788784367633 0 0 0
1750 1 -8.61675251841473 -35.91615741515105 2.159773854567636 0 0 0
1751 1 -10.76918640441473 -35.91615741515105 3.403948737567633 0 0 0
1752 1 -10.76918640441473 -35.91615741515105 0.9156437609676331 0 0 0
1753 1 -8.61675251841473 -35.91615741515105 4.648078831167636 0 0 0
1754 1 -7.180530973414729 -33.88252343915104 4.648048971567635 0 0 0
1755 1 -9.33296485941473 -33.88252343915104 5.892223854567636 0 0 0
1756 1 -9.33296485941473 -33.88252343915104 3.403933807767634 0 0 0
1757 1 -7.180530973414729 -33.88252343915104 7.136353948167635 0 0 0
1758 1 -5.744309428414729 -31.84864097415105 7.136309158767634 0 0 0
1759 1 -7.896704570914729 -31.84888946315105 5.892179065167634 0 0 0
1760 1 -13.64166823791473 -39.98342536715106 -6.549245788172366 0 0 0
1761 1 -11.48923435191473 -39.98342536715106 -5.305096285832366 0 0 0
1762 1 -10.05297406341473 -37.94979139115105 -5.305111215632365 0 0 0
1763 1 -12.20540794941473 -37.94979139115105 -4.060951262432366 0 0 0
1764 1 -12.20540794941473 -37.94979139115105 -6.549244295192366 0 0 0
1765 1 -10.05297406341473 -37.94979139115105 -2.816806239032365 0 0 0
1766 1 -8.61675251841473 -35.91615741515105 -2.816821168832366 0 0 0
1767 1 -10.76918640441473 -35.91615741515105 -1.572646285832366 0 0 0
1768 1 -10.76918640441473 -35.91615741515105 -4.060951262432366 0 0 0
1769 1 -8.61675251841473 -35.91615741515105 -0.3285161922323656 0 0 0
1770 1 -7.180530973414729 -33.88252343915104 -0.3285460518323653 0 0 0
1771 1 -9.33296485941473 -33.88252343915104 0.9156288311676359 0 0 0
1772 1 -9.33296485941473 -33.88252343915104 -1.572676145432366 0 0 0
1773 1 -7.180530973414729 -33.88252343915104 2.159743994967634 0 0 0
1774 1 -5.744309428414729 -31.84864097415105 2.159699205567634 0 0 0
1775 1 -7.896704570914729 -31.84888946315105 3.403889018367634 0 0 0
1776 1 -7.896704570914729 -31.84888946315105 0.9155840417676337 0 0 0
1777 1 -5.744309428414729 -31.84864097415105 4.648004182167634 0 0 0
1778 1 -4.308049139914729 -29.81500699815105 4.647929533167634 0 0 0
1779 1 -6.46048302591473 -29.81500699815105 5.892119345967634 0 0 0
1780 1 -6.46048302591473 -29.81500699815105 3.403814369367636 0 0 0
1781 1 -4.308049139914729 -29.81500699815105 7.136234509767634 0 0 0
1782 1 -2.87182759491473 -27.78137302215104 7.136144930967635 0 0 0
1783 1 -5.024261480914729 -27.78137302215104 5.892014837367634 0 0 0
1784 1 -10.76918640441473 -35.91615741515105 -6.549250267112366 0 0 0
1785 1 -8.61675251841473 -35.91615741515105 -5.305126145432366 0 0 0
1786 1 -7.180530973414729 -33.88252343915104 -5.305156005032366 0 0 0
1787 1 -9.33296485941473 -33.88252343915104 -4.060966192232366 0 0 0
1788 1 -9.33296485941473 -33.88252343915104 -6.549272661812366 0 0 0
1789 1 -7.180530973414729 -33.88252343915104 -2.816851028432366 0 0 0
1790 1 -5.744309428414729 -31.84864097415105 -2.816895817832365 0 0 0
1791 1 -7.896704570914729 -31.84888946315105 -1.572720934832366 0 0 0
1792 1 -7.896704570914729 -31.84888946315105 -4.061010981632366 0 0 0
1793 1 -5.744309428414729 -31.84864097415105 -0.3285908412323657 0 0 0
1794 1 -4.308049139914729 -29.81500699815105 -0.3286654902323658 0 0 0
1795 1 -6.46048302591473 -29.81500699815105 0.9155093927676354 0 0 0
1796 1 -6.46048302591473 -29.81500699815105 -1.572780654032366 0 0 0
1797 1 -4.308049139914729 -29.81500699815105 2.159639486367634 0 0 0
1798 1 -2.87182759491473 -27.78137302215104 2.159549907567635 0 0 0
1799 1 -5.024261480914729 -27.78137302215104 3.403724790567635 0 0 0
1800 1 -5.024261480914729 -27.78137302215104 0.9154198139676346 0 0 0
1801 1 -2.87182759491473 -27.78137302215104 4.647854884167634 0 0 0
1802 1 -7.896704570914729 -31.84888946315105 -6.549315958232365 0 0 0
1803 1 -5.744309428414729 -31.84864097415105 -5.305200794432366 0 0 0
1804 1 -4.308049139914729 -29.81500699815105 -5.305260513632366 0 0 0
1805 1 -6.46048302591473 -29.81500699815105 -4.061085630632366 0 0 0
1806 1 -6.46048302591473 -29.81500699815105 -6.549384635312366 0 0 0
1807 1 -4.308049139914729 -29.81500699815105 -2.816970466832366 0 0 0
1808 1 -2.87182759491473 -27.78137302215104 -2.817045115832365 0 0 0
1809 1 -5.024261480914729 -27.78137302215104 -1.572885162632366 0 0 0
1810 1 -5.024261480914729 -27.78137302215104 -4.061175209432366 0 0 0
1811 1 -2.87182759491473 -27.78137302215104 -0.3287550690323657 0 0 0
1812 1 -5.024261480914729 -27.78137302215104 -6.549478693052365 0 0 0
1813 1 -2.87182759491473 -27.78137302215104 -5.305350092432366 0 0 0
1814 1 -15.79407887781473 -39.98342536715106 4.648108690767634 0 0 0
1815 1 -17.94650501511473 -39.98317687815104 5.892253714167634 0 0 0
1816 1 -17.94650501511473 -39.98317687815104 3.403948737567633 0 0 0
1817 1 -15.79407887781473 -39.98342536715106 7.136398737567633 0 0 0
1818 1 -14.35784183541473 -37.94979139115105 7.136413667367634 0 0 0
1819 1 -16.51028347011473 -37.94954290215105 5.892268643967634 0 0 0
1820 1 -15.79407887781473 -39.98342536715106 -0.3285012624323658 0 0 0
1821 1 -17.94650501511473 -39.98317687815104 0.9156586907676338 0 0 0
1822 1 -17.94650501511473 -39.98317687815104 -1.572646285832366 0 0 0
1823 1 -15.79407887781473 -39.98342536715106 2.159803714167634 0 0 0
1824 1 -14.35784183541473 -37.94979139115105 2.159818643967634 0 0 0
1825 1 -16.51028347011473 -37.94954290215105 3.403963667367634 0 0 0
1826 1 -16.51028347011473 -37.94954290215105 0.9156736205676346 0 0 0
1827 1 -14.35784183541473 -37.94979139115105 4.648108690767634 0 0 0
1828 1 -12.92162029041473 -35.91615741515105 4.648108690767634 0 0 0
1829 1 -15.07405417641473 -35.91590892615105 5.892283573767635 0 0 0
1830 1 -15.07405417641473 -35.91590892615105 3.403978597167635 0 0 0
1831 1 -12.92162029041473 -35.91615741515105 7.136413667367634 0 0 0
1832 1 -11.48539874541473 -33.88252343915104 7.136398737567633 0 0 0
1833 1 -13.63783263141473 -33.88227495015106 5.892283573767635 0 0 0
1834 1 -15.79407887781473 -39.98342536715106 -5.305096285832366 0 0 0
1835 1 -17.94650501511473 -39.98317687815104 -4.060951262432366 0 0 0
1836 1 -17.94650501511473 -39.98317687815104 -6.549245788172366 0 0 0
1837 1 -15.79407887781473 -39.98342536715106 -2.816791309232366 0 0 0
1838 1 -14.35784183541473 -37.94979139115105 -2.816791309232366 0 0 0
1839 1 -16.51028347011473 -37.94954290215105 -1.572631356032366 0 0 0
1840 1 -16.51028347011473 -37.94954290215105 -4.060936332632366 0 0 0
1841 1 -14.35784183541473 -37.94979139115105 -0.3284863326323659 0 0 0
1842 1 -12.92162029041473 -35.91615741515105 -0.3284863326323659 0 0 0
1843 1 -15.07405417641473 -35.91590892615105 0.9156736205676346 0 0 0
1844 1 -15.07405417641473 -35.91590892615105 -1.572616426232366 0 0 0
1845 1 -12.92162029041473 -35.91615741515105 2.159818643967634 0 0 0
1846 1 -11.48539874541473 -33.88252343915104 2.159803714167634 0 0 0
1847 1 -13.63783263141473 -33.88227495015106 3.403978597167635 0 0 0
1848 1 -13.63783263141473 -33.88227495015106 0.9156736205676346 0 0 0
1849 1 -11.48539874541473 -33.88252343915104 4.648108690767634 0 0 0
1850 1 -10.04913845691473 -31.84888946315105 4.648063901367635 0 0 0
1851 1 -12.20157234291473 -31.84888946315105 5.892253714167634 0 0 0
1852 1 -12.20157234291473 -31.84888946315105 3.403963667367634 0 0 0
1853 1 -10.04913845691473 -31.84888946315105 7.136368877967636 0 0 0
1854 1 -8.612916911914729 -29.81525548715105 7.136309158767634 0 0 0
1855 1 -10.76535079791473 -29.81525548715105 5.892208924767635 0 0 0
1856 1 -16.51028347011473 -37.94954290215105 -6.549232351352366 0 0 0
1857 1 -14.35784183541473 -37.94979139115105 -5.305081356032366 0 0 0
1858 1 -12.92162029041473 -35.91615741515105 -5.305081356032366 0 0 0
1859 1 -15.07405417641473 -35.91590892615105 -4.060921402832365 0 0 0
1860 1 -15.07405417641473 -35.91590892615105 -6.549221900492366 0 0 0
1861 1 -12.92162029041473 -35.91615741515105 -2.816791309232366 0 0 0
1862 1 -11.48539874541473 -33.88252343915104 -2.816791309232366 0 0 0
1863 1 -13.63783263141473 -33.88227495015106 -1.572616426232366 0 0 0
1864 1 -13.63783263141473 -33.88227495015106 -4.060921402832365 0 0 0
1865 1 -11.48539874541473 -33.88252343915104 -0.3285012624323658 0 0 0
1866 1 -10.04913845691473 -31.84888946315105 -0.3285311220323663 0 0 0
1867 1 -12.20157234291473 -31.84888946315105 0.9156586907676338 0 0 0
1868 1 -12.20157234291473 -31.84888946315105 -1.572646285832366 0 0 0
1869 1 -10.04913845691473 -31.84888946315105 2.159773854567636 0 0 0
1870 1 -8.612916911914729 -29.81525548715105 2.159714135367635 0 0 0
1871 1 -10.76535079791473 -29.81525548715105 3.403903948167635 0 0 0
1872 1 -10.76535079791473 -29.81525548715105 0.9156139013676352 0 0 0
1873 1 -8.612916911914729 -29.81525548715105 4.648004182167634 0 0 0
1874 1 -7.17669536691473 -27.78137302215104 4.647914603367633 0 0 0
1875 1 -9.329090509414728 -27.78162151115104 5.892119345967634 0 0 0
1876 1 -9.329090509414728 -27.78162151115104 3.403829299167635 0 0 0
1877 1 -7.17669536691473 -27.78137302215104 7.136219579967634 0 0 0
1878 1 -13.63783263141473 -33.88227495015106 -6.549221900492366 0 0 0
1879 1 -11.48539874541473 -33.88252343915104 -5.305096285832366 0 0 0
1880 1 -10.04913845691473 -31.84888946315105 -5.305126145432366 0 0 0
1881 1 -12.20157234291473 -31.84888946315105 -4.060936332632366 0 0 0
1882 1 -12.20157234291473 -31.84888946315105 -6.549241309232365 0 0 0
1883 1 -10.04913845691473 -31.84888946315105 -2.816836098632366 0 0 0
1884 1 -8.612916911914729 -29.81525548715105 -2.816895817832365 0 0 0
1885 1 -10.76535079791473 -29.81525548715105 -1.572691075232366 0 0 0
1886 1 -10.76535079791473 -29.81525548715105 -4.060996051832365 0 0 0
1887 1 -8.612916911914729 -29.81525548715105 -0.3285908412323657 0 0 0
1888 1 -7.17669536691473 -27.78137302215104 -0.3286804200323656 0 0 0
1889 1 -9.329090509414728 -27.78162151115104 0.9155243225676344 0 0 0
1890 1 -9.329090509414728 -27.78162151115104 -1.572780654032366 0 0 0
1891 1 -7.17669536691473 -27.78137302215104 2.159609626767633 0 0 0
1892 1 -10.76535079791473 -29.81525548715105 -6.549289084592366 0 0 0
1893 1 -8.612916911914729 -29.81525548715105 -5.305185864632366 0 0 0
1894 1 -7.17669536691473 -27.78137302215104 -5.305290373232365 0 0 0
1895 1 -9.329090509414728 -27.78162151115104 -4.061070700832365 0 0 0
1896 1 -9.329090509414728 -27.78162151115104 -6.549375677432366 0 0 0
1897 1 -7.17669536691473 -27.78137302215104 -2.816985396632366 0 0 0
1898 1 -18.66270960741473 -37.94954290215105 4.648108690767634 0 0 0
1899 1 -18.66270960741473 -37.94954290215105 7.136413667367634 0 0 0
1900 1 -17.22648806241473 -35.91590892615105 7.136428597167635 0 0 0
1901 1 -18.66270960741473 -37.94954290215105 -0.3284863326323659 0 0 0
1902 1 -18.66270960741473 -37.94954290215105 2.159818643967634 0 0 0
1903 1 -17.22648806241473 -35.91590892615105 2.159833573767635 0 0 0
1904 1 -17.22648806241473 -35.91590892615105 4.648138550367635 0 0 0
1905 1 -15.79025876871473 -33.88227495015106 4.648138550367635 0 0 0
1906 1 -17.94269265471473 -33.88227495015106 5.892313433367635 0 0 0
1907 1 -17.94269265471473 -33.88227495015106 3.404008456767635 0 0 0
1908 1 -15.79025876871473 -33.88227495015106 7.136443526967634 0 0 0
1909 1 -14.35400622891473 -31.84864097415105 7.136443526967634 0 0 0
1910 1 -16.50646723536473 -31.84864097415105 5.892313433367635 0 0 0
1911 1 -18.66270960741473 -37.94954290215105 -5.305081356032366 0 0 0
1912 1 -18.66270960741473 -37.94954290215105 -2.816791309232366 0 0 0
1913 1 -17.22648806241473 -35.91590892615105 -2.816761449632366 0 0 0
1914 1 -17.22648806241473 -35.91590892615105 -0.3284714028323661 0 0 0
1915 1 -15.79025876871473 -33.88227495015106 -0.3284564730323654 0 0 0
1916 1 -17.94269265471473 -33.88227495015106 0.9157034801676343 0 0 0
1917 1 -17.94269265471473 -33.88227495015106 -1.572586566632366 0 0 0
1918 1 -15.79025876871473 -33.88227495015106 2.159848503567634 0 0 0
1919 1 -14.35400622891473 -31.84864097415105 2.159848503567634 0 0 0
1920 1 -16.50646723536473 -31.84864097415105 3.404023386567635 0 0 0
1921 1 -16.50646723536473 -31.84864097415105 0.915718409967635 0 0 0
1922 1 -14.35400622891473 -31.84864097415105 4.648138550367635 0 0 0
1923 1 -12.91778468391473 -29.81525548715105 4.648108690767634 0 0 0
1924 1 -15.07021856991473 -29.81500699815105 5.892313433367635 0 0 0
1925 1 -15.07021856991473 -29.81500699815105 3.404008456767635 0 0 0
1926 1 -12.91778468391473 -29.81525548715105 7.136413667367634 0 0 0
1927 1 -11.48152439541473 -27.78162151115104 7.136339018367634 0 0 0
1928 1 -13.63399702491473 -27.78162151115104 5.892268643967634 0 0 0
1929 1 -17.22648806241473 -35.91590892615105 -5.305066426232366 0 0 0
1930 1 -15.79025876871473 -33.88227495015106 -5.305051496432366 0 0 0
1931 1 -17.94269265471473 -33.88227495015106 -4.060891543232366 0 0 0
1932 1 -17.94269265471473 -33.88227495015106 -6.549193533872366 0 0 0
1933 1 -15.79025876871473 -33.88227495015106 -2.816761449632366 0 0 0
1934 1 -14.35400622891473 -31.84864097415105 -2.816761449632366 0 0 0
1935 1 -16.50646723536473 -31.84864097415105 -1.572586566632366 0 0 0
1936 1 -16.50646723536473 -31.84864097415105 -4.060876613432366 0 0 0
1937 1 -14.35400622891473 -31.84864097415105 -0.3284564730323654 0 0 0
1938 1 -12.91778468391473 -29.81525548715105 -0.3284863326323659 0 0 0
1939 1 -15.07021856991473 -29.81500699815105 0.915718409967635 0 0 0
1940 1 -15.07021856991473 -29.81500699815105 -1.572586566632366 0 0 0
1941 1 -12.91778468391473 -29.81525548715105 2.159818643967634 0 0 0
1942 1 -11.48152439541473 -27.78162151115104 2.159743994967634 0 0 0
1943 1 -13.63399702491473 -27.78162151115104 3.403963667367634 0 0 0
1944 1 -13.63399702491473 -27.78162151115104 0.9156586907676338 0 0 0
1945 1 -11.48152439541473 -27.78162151115104 4.648048971567635 0 0 0
1946 1 -16.50646723536473 -31.84864097415105 -6.549180097052366 0 0 0
1947 1 -14.35400622891473 -31.84864097415105 -5.305051496432366 0 0 0
1948 1 -12.91778468391473 -29.81525548715105 -5.305081356032366 0 0 0
1949 1 -15.07021856991473 -29.81500699815105 -4.060891543232366 0 0 0
1950 1 -15.07021856991473 -29.81500699815105 -6.549189054932365 0 0 0
1951 1 -12.91778468391473 -29.81525548715105 -2.816791309232366 0 0 0
1952 1 -11.48152439541473 -27.78162151115104 -2.816851028432366 0 0 0
1953 1 -13.63399702491473 -27.78162151115104 -1.572631356032366 0 0 0
1954 1 -13.63399702491473 -27.78162151115104 -4.060936332632366 0 0 0
1955 1 -11.48152439541473 -27.78162151115104 -0.328560981632366 0 0 0
1956 1 -13.63399702491473 -27.78162151115104 -6.549235337312366 0 0 0
1957 1 -11.48152439541473 -27.78162151115104 -5.305156005032366 0 0 0
1958 1 -18.65890499571473 -31.84864097415105 4.648183339767634 0 0 0
1959 1 -18.65890499571473 -31.84864097415105 7.136488316367634 0 0 0
1960 1 -17.22267957636473 -29.81500699815105 7.136503246167633 0 0 0
1961 1 -18.65890499571473 -31.84864097415105 -0.3284116836323658 0 0 0
1962 1 -18.65890499571473 -31.84864097415105 2.159893292967634 0 0 0
1963 1 -17.22267957636473 -29.81500699815105 2.159908222767633 0 0 0
1964 1 -17.22267957636473 -29.81500699815105 4.648198269567633 0 0 0
1965 1 -15.78644253396473 -27.78137302215104 4.648183339767634 0 0 0
1966 1 -17.93889966606473 -27.78137302215104 5.892388082367635 0 0 0
1967 1 -17.93889966606473 -27.78137302215104 3.404098035567635 0 0 0
1968 1 -15.78644253396473 -27.78137302215104 7.136488316367634 0 0 0
1969 1 -18.65890499571473 -31.84864097415105 -5.305006707032366 0 0 0
1970 1 -18.65890499571473 -31.84864097415105 -2.816716660232366 0 0 0
1971 1 -17.22267957636473 -29.81500699815105 -2.816701730432365 0 0 0
1972 1 -17.22267957636473 -29.81500699815105 -0.3283967538323651 0 0 0
1973 1 -15.78644253396473 -27.78137302215104 -0.3284116836323658 0 0 0
1974 1 -17.93889966606473 -27.78137302215104 0.9157930589676351 0 0 0
1975 1 -17.93889966606473 -27.78137302215104 -1.572511917632365 0 0 0
1976 1 -15.78644253396473 -27.78137302215104 2.159878363167635 0 0 0
1977 1 -17.22267957636473 -29.81500699815105 -5.304991777232366 0 0 0
1978 1 -15.78644253396473 -27.78137302215104 -5.305021636832366 0 0 0
1979 1 -17.93889966606473 -27.78137302215104 -4.060801964432367 0 0 0
1980 1 -17.93889966606473 -27.78137302215104 -6.549108434012366 0 0 0
1981 1 -15.78644253396473 -27.78137302215104 -2.816716660232366 0 0 0
1982 1 -1.435606049914728 -25.74773904615104 4.647765305367635 0 0 0
1983 1 -3.588039935914731 -25.74773904615104 5.891910328767635 0 0 0
1984 1 -3.588039935914731 -25.74773904615104 3.403605352167634 0 0 0
1985 1 -1.435606049914728 -25.74773904615104 7.136070281967635 0 0 0
1986 1 -2.151779647414731 -23.71410507015105 5.891790890367634 0 0 0
1987 1 -1.435606049914728 -25.74773904615104 -0.3288297180323658 0 0 0
1988 1 -3.588039935914731 -25.74773904615104 0.9153003755676341 0 0 0
1989 1 -3.588039935914731 -25.74773904615104 -1.572989671232365 0 0 0
1990 1 -1.435606049914728 -25.74773904615104 2.159475258567635 0 0 0
1991 1 -2.151779647414731 -23.71410507015105 3.403500843567635 0 0 0
1992 1 -2.151779647414731 -23.71410507015105 0.9151958669676343 0 0 0
1993 1 0.000654238585273248 -23.71410507015105 4.647720515967634 0 0 0
1994 1 -0.7155581024147288 -21.68047109415105 5.891746100967634 0 0 0
1995 1 -0.7155581024147288 -21.68047109415105 3.403441124367633 0 0 0
1996 1 -1.435606049914728 -25.74773904615104 -5.305424741432366 0 0 0
1997 1 -3.588039935914731 -25.74773904615104 -4.061294647832366 0 0 0
1998 1 -3.588039935914731 -25.74773904615104 -6.549593652512366 0 0 0
1999 1 -1.435606049914728 -25.74773904615104 -2.817134694632366 0 0 0
2000 1 -2.151779647414731 -23.71410507015105 -1.573109109632366 0 0 0
2001 1 -2.151779647414731 -23.71410507015105 -4.061399156432365 0 0 0
2002 1 -0.7155581024147288 -21.68047109415105 0.915136147767635 0 0 0
2003 1 -0.7155581024147288 -21.68047109415105 -1.573153899032365 0 0 0
2004 1 -2.151779647414731 -23.71410507015105 -6.549705626012366 0 0 0
2005 1 0.000654238585273248 -23.71410507015105 -5.305469530832366 0 0 0
2006 1 -0.7155581024147288 -21.68047109415105 -4.061458875632366 0 0 0
2007 1 -0.7155581024147288 -21.68047109415105 -6.549756387332366 0 0 0
2008 1 -5.740435078414729 -25.74773904615104 7.136085211767634 0 0 0
2009 1 -7.892868964414728 -25.74773904615104 5.891984977767635 0 0 0
2010 1 -5.740435078414729 -25.74773904615104 2.159490188367634 0 0 0
2011 1 -7.892868964414728 -25.74773904615104 3.403694930967635 0 0 0
2012 1 -7.892868964414728 -25.74773904615104 0.9153899543676349 0 0 0
2013 1 -5.740435078414729 -25.74773904615104 4.647780235167636 0 0 0
2014 1 -4.30421353341473 -23.71410507015105 4.647616007367635 0 0 0
2015 1 -6.456647419414729 -23.71410507015105 5.891805820167635 0 0 0
2016 1 -6.456647419414729 -23.71410507015105 3.403515773367635 0 0 0
2017 1 -4.30421353341473 -23.71410507015105 7.135920983967635 0 0 0
2018 1 -2.86795324491473 -21.68047109415105 7.135756756167634 0 0 0
2019 1 -5.020425874414729 -21.68047109415105 5.891581873167635 0 0 0
2020 1 -5.740435078414729 -25.74773904615104 -2.817119764832366 0 0 0
2021 1 -7.892868964414728 -25.74773904615104 -1.572915022232365 0 0 0
2022 1 -7.892868964414728 -25.74773904615104 -4.061205069032366 0 0 0
2023 1 -5.740435078414729 -25.74773904615104 -0.328814788232366 0 0 0
2024 1 -4.30421353341473 -23.71410507015105 -0.328979016032366 0 0 0
2025 1 -6.456647419414729 -23.71410507015105 0.9152107967676351 0 0 0
2026 1 -6.456647419414729 -23.71410507015105 -1.573094179832365 0 0 0
2027 1 -4.30421353341473 -23.71410507015105 2.159325960567633 0 0 0
2028 1 -2.86795324491473 -21.68047109415105 2.159161732767634 0 0 0
2029 1 -5.020425874414729 -21.68047109415105 3.403276896567634 0 0 0
2030 1 -5.020425874414729 -21.68047109415105 0.9149868497676348 0 0 0
2031 1 -2.86795324491473 -21.68047109415105 4.647466709367635 0 0 0
2032 1 -1.431731699914728 -19.64683711815105 4.647406990167633 0 0 0
2033 1 -3.584165585914729 -19.64683711815105 5.891342996367635 0 0 0
2034 1 -3.584165585914729 -19.64683711815105 3.403052949567634 0 0 0
2035 1 -1.431731699914728 -19.64683711815105 7.135697036967633 0 0 0
2036 1 -2.147905297414731 -17.61320314215105 5.891268347367633 0 0 0
2037 1 -7.892868964414728 -25.74773904615104 -6.549508552652366 0 0 0
2038 1 -5.740435078414729 -25.74773904615104 -5.305409811632366 0 0 0
2039 1 -4.30421353341473 -23.71410507015105 -5.305574039432365 0 0 0
2040 1 -6.456647419414729 -23.71410507015105 -4.061384226632366 0 0 0
2041 1 -6.456647419414729 -23.71410507015105 -6.549690696212366 0 0 0
2042 1 -4.30421353341473 -23.71410507015105 -2.817283992632366 0 0 0
2043 1 -2.86795324491473 -21.68047109415105 -2.817433290632366 0 0 0
2044 1 -5.020425874414729 -21.68047109415105 -1.573318126832365 0 0 0
2045 1 -5.020425874414729 -21.68047109415105 -4.061623103432366 0 0 0
2046 1 -2.86795324491473 -21.68047109415105 -0.3291432438323652 0 0 0
2047 1 -1.431731699914728 -19.64683711815105 -0.3292029630323654 0 0 0
2048 1 -3.584165585914729 -19.64683711815105 0.9147479729676338 0 0 0
2049 1 -3.584165585914729 -19.64683711815105 -1.573557003632366 0 0 0
2050 1 -1.431731699914728 -19.64683711815105 2.159102013567633 0 0 0
2051 1 -2.147905297414731 -17.61320314215105 3.402963370767633 0 0 0
2052 1 -2.147905297414731 -17.61320314215105 0.9146733239676337 0 0 0
2053 1 -0.7117612394147308 -15.57932067715105 5.891701311567635 0 0 0
2054 1 -0.7117612394147308 -15.57932067715105 3.403396334967635 0 0 0
2055 1 -5.020425874414729 -21.68047109415105 -6.549919122152366 0 0 0
2056 1 -2.86795324491473 -21.68047109415105 -5.305738267232366 0 0 0
2057 1 -1.431731699914728 -19.64683711815105 -5.305797986432365 0 0 0
2058 1 -3.584165585914729 -19.64683711815105 -4.061847050432366 0 0 0
2059 1 -3.584165585914729 -19.64683711815105 -6.550150534052365 0 0 0
2060 1 -1.431731699914728 -19.64683711815105 -2.817493009832366 0 0 0
2061 1 -2.147905297414731 -17.61320314215105 -1.573631652632366 0 0 0
2062 1 -2.147905297414731 -17.61320314215105 -4.061936629232366 0 0 0
2063 1 -0.7117612394147308 -15.57932067715105 0.9150913583676346 0 0 0
2064 1 -0.7117612394147308 -15.57932067715105 -1.573198688432366 0 0 0
2065 1 -2.147905297414731 -17.61320314215105 -6.550231154972366 0 0 0
2066 1 -0.7117612394147308 -15.57932067715105 -4.061503665032365 0 0 0
2067 1 -0.7117612394147308 -15.57932067715105 -6.549804162692366 0 0 0
2068 1 -10.04530285041473 -25.74798753515105 4.647914603367633 0 0 0
2069 1 -12.19773673641473 -25.74798753515105 5.892164135367635 0 0 0
2070 1 -12.19773673641473 -25.74798753515105 3.403859158767634 0 0 0
2071 1 -10.04530285041473 -25.74798753515105 7.136219579967634 0 0 0
2072 1 -8.609081305414728 -23.71410507015105 7.136040422367634 0 0 0
2073 1 -10.76147644791473 -23.71435355915105 5.891999907567635 0 0 0
2074 1 -10.04530285041473 -25.74798753515105 -0.3286804200323656 0 0 0
2075 1 -12.19773673641473 -25.74798753515105 0.9155691119676348 0 0 0
2076 1 -12.19773673641473 -25.74798753515105 -1.572735864632366 0 0 0
2077 1 -10.04530285041473 -25.74798753515105 2.159624556567634 0 0 0
2078 1 -8.609081305414728 -23.71410507015105 2.159445398967634 0 0 0
2079 1 -10.76147644791473 -23.71435355915105 3.403694930967635 0 0 0
2080 1 -10.76147644791473 -23.71435355915105 0.9154048841676339 0 0 0
2081 1 -8.609081305414728 -23.71410507015105 4.647735445767635 0 0 0
2082 1 -7.172859760414729 -21.68047109415105 4.647481639167635 0 0 0
2083 1 -9.325254902914729 -21.68047109415105 5.891746100967634 0 0 0
2084 1 -9.325254902914729 -21.68047109415105 3.403441124367633 0 0 0
2085 1 -7.172859760414729 -21.68047109415105 7.135786615767636 0 0 0
2086 1 -5.736638215414729 -19.64683711815105 7.135443230367635 0 0 0
2087 1 -7.889110844914731 -19.64683711815105 5.891387785767634 0 0 0
2088 1 -10.04530285041473 -25.74798753515105 -5.305275443432366 0 0 0
2089 1 -12.19773673641473 -25.74798753515105 -4.061040841232366 0 0 0
2090 1 -12.19773673641473 -25.74798753515105 -6.549335366972366 0 0 0
2091 1 -10.04530285041473 -25.74798753515105 -2.816985396632366 0 0 0
2092 1 -8.609081305414728 -23.71410507015105 -2.817164554232366 0 0 0
2093 1 -10.76147644791473 -23.71435355915105 -1.572900092432366 0 0 0
2094 1 -10.76147644791473 -23.71435355915105 -4.061205069032366 0 0 0
2095 1 -8.609081305414728 -23.71410507015105 -0.3288595776323655 0 0 0
2096 1 -7.172859760414729 -21.68047109415105 -0.3291133842323655 0 0 0
2097 1 -9.325254902914729 -21.68047109415105 0.9151510775676339 0 0 0
2098 1 -9.325254902914729 -21.68047109415105 -1.573153899032365 0 0 0
2099 1 -7.172859760414729 -21.68047109415105 2.159176662567635 0 0 0
2100 1 -5.736638215414729 -19.64683711815105 2.158848206967635 0 0 0
2101 1 -7.889110844914731 -19.64683711815105 3.403082809167634 0 0 0
2102 1 -7.889110844914731 -19.64683711815105 0.9147778325676335 0 0 0
2103 1 -5.736638215414729 -19.64683711815105 4.647153183567635 0 0 0
2104 1 -4.30041667041473 -17.61320314215105 4.646809798167634 0 0 0
2105 1 -6.45292804341473 -17.61320314215105 5.890880172567634 0 0 0
2106 1 -6.45292804341473 -17.61320314215105 3.402575195967634 0 0 0
2107 1 -4.30041667041473 -17.61320314215105 7.135099844967636 0 0 0
2108 1 -2.864117638414729 -15.57981765515105 7.134995336367636 0 0 0
2109 1 -5.016745241914728 -15.57956916615106 5.890342699767634 0 0 0
2110 1 -10.76147644791473 -23.71435355915105 -6.549502580732366 0 0 0
2111 1 -8.609081305414728 -23.71410507015105 -5.305454601032366 0 0 0
2112 1 -7.172859760414729 -21.68047109415105 -5.305723337432365 0 0 0
2113 1 -9.325254902914729 -21.68047109415105 -4.061458875632366 0 0 0
2114 1 -9.325254902914729 -21.68047109415105 -6.549751908392365 0 0 0
2115 1 -7.172859760414729 -21.68047109415105 -2.817418360832366 0 0 0
2116 1 -5.736638215414729 -19.64683711815105 -2.817746816432366 0 0 0
2117 1 -7.889110844914731 -19.64683711815105 -1.573512214232366 0 0 0
2118 1 -7.889110844914731 -19.64683711815105 -4.061817190832365 0 0 0
2119 1 -5.736638215414729 -19.64683711815105 -0.3294567696323654 0 0 0
2120 1 -4.30041667041473 -17.61320314215105 -0.3298001550323661 0 0 0
2121 1 -6.45292804341473 -17.61320314215105 0.9142851491676343 0 0 0
2122 1 -6.45292804341473 -17.61320314215105 -1.574019827432366 0 0 0
2123 1 -4.30041667041473 -17.61320314215105 2.158504821567634 0 0 0
2124 1 -2.864117638414729 -15.57981765515105 2.158400312967634 0 0 0
2125 1 -5.016745241914728 -15.57956916615106 3.402037723167634 0 0 0
2126 1 -5.016745241914728 -15.57956916615106 0.9137476763676347 0 0 0
2127 1 -2.864117638414729 -15.57981765515105 4.646690359767636 0 0 0
2128 1 -1.428012323914729 -13.54568670115106 4.647481639167635 0 0 0
2129 1 -3.580368722914729 -13.54668065715104 5.890208331567635 0 0 0
2130 1 -3.580368722914729 -13.54668065715104 3.401903354967635 0 0 0
2131 1 -1.428012323914729 -13.54568670115106 7.135771685967635 0 0 0
2132 1 -7.889110844914731 -19.64683711815105 -6.550117688492366 0 0 0
2133 1 -5.736638215414729 -19.64683711815105 -5.306051793032365 0 0 0
2134 1 -4.30041667041473 -17.61320314215105 -5.306395178432366 0 0 0
2135 1 -6.45292804341473 -17.61320314215105 -4.062324804032366 0 0 0
2136 1 -6.45292804341473 -17.61320314215105 -6.550619329772366 0 0 0
2137 1 -4.30041667041473 -17.61320314215105 -2.818090201832366 0 0 0
2138 1 -2.864117638414729 -15.57981765515105 -2.818209640232366 0 0 0
2139 1 -5.016745241914728 -15.57956916615106 -1.574557300232366 0 0 0
2140 1 -5.016745241914728 -15.57956916615106 -4.062862276832366 0 0 0
2141 1 -2.864117638414729 -15.57981765515105 -0.3299046636323659 0 0 0
2142 1 -1.428012323914729 -13.54568670115106 -0.3291283140323662 0 0 0
2143 1 -3.580368722914729 -13.54668065715104 0.9136133081676352 0 0 0
2144 1 -3.580368722914729 -13.54668065715104 -1.574691668432366 0 0 0
2145 1 -1.428012323914729 -13.54568670115106 2.159176662567635 0 0 0
2146 1 -5.016745241914728 -15.57956916615106 -6.551158295552366 0 0 0
2147 1 -2.864117638414729 -15.57981765515105 -5.306499687032366 0 0 0
2148 1 -1.428012323914729 -13.54568670115106 -5.305723337432365 0 0 0
2149 1 -3.580368722914729 -13.54668065715104 -4.062996645032365 0 0 0
2150 1 -3.580368722914729 -13.54668065715104 -6.551292663752366 0 0 0
2151 1 -1.428012323914729 -13.54568670115106 -2.817418360832366 0 0 0
2152 1 -14.35020936591473 -25.74798753515105 7.136413667367634 0 0 0
2153 1 -16.50266649801473 -25.74773904615104 5.892358222767633 0 0 0
2154 1 -14.35020936591473 -25.74798753515105 2.159818643967634 0 0 0
2155 1 -16.50266649801473 -25.74773904615104 3.404053246167633 0 0 0
2156 1 -16.50266649801473 -25.74773904615104 0.9157631993676336 0 0 0
2157 1 -14.35020936591473 -25.74798753515105 4.648108690767634 0 0 0
2158 1 -12.91391033391473 -23.71435355915105 4.647974322567634 0 0 0
2159 1 -15.06642170691473 -23.71435355915105 5.892253714167634 0 0 0
2160 1 -15.06642170691473 -23.71435355915105 3.403948737567633 0 0 0
2161 1 -12.91391033391473 -23.71435355915105 7.136279299167635 0 0 0
2162 1 -11.47765004541473 -21.68071958315106 7.136040422367634 0 0 0
2163 1 -13.63012267491473 -21.68071958315106 5.892059626767633 0 0 0
2164 1 -14.35020936591473 -25.74798753515105 -2.816791309232366 0 0 0
2165 1 -16.50266649801473 -25.74773904615104 -1.572541777232366 0 0 0
2166 1 -16.50266649801473 -25.74773904615104 -4.060846753832365 0 0 0
2167 1 -14.35020936591473 -25.74798753515105 -0.3284863326323659 0 0 0
2168 1 -12.91391033391473 -23.71435355915105 -0.3286207008323654 0 0 0
2169 1 -15.06642170691473 -23.71435355915105 0.9156586907676338 0 0 0
2170 1 -15.06642170691473 -23.71435355915105 -1.572646285832366 0 0 0
2171 1 -12.91391033391473 -23.71435355915105 2.159669345967634 0 0 0
2172 1 -11.47765004541473 -21.68071958315106 2.159445398967634 0 0 0
2173 1 -13.63012267491473 -21.68071958315106 3.403754650167635 0 0 0
2174 1 -13.63012267491473 -21.68071958315106 0.9154646033676332 0 0 0
2175 1 -11.47765004541473 -21.68071958315106 4.647750375567634 0 0 0
2176 1 -10.04146724391473 -19.64683711815105 4.647406990167633 0 0 0
2177 1 -12.19386238641473 -19.64733409615106 5.891761030767634 0 0 0
2178 1 -12.19386238641473 -19.64733409615106 3.403470983967635 0 0 0
2179 1 -10.04146724391473 -19.64683711815105 7.135697036967633 0 0 0
2180 1 -8.605400672914728 -17.61295465315105 7.135174493967634 0 0 0
2181 1 -10.75771832841473 -17.61320314215105 5.891298206967635 0 0 0
2182 1 -16.50266649801473 -25.74773904615104 -6.549144265532366 0 0 0
2183 1 -14.35020936591473 -25.74798753515105 -5.305081356032366 0 0 0
2184 1 -12.91391033391473 -23.71435355915105 -5.305230654032366 0 0 0
2185 1 -15.06642170691473 -23.71435355915105 -4.060951262432366 0 0 0
2186 1 -15.06642170691473 -23.71435355915105 -6.549248774132366 0 0 0
2187 1 -12.91391033391473 -23.71435355915105 -2.816925677432366 0 0 0
2188 1 -11.47765004541473 -21.68071958315106 -2.817149624432365 0 0 0
2189 1 -13.63012267491473 -21.68071958315106 -1.572840373232365 0 0 0
2190 1 -13.63012267491473 -21.68071958315106 -4.061145349832366 0 0 0
2191 1 -11.47765004541473 -21.68071958315106 -0.3288595776323655 0 0 0
2192 1 -10.04146724391473 -19.64683711815105 -0.3292029630323654 0 0 0
2193 1 -12.19386238641473 -19.64733409615106 0.9151660073676346 0 0 0
2194 1 -12.19386238641473 -19.64733409615106 -1.573138969232366 0 0 0
2195 1 -10.04146724391473 -19.64683711815105 2.159102013567633 0 0 0
2196 1 -8.605400672914728 -17.61295465315105 2.158579470567634 0 0 0
2197 1 -10.75771832841473 -17.61320314215105 3.402993230367635 0 0 0
2198 1 -10.75771832841473 -17.61320314215105 0.9146882537676344 0 0 0
2199 1 -8.605400672914728 -17.61295465315105 4.646869517367636 0 0 0
2200 1 -7.169256614914728 -15.57956916615106 4.646093167767635 0 0 0
2201 1 -9.321767987914729 -15.57907218815106 5.890491997767635 0 0 0
2202 1 -9.321767987914729 -15.57907218815106 3.402187021167634 0 0 0
2203 1 -7.169256614914728 -15.57956916615106 7.134383214567634 0 0 0
2204 1 -5.733228787414729 -13.54593519015106 7.133517286167635 0 0 0
2205 1 -7.88566267341473 -13.54593519015106 5.889208034967634 0 0 0
2206 1 -13.63012267491473 -21.68071958315106 -6.549438382592366 0 0 0
2207 1 -11.47765004541473 -21.68071958315106 -5.305454601032366 0 0 0
2208 1 -10.04146724391473 -19.64683711815105 -5.305797986432365 0 0 0
2209 1 -12.19386238641473 -19.64733409615106 -4.061429016032365 0 0 0
2210 1 -12.19386238641473 -19.64733409615106 -6.549735485612366 0 0 0
2211 1 -10.04146724391473 -19.64683711815105 -2.817493009832366 0 0 0
2212 1 -8.605400672914728 -17.61295465315105 -2.818030482632365 0 0 0
2213 1 -10.75771832841473 -17.61320314215105 -1.573601793032366 0 0 0
2214 1 -10.75771832841473 -17.61320314215105 -4.061906769632365 0 0 0
2215 1 -8.605400672914728 -17.61295465315105 -0.3297255060323652 0 0 0
2216 1 -7.169256614914728 -15.57956916615106 -0.3305167854323656 0 0 0
2217 1 -9.321767987914729 -15.57907218815106 0.9138969743676348 0 0 0
2218 1 -9.321767987914729 -15.57907218815106 -1.574408002232366 0 0 0
2219 1 -7.169256614914728 -15.57956916615106 2.157788191167635 0 0 0
2220 1 -5.733228787414729 -13.54593519015106 2.156922262767635 0 0 0
2221 1 -7.88566267341473 -13.54593519015106 3.400903058367634 0 0 0
2222 1 -7.88566267341473 -13.54593519015106 0.9126130115676343 0 0 0
2223 1 -5.733228787414729 -13.54593519015106 4.645227239367633 0 0 0
2224 1 -10.75771832841473 -17.61320314215105 -6.550208760272366 0 0 0
2225 1 -8.605400672914728 -17.61295465315105 -5.306320529432366 0 0 0
2226 1 -7.169256614914728 -15.57956916615106 -5.307111808832365 0 0 0
2227 1 -9.321767987914729 -15.57907218815106 -4.062712978832366 0 0 0
2228 1 -9.321767987914729 -15.57907218815106 -6.551007504572365 0 0 0
2229 1 -7.169256614914728 -15.57956916615106 -2.818806832232366 0 0 0
2230 1 -5.733228787414729 -13.54593519015106 -2.819672760632366 0 0 0
2231 1 -7.88566267341473 -13.54593519015106 -1.575691965032366 0 0 0
2232 1 -7.88566267341473 -13.54593519015106 -4.063996941632366 0 0 0
2233 1 -5.733228787414729 -13.54593519015106 -0.3313827138323662 0 0 0
2234 1 -7.88566267341473 -13.54593519015106 -6.552292960352366 0 0 0
2235 1 -5.733228787414729 -13.54593519015106 -5.307977737232366 0 0 0
2236 1 -18.65512750446473 -25.74749055715105 4.648287848367634 0 0 0
2237 1 -18.65512750446473 -25.74749055715105 7.136592824967634 0 0 0
2238 1 -17.21890208511473 -23.71410507015105 7.136533105767635 0 0 0
2239 1 -18.65512750446473 -25.74749055715105 -0.3283071750323652 0 0 0
2240 1 -18.65512750446473 -25.74749055715105 2.159997801567634 0 0 0
2241 1 -17.21890208511473 -23.71410507015105 2.159923152567634 0 0 0
2242 1 -17.21890208511473 -23.71410507015105 4.648228129167634 0 0 0
2243 1 -15.78264567096473 -21.68071958315106 4.648078831167636 0 0 0
2244 1 -17.93515316961473 -21.68022260515106 5.892403012167636 0 0 0
2245 1 -17.93515316961473 -21.68022260515106 3.404098035567635 0 0 0
2246 1 -15.78264567096473 -21.68071958315106 7.136383807767634 0 0 0
2247 1 -14.34633501591473 -19.64733409615106 7.136130001167635 0 0 0
2248 1 -16.49890062981473 -19.64708560715104 5.892193994967634 0 0 0
2249 1 -18.65512750446473 -25.74749055715105 -5.304902198432366 0 0 0
2250 1 -18.65512750446473 -25.74749055715105 -2.816612151632365 0 0 0
2251 1 -17.21890208511473 -23.71410507015105 -2.816671870832366 0 0 0
2252 1 -17.21890208511473 -23.71410507015105 -0.3283668942323654 0 0 0
2253 1 -15.78264567096473 -21.68071958315106 -0.3285161922323656 0 0 0
2254 1 -17.93515316961473 -21.68022260515106 0.9157930589676351 0 0 0
2255 1 -17.93515316961473 -21.68022260515106 -1.572496987832365 0 0 0
2256 1 -15.78264567096473 -21.68071958315106 2.159773854567636 0 0 0
2257 1 -14.34633501591473 -19.64733409615106 2.159534977767635 0 0 0
2258 1 -16.49890062981473 -19.64708560715104 3.403889018367634 0 0 0
2259 1 -16.49890062981473 -19.64708560715104 0.9155989715676345 0 0 0
2260 1 -14.34633501591473 -19.64733409615106 4.647839954367635 0 0 0
2261 1 -12.90999724041473 -17.61394860915105 4.647451779567634 0 0 0
2262 1 -15.06258610041473 -17.61370012015105 5.891895398967634 0 0 0
2263 1 -15.06258610041473 -17.61370012015105 3.403590422367634 0 0 0
2264 1 -12.90999724041473 -17.61394860915105 7.135756756167634 0 0 0
2265 1 -11.47389192591473 -15.57981765515105 7.135084915167635 0 0 0
2266 1 -13.62613209441473 -15.58081161115105 5.891417645367635 0 0 0
2267 1 -17.21890208511473 -23.71410507015105 -5.304976847432366 0 0 0
2268 1 -15.78264567096473 -21.68071958315106 -5.305126145432366 0 0 0
2269 1 -17.93515316961473 -21.68022260515106 -4.060801964432367 0 0 0
2270 1 -17.93515316961473 -21.68022260515106 -6.549100969112366 0 0 0
2271 1 -15.78264567096473 -21.68071958315106 -2.816821168832366 0 0 0
2272 1 -14.34633501591473 -19.64733409615106 -2.817060045632366 0 0 0
2273 1 -16.49890062981473 -19.64708560715104 -1.572706005032366 0 0 0
2274 1 -16.49890062981473 -19.64708560715104 -4.061010981632366 0 0 0
2275 1 -14.34633501591473 -19.64733409615106 -0.3287699988323656 0 0 0
2276 1 -12.90999724041473 -17.61394860915105 -0.3291432438323652 0 0 0
2277 1 -15.06258610041473 -17.61370012015105 0.9152854457676352 0 0 0
2278 1 -15.06258610041473 -17.61370012015105 -1.573004601032365 0 0 0
2279 1 -12.90999724041473 -17.61394860915105 2.159146802967635 0 0 0
2280 1 -11.47389192591473 -15.57981765515105 2.158489891767635 0 0 0
2281 1 -13.62613209441473 -15.58081161115105 3.403127598567634 0 0 0
2282 1 -13.62613209441473 -15.58081161115105 0.9148226219676356 0 0 0
2283 1 -11.47389192591473 -15.57981765515105 4.646794868367635 0 0 0
2284 1 -10.03829027691473 -13.54494123415105 4.645540765167635 0 0 0
2285 1 -12.18998803641473 -13.54618367915106 5.890462138167633 0 0 0
2286 1 -12.18998803641473 -13.54618367915106 3.402157161567635 0 0 0
2287 1 -10.03829027691473 -13.54494123415105 7.133845741767635 0 0 0
2288 1 -16.49890062981473 -19.64708560715104 -6.549305507372366 0 0 0
2289 1 -14.34633501591473 -19.64733409615106 -5.305365022232365 0 0 0
2290 1 -12.90999724041473 -17.61394860915105 -5.305753197032366 0 0 0
2291 1 -15.06258610041473 -17.61370012015105 -4.061309577632366 0 0 0
2292 1 -15.06258610041473 -17.61370012015105 -6.549608582312366 0 0 0
2293 1 -12.90999724041473 -17.61394860915105 -2.817448220432365 0 0 0
2294 1 -11.47389192591473 -15.57981765515105 -2.818105131632366 0 0 0
2295 1 -13.62613209441473 -15.58081161115105 -1.573482354632366 0 0 0
2296 1 -13.62613209441473 -15.58081161115105 -4.061772401432366 0 0 0
2297 1 -11.47389192591473 -15.57981765515105 -0.329815084832366 0 0 0
2298 1 -10.03829027691473 -13.54494123415105 -0.3310542582323661 0 0 0
2299 1 -12.18998803641473 -13.54618367915106 0.9138671147676334 0 0 0
2300 1 -12.18998803641473 -13.54618367915106 -1.574437861832366 0 0 0
2301 1 -10.03829027691473 -13.54494123415105 2.157235788567634 0 0 0
2302 1 -13.62613209441473 -15.58081161115105 -6.550075885052366 0 0 0
2303 1 -11.47389192591473 -15.57981765515105 -5.306410108232366 0 0 0
2304 1 -10.03829027691473 -13.54494123415105 -5.307664211432366 0 0 0
2305 1 -12.18998803641473 -13.54618367915106 -4.062742838432365 0 0 0
2306 1 -12.18998803641473 -13.54618367915106 -6.551035871192366 0 0 0
2307 1 -10.03829027691473 -13.54494123415105 -2.819359234832366 0 0 0
2308 1 -18.65141975151473 -19.64658862915104 4.648257988767634 0 0 0
2309 1 -18.65141975151473 -19.64658862915104 7.136562965367634 0 0 0
2310 1 -17.21518270911473 -17.61320314215105 7.136294228967634 0 0 0
2311 1 -18.65141975151473 -19.64658862915104 -0.3283370346323657 0 0 0
2312 1 -18.65141975151473 -19.64658862915104 2.159953012167636 0 0 0
2313 1 -17.21518270911473 -17.61320314215105 2.159699205567634 0 0 0
2314 1 -17.21518270911473 -17.61320314215105 4.648004182167634 0 0 0
2315 1 -15.77889142581473 -15.58031463315105 4.647660796767635 0 0 0
2316 1 -17.93147253711473 -15.57956916615106 5.892104416167635 0 0 0
2317 1 -17.93147253711473 -15.57956916615106 3.403799439567635 0 0 0
2318 1 -15.77889142581473 -15.58031463315105 7.135965773367635 0 0 0
2319 1 -14.34215071791473 -13.54792310215105 7.135428300567634 0 0 0
2320 1 -16.49529748431473 -13.54643216815104 5.891820749967636 0 0 0
2321 1 -18.65141975151473 -19.64658862915104 -5.304946987832366 0 0 0
2322 1 -18.65141975151473 -19.64658862915104 -2.816642011232366 0 0 0
2323 1 -17.21518270911473 -17.61320314215105 -2.816895817832365 0 0 0
2324 1 -17.21518270911473 -17.61320314215105 -0.3286057710323655 0 0 0
2325 1 -15.77889142581473 -15.58031463315105 -0.3289342266323656 0 0 0
2326 1 -17.93147253711473 -15.57956916615106 0.9154944629676347 0 0 0
2327 1 -17.93147253711473 -15.57956916615106 -1.572795583832366 0 0 0
2328 1 -15.77889142581473 -15.58031463315105 2.159370749967636 0 0 0
2329 1 -14.34215071791473 -13.54792310215105 2.158833277167634 0 0 0
2330 1 -16.49529748431473 -13.54643216815104 3.403515773367635 0 0 0
2331 1 -16.49529748431473 -13.54643216815104 0.9152107967676351 0 0 0
2332 1 -14.34215071791473 -13.54792310215105 4.647123323967634 0 0 0
2333 1 -17.21518270911473 -17.61320314215105 -5.305200794432366 0 0 0
2334 1 -15.77889142581473 -15.58031463315105 -5.305529250032365 0 0 0
2335 1 -17.93147253711473 -15.57956916615106 -4.061100560432366 0 0 0
2336 1 -17.93147253711473 -15.57956916615106 -6.549398072132366 0 0 0
2337 1 -15.77889142581473 -15.58031463315105 -2.817239203232365 0 0 0
2338 1 -14.34215071791473 -13.54792310215105 -2.817776676032366 0 0 0
2339 1 -16.49529748431473 -13.54643216815104 -1.573079250032366 0 0 0
2340 1 -16.49529748431473 -13.54643216815104 -4.061384226632366 0 0 0
2341 1 -14.34215071791473 -13.54792310215105 -0.3294716994323661 0 0 0
2342 1 -16.49529748431473 -13.54643216815104 -6.549681738332366 0 0 0
2343 1 -14.34215071791473 -13.54792310215105 -5.306066722832366 0 0 0
2344 1 -18.64773524466473 -13.54568670115106 4.647959392767635 0 0 0
2345 1 -18.64773524466473 -13.54568670115106 7.136264369367636 0 0 0
2346 1 -18.64773524466473 -13.54568670115106 -0.3286356306323661 0 0 0
2347 1 -18.64773524466473 -13.54568670115106 2.159654416167635 0 0 0
2348 1 -18.64773524466473 -13.54568670115106 -5.305245583832366 0 0 0
2349 1 -18.64773524466473 -13.54568670115106 -2.816940607232366 0 0 0
2350 1 -2.144224664914731 -11.51230121415104 5.891686381767634 0 0 0
2351 1 0.007046916085272414 -11.51006481315105 2.161684868967633 0 0 0
2352 1 -2.144224664914731 -11.51230121415104 3.403381405167634 0 0 0
2353 1 -2.144224664914731 -11.51230121415104 0.9150913583676346 0 0 0
2354 1 -0.7109088824147314 -9.47320048015105 5.895911515167635 0 0 0
2355 1 -0.7109088824147314 -9.47320048015105 3.407621468367633 0 0 0
2356 1 0.007046916085272414 -11.51006481315105 -2.814925084232366 0 0 0
2357 1 -2.144224664914731 -11.51230121415104 -1.573213618232366 0 0 0
2358 1 -2.144224664914731 -11.51230121415104 -4.061518594832366 0 0 0
2359 1 -0.7109088824147314 -9.47320048015105 0.9193164917676349 0 0 0
2360 1 -0.7109088824147314 -9.47320048015105 -1.568988484832366 0 0 0
2361 1 -2.144224664914731 -11.51230121415104 -6.549814613552366 0 0 0
2362 1 -0.7109088824147314 -9.47320048015105 -4.057278531632366 0 0 0
2363 1 -0.7109088824147314 -9.47320048015105 -6.545583508232366 0 0 0
2364 1 -4.29665855091473 -11.51379214815104 4.645048081767634 0 0 0
2365 1 -6.450099767914729 -11.51205272515105 5.887804633767633 0 0 0
2366 1 -6.450099767914729 -11.51205272515105 3.399514586967634 0 0 0
2367 1 -4.29665855091473 -11.51379214815104 7.133353058367634 0 0 0
2368 1 -2.859894596914728 -9.48015817215105 7.136294228967634 0 0 0
2369 1 -5.013374557414728 -9.481649106151053 5.887550827167635 0 0 0
2370 1 -4.29665855091473 -11.51379214815104 -0.3315469416323662 0 0 0
2371 1 -6.450099767914729 -11.51205272515105 0.9112096103676333 0 0 0
2372 1 -6.450099767914729 -11.51205272515105 -1.577095366232365 0 0 0
2373 1 -4.29665855091473 -11.51379214815104 2.156758034967634 0 0 0
2374 1 -2.859894596914728 -9.48015817215105 2.159699205567634 0 0 0
2375 1 -5.013374557414728 -9.481649106151053 3.399260780367635 0 0 0
2376 1 -5.013374557414728 -9.481649106151053 0.9109558037676351 0 0 0
2377 1 -2.859894596914728 -9.48015817215105 4.648004182167634 0 0 0
2378 1 -1.43018195991473 -7.430869389151056 4.654946539167634 0 0 0
2379 1 -3.57478965891473 -7.452239443151043 5.893851202767634 0 0 0
2380 1 -3.57478965891473 -7.452239443151043 3.405546226167633 0 0 0
2381 1 -1.43018195991473 -7.430869389151056 7.143251515767634 0 0 0
2382 1 0.01634535608527088 -5.423326758151049 7.162824483567634 0 0 0
2383 1 -2.156622584914729 -5.380586650151045 5.903973607167634 0 0 0
2384 1 -4.29665855091473 -11.51379214815104 -5.308141965032366 0 0 0
2385 1 -6.450099767914729 -11.51205272515105 -4.065385413032366 0 0 0
2386 1 -6.450099767914729 -11.51205272515105 -6.553691882612366 0 0 0
2387 1 -4.29665855091473 -11.51379214815104 -2.819851918232366 0 0 0
2388 1 -2.859894596914728 -9.48015817215105 -2.816895817832365 0 0 0
2389 1 -5.013374557414728 -9.481649106151053 -1.577349172832366 0 0 0
2390 1 -5.013374557414728 -9.481649106151053 -4.065639219632366 0 0 0
2391 1 -2.859894596914728 -9.48015817215105 -0.3286057710323655 0 0 0
2392 1 -1.43018195991473 -7.430869389151056 -0.321648484232365 0 0 0
2393 1 -3.57478965891473 -7.452239443151043 0.9172412495676348 0 0 0
2394 1 -3.57478965891473 -7.452239443151043 -1.571048797232366 0 0 0
2395 1 -1.43018195991473 -7.430869389151056 2.166641562567635 0 0 0
2396 1 -2.156622584914729 -5.380586650151045 3.415668630567634 0 0 0
2397 1 -2.156622584914729 -5.380586650151045 0.9273636539676335 0 0 0
2398 1 -0.7013779814147298 -3.416778083151044 5.949494567367633 0 0 0
2399 1 -0.7013779814147298 -3.416778083151044 3.461189590767635 0 0 0
2400 1 -5.013374557414728 -9.481649106151053 -6.553945689212366 0 0 0
2401 1 -2.859894596914728 -9.48015817215105 -5.305200794432366 0 0 0
2402 1 -1.43018195991473 -7.430869389151056 -5.298258437432366 0 0 0
2403 1 -3.57478965891473 -7.452239443151043 -4.059353773832365 0 0 0
2404 1 -3.57478965891473 -7.452239443151043 -6.547654271492366 0 0 0
2405 1 -1.43018195991473 -7.430869389151056 -2.809953460832365 0 0 0
2406 1 -2.156622584914729 -5.380586650151045 -1.560926392832365 0 0 0
2407 1 -2.156622584914729 -5.380586650151045 -4.049231369432365 0 0 0
2408 1 -0.7013779814147298 -3.416778083151044 0.9728995439676336 0 0 0
2409 1 -0.7013779814147298 -3.416778083151044 -1.515405432632366 0 0 0
2410 1 -2.156622584914729 -5.380586650151045 -6.537531867092365 0 0 0
2411 1 -0.7013779814147298 -3.416778083151044 -4.003710409232365 0 0 0
2412 1 -0.7013779814147298 -3.416778083151044 -6.492007920932366 0 0 0
2413 1 -8.602068731914729 -11.51254970315105 7.131636131367635 0 0 0
2414 1 -10.75504502691473 -11.50981632415106 5.888431685367634 0 0 0
2415 1 -8.602068731914729 -11.51254970315105 2.155041107967635 0 0 0
2416 1 -10.75504502691473 -11.50981632415106 3.400141638567634 0 0 0
2417 1 -10.75504502691473 -11.50981632415106 0.9118366619676337 0 0 0
2418 1 -8.602068731914729 -11.51254970315105 4.643346084567636 0 0 0
2419 1 -7.16751315741473 -9.476927815151058 4.641121544367634 0 0 0
2420 1 -9.318164842414728 -9.479661194151049 5.884490218167635 0 0 0
2421 1 -9.318164842414728 -9.479661194151049 3.396185241567634 0 0 0
2422 1 -7.16751315741473 -9.476927815151058 7.129426520967634 0 0 0
2423 1 -5.73082669041473 -7.449754553151053 7.128724820367633 0 0 0
2424 1 -7.885430212414729 -7.439069526151059 5.881340030367634 0 0 0
2425 1 -8.602068731914729 -11.51254970315105 -2.821553915432366 0 0 0
2426 1 -10.75504502691473 -11.50981632415106 -1.576468314632366 0 0 0
2427 1 -10.75504502691473 -11.50981632415106 -4.064758361432366 0 0 0
2428 1 -8.602068731914729 -11.51254970315105 -0.3332638686323657 0 0 0
2429 1 -7.16751315741473 -9.476927815151058 -0.3354734790323661 0 0 0
2430 1 -9.318164842414728 -9.479661194151049 0.9078951947676348 0 0 0
2431 1 -9.318164842414728 -9.479661194151049 -1.580409781832365 0 0 0
2432 1 -7.16751315741473 -9.476927815151058 2.152831497567634 0 0 0
2433 1 -5.73082669041473 -7.449754553151053 2.152129796967634 0 0 0
2434 1 -7.885430212414729 -7.439069526151059 3.393035053767635 0 0 0
2435 1 -7.885430212414729 -7.439069526151059 0.9047300771676348 0 0 0
2436 1 -5.73082669041473 -7.449754553151053 4.640419843767633 0 0 0
2437 1 -4.286004088414728 -5.43276934015104 4.655185415967633 0 0 0
2438 1 -6.449557358914729 -5.414629643151045 5.878145053167634 0 0 0
2439 1 -6.449557358914729 -5.414629643151045 3.389855006367634 0 0 0
2440 1 -4.286004088414728 -5.43276934015104 7.143490392567633 0 0 0
2441 1 -2.886898816414728 -3.290545671151051 7.154926619367634 0 0 0
2442 1 -4.987145207914729 -3.433923824151051 5.917634374167635 0 0 0
2443 1 -10.75504502691473 -11.50981632415106 -6.553063338032366 0 0 0
2444 1 -8.602068731914729 -11.51254970315105 -5.309858892032366 0 0 0
2445 1 -7.16751315741473 -9.476927815151058 -5.312068502432366 0 0 0
2446 1 -9.318164842414728 -9.479661194151049 -4.068714758432366 0 0 0
2447 1 -9.318164842414728 -9.479661194151049 -6.557010777152366 0 0 0
2448 1 -7.16751315741473 -9.476927815151058 -2.823778455632366 0 0 0
2449 1 -5.73082669041473 -7.449754553151053 -2.824480156232365 0 0 0
2450 1 -7.885430212414729 -7.439069526151059 -1.583559969632366 0 0 0
2451 1 -7.885430212414729 -7.439069526151059 -4.071864946232366 0 0 0
2452 1 -5.73082669041473 -7.449754553151053 -0.3361751796323658 0 0 0
2453 1 -4.286004088414728 -5.43276934015104 -0.3214096074323658 0 0 0
2454 1 -6.449557358914729 -5.414629643151045 0.901550029767634 0 0 0
2455 1 -6.449557358914729 -5.414629643151045 -1.586754946832365 0 0 0
2456 1 -4.286004088414728 -5.43276934015104 2.166895369167634 0 0 0
2457 1 -2.886898816414728 -3.290545671151051 2.178331595967634 0 0 0
2458 1 -4.987145207914729 -3.433923824151051 3.429329397567635 0 0 0
2459 1 -4.987145207914729 -3.433923824151051 0.9410244209676346 0 0 0
2460 1 -2.886898816414728 -3.290545671151051 4.666636572567635 0 0 0
2461 1 -1.404146327914731 -1.407744518151048 4.775280727167635 0 0 0
2462 1 -3.597454606414731 -1.114527498151048 5.894642482167635 0 0 0
2463 1 -3.597454606414731 -1.114527498151048 3.406337505567635 0 0 0
2464 1 -1.404146327914731 -1.407744518151048 7.263585703767635 0 0 0
2465 1 -7.885430212414729 -7.439069526151059 -6.560163950912366 0 0 0
2466 1 -5.73082669041473 -7.449754553151053 -5.312770203032366 0 0 0
2467 1 -4.286004088414728 -5.43276934015104 -5.298004630832367 0 0 0
2468 1 -6.449557358914729 -5.414629643151045 -4.075044993632366 0 0 0
2469 1 -6.449557358914729 -5.414629643151045 -6.563352956192365 0 0 0
2470 1 -4.286004088414728 -5.43276934015104 -2.809714584032365 0 0 0
2471 1 -2.886898816414728 -3.290545671151051 -2.798263427432365 0 0 0
2472 1 -4.987145207914729 -3.433923824151051 -1.547265625832366 0 0 0
2473 1 -4.987145207914729 -3.433923824151051 -4.035570602432365 0 0 0
2474 1 -2.886898816414728 -3.290545671151051 -0.309973380632365 0 0 0
2475 1 -1.404146327914731 -1.407744518151048 -0.2013142962323657 0 0 0
2476 1 -3.597454606414731 -1.114527498151048 0.9180325289676343 0 0 0
2477 1 -3.597454606414731 -1.114527498151048 -1.570257517832366 0 0 0
2478 1 -1.404146327914731 -1.407744518151048 2.286990680367635 0 0 0
2479 1 -4.987145207914729 -3.433923824151051 -6.523871100092366 0 0 0
2480 1 -2.886898816414728 -3.290545671151051 -5.286568404032366 0 0 0
2481 1 -1.404146327914731 -1.407744518151048 -5.177909319632366 0 0 0
2482 1 -3.597454606414731 -1.114527498151048 -4.058562494432365 0 0 0
2483 1 -3.597454606414731 -1.114527498151048 -6.546861499112365 0 0 0
2484 1 -1.404146327914731 -1.407744518151048 -2.689619272832365 0 0 0
2485 1 -12.90585168591473 -11.51329517015104 4.645645273767634 0 0 0
2486 1 -15.05797562391473 -11.51602854915106 5.891283277167634 0 0 0
2487 1 -15.05797562391473 -11.51602854915106 3.402978300567634 0 0 0
2488 1 -12.90585168591473 -11.51329517015104 7.133950250367635 0 0 0
2489 1 -11.47238092941473 -9.47320048015105 7.130561185767634 0 0 0
2490 1 -13.62082423491473 -9.48189759515104 5.888760140967635 0 0 0
2491 1 -12.90585168591473 -11.51329517015104 -0.3309497496323663 0 0 0
2492 1 -15.05797562391473 -11.51602854915106 0.9146882537676344 0 0 0
2493 1 -15.05797562391473 -11.51602854915106 -1.573616722832366 0 0 0
2494 1 -12.90585168591473 -11.51329517015104 2.157355226967635 0 0 0
2495 1 -11.47238092941473 -9.47320048015105 2.153966162367634 0 0 0
2496 1 -13.62082423491473 -9.48189759515104 3.400470094167636 0 0 0
2497 1 -13.62082423491473 -9.48189759515104 0.9121651175676355 0 0 0
2498 1 -11.47238092941473 -9.47320048015105 4.642256209167636 0 0 0
2499 1 -10.03321487841473 -7.449257575151051 4.634761449567636 0 0 0
2500 1 -12.19056918891473 -7.431863345151058 5.883101746767634 0 0 0
2501 1 -12.19056918891473 -7.431863345151058 3.394811699967635 0 0 0
2502 1 -10.03321487841473 -7.449257575151051 7.123066426167636 0 0 0
2503 1 -8.603618471914729 -5.397483902151052 7.120334272767634 0 0 0
2504 1 -10.74210469791473 -5.423575247151049 5.867664333567635 0 0 0
2505 1 -12.90585168591473 -11.51329517015104 -5.307544773032365 0 0 0
2506 1 -15.05797562391473 -11.51602854915106 -4.061921699432366 0 0 0
2507 1 -15.05797562391473 -11.51602854915106 -6.550219211132366 0 0 0
2508 1 -12.90585168591473 -11.51329517015104 -2.819254726232366 0 0 0
2509 1 -11.47238092941473 -9.47320048015105 -2.822643790832366 0 0 0
2510 1 -13.62082423491473 -9.48189759515104 -1.576139859032366 0 0 0
2511 1 -13.62082423491473 -9.48189759515104 -4.064429905832366 0 0 0
2512 1 -11.47238092941473 -9.47320048015105 -0.3343388142323658 0 0 0
2513 1 -10.03321487841473 -7.449257575151051 -0.3418335738323659 0 0 0
2514 1 -12.19056918891473 -7.431863345151058 0.9065067233676345 0 0 0
2515 1 -12.19056918891473 -7.431863345151058 -1.581798253232366 0 0 0
2516 1 -10.03321487841473 -7.449257575151051 2.146456472967635 0 0 0
2517 1 -8.603618471914729 -5.397483902151052 2.143724319567633 0 0 0
2518 1 -10.74210469791473 -5.423575247151049 3.379374286767636 0 0 0
2519 1 -10.74210469791473 -5.423575247151049 0.8910693101676355 0 0 0
2520 1 -8.603618471914729 -5.397483902151052 4.632029296167634 0 0 0
2521 1 -7.171891172914728 -3.368571217151043 4.616666531967635 0 0 0
2522 1 -9.305340743914728 -3.335025202151044 5.874263305167634 0 0 0
2523 1 -9.305340743914728 -3.335025202151044 3.385973258367635 0 0 0
2524 1 -7.171891172914728 -3.368571217151043 7.104971508567633 0 0 0
2525 1 -5.68154495841473 -1.492976245151041 7.226320922967634 0 0 0
2526 1 -7.805618602414729 -1.241753866151043 5.819037974967634 0 0 0
2527 1 -13.62082423491473 -9.48189759515104 -6.552734882432365 0 0 0
2528 1 -11.47238092941473 -9.47320048015105 -5.310933837632366 0 0 0
2529 1 -10.03321487841473 -7.449257575151051 -5.318443527032366 0 0 0
2530 1 -12.19056918891473 -7.431863345151058 -4.070088300032365 0 0 0
2531 1 -12.19056918891473 -7.431863345151058 -6.558393276632366 0 0 0
2532 1 -10.03321487841473 -7.449257575151051 -2.830138550432366 0 0 0
2533 1 -8.603618471914729 -5.397483902151052 -2.832870703832365 0 0 0
2534 1 -10.74210469791473 -5.423575247151049 -1.597235666432366 0 0 0
2535 1 -10.74210469791473 -5.423575247151049 -4.085525713232366 0 0 0
2536 1 -8.603618471914729 -5.397483902151052 -0.3445657272323652 0 0 0
2537 1 -7.171891172914728 -3.368571217151043 -0.3599284914323659 0 0 0
2538 1 -9.305340743914728 -3.335025202151044 0.8976682817676345 0 0 0
2539 1 -9.305340743914728 -3.335025202151044 -1.590636694832366 0 0 0
2540 1 -7.171891172914728 -3.368571217151043 2.128376485167633 0 0 0
2541 1 -5.68154495841473 -1.492976245151041 2.249710969767634 0 0 0
2542 1 -7.805618602414729 -1.241753866151043 3.330732998367633 0 0 0
2543 1 -7.805618602414729 -1.241753866151043 0.842428021767633 0 0 0
2544 1 -5.68154495841473 -1.492976245151041 4.738015946367634 0 0 0
2545 1 -10.74210469791473 -5.423575247151049 -6.573830689832366 0 0 0
2546 1 -8.603618471914729 -5.397483902151052 -5.321175680432366 0 0 0
2547 1 -7.171891172914728 -3.368571217151043 -5.336523514832366 0 0 0
2548 1 -9.305340743914728 -3.335025202151044 -4.078926741632365 0 0 0
2549 1 -9.305340743914728 -3.335025202151044 -6.567234704192366 0 0 0
2550 1 -7.171891172914728 -3.368571217151043 -2.848233468032365 0 0 0
2551 1 -5.68154495841473 -1.492976245151041 -2.726884053632365 0 0 0
2552 1 -7.805618602414729 -1.241753866151043 -1.645862025032366 0 0 0
2553 1 -7.805618602414729 -1.241753866151043 -4.134167001632365 0 0 0
2554 1 -5.68154495841473 -1.492976245151041 -0.2385790770323659 0 0 0
2555 1 -7.805618602414729 -1.241753866151043 -6.622468992272366 0 0 0
2556 1 -5.68154495841473 -1.492976245151041 -5.215189030232366 0 0 0
2557 1 -17.21199799341473 -11.51230121415104 7.136204650167635 0 0 0
2558 1 -17.21199799341473 -11.51230121415104 2.159594696967634 0 0 0
2559 1 -17.21199799341473 -11.51230121415104 4.647899673567634 0 0 0
2560 1 -15.77377340946473 -9.485127952151046 4.647586147767635 0 0 0
2561 1 -17.92927190631473 -9.475933859151056 5.892776257167634 0 0 0
2562 1 -17.92927190631473 -9.475933859151056 3.404486210367635 0 0 0
2563 1 -15.77377340946473 -9.485127952151046 7.135891124367634 0 0 0
2564 1 -14.33475070941473 -7.454475844151048 7.130934430767635 0 0 0
2565 1 -16.48968742551473 -7.455718289151051 5.893448098167633 0 0 0
2566 1 -17.21199799341473 -11.51230121415104 -2.817000326432366 0 0 0
2567 1 -17.21199799341473 -11.51230121415104 -0.3286953498323655 0 0 0
2568 1 -15.77377340946473 -9.485127952151046 -0.3290088756323657 0 0 0
2569 1 -17.92927190631473 -9.475933859151056 0.9161812337676345 0 0 0
2570 1 -17.92927190631473 -9.475933859151056 -1.572123742832366 0 0 0
2571 1 -15.77377340946473 -9.485127952151046 2.159281171167635 0 0 0
2572 1 -14.33475070941473 -7.454475844151048 2.154339407367635 0 0 0
2573 1 -16.48968742551473 -7.455718289151051 3.405143121567633 0 0 0
2574 1 -16.48968742551473 -7.455718289151051 0.9168381449676346 0 0 0
2575 1 -14.33475070941473 -7.454475844151048 4.642644383967635 0 0 0
2576 1 -12.91646740491473 -5.382326073151049 4.633955240367635 0 0 0
2577 1 -15.04519026891473 -5.435751208151046 5.881802854167633 0 0 0
2578 1 -15.04519026891473 -5.435751208151046 3.393497877567635 0 0 0
2579 1 -12.91646740491473 -5.382326073151049 7.122245287167635 0 0 0
2580 1 -11.45614740291473 -3.425972176151049 7.086383907567635 0 0 0
2581 1 -13.64992060341473 -3.292533583151055 5.870635363767635 0 0 0
2582 1 -17.21199799341473 -11.51230121415104 -5.305305303032366 0 0 0
2583 1 -15.77377340946473 -9.485127952151046 -5.305618828832365 0 0 0
2584 1 -17.92927190631473 -9.475933859151056 -4.060413789632365 0 0 0
2585 1 -17.92927190631473 -9.475933859151056 -6.548718766232366 0 0 0
2586 1 -15.77377340946473 -9.485127952151046 -2.817313852232366 0 0 0
2587 1 -14.33475070941473 -7.454475844151048 -2.822255616032366 0 0 0
2588 1 -16.48968742551473 -7.455718289151051 -1.571451901832366 0 0 0
2589 1 -16.48968742551473 -7.455718289151051 -4.059756878432365 0 0 0
2590 1 -14.33475070941473 -7.454475844151048 -0.3339655692323653 0 0 0
2591 1 -12.91646740491473 -5.382326073151049 -0.3426547128323651 0 0 0
2592 1 -15.04519026891473 -5.435751208151046 0.9052078307676332 0 0 0
2593 1 -15.04519026891473 -5.435751208151046 -1.583097145832365 0 0 0
2594 1 -12.91646740491473 -5.382326073151049 2.145650263767635 0 0 0
2595 1 -11.45614740291473 -3.425972176151049 2.109788884167635 0 0 0
2596 1 -13.64992060341473 -3.292533583151055 3.382330387167634 0 0 0
2597 1 -13.64992060341473 -3.292533583151055 0.8940403403676349 0 0 0
2598 1 -11.45614740291473 -3.425972176151049 4.598078930967635 0 0 0
2599 1 -10.05169552791473 -1.315555099151041 4.685716856967636 0 0 0
2600 1 -12.16422360891473 -1.443526934151038 5.783923085367634 0 0 0
2601 1 -12.16422360891473 -1.443526934151038 3.295633038567633 0 0 0
2602 1 -10.05169552791473 -1.315555099151041 7.174021833567636 0 0 0
2603 1 -16.48968742551473 -7.455718289151051 -6.548058869072365 0 0 0
2604 1 -14.33475070941473 -7.454475844151048 -5.310560592632365 0 0 0
2605 1 -12.91646740491473 -5.382326073151049 -5.319249736232365 0 0 0
2606 1 -15.04519026891473 -5.435751208151046 -4.071402122432366 0 0 0
2607 1 -15.04519026891473 -5.435751208151046 -6.559695155192366 0 0 0
2608 1 -12.91646740491473 -5.382326073151049 -2.830944759632366 0 0 0
2609 1 -11.45614740291473 -3.425972176151049 -2.866821069032365 0 0 0
2610 1 -13.64992060341473 -3.292533583151055 -1.594264636232366 0 0 0
2611 1 -13.64992060341473 -3.292533583151055 -4.082569612832366 0 0 0
2612 1 -11.45614740291473 -3.425972176151049 -0.3785160924323652 0 0 0
2613 1 -10.05169552791473 -1.315555099151041 -0.2908781664323659 0 0 0
2614 1 -12.16422360891473 -1.443526934151038 0.8073280619676328 0 0 0
2615 1 -12.16422360891473 -1.443526934151038 -1.680976914632366 0 0 0
2616 1 -10.05169552791473 -1.315555099151041 2.197426810167634 0 0 0
2617 1 -13.64992060341473 -3.292533583151055 -6.570862645592365 0 0 0
2618 1 -11.45614740291473 -3.425972176151049 -5.355111115832366 0 0 0
2619 1 -10.05169552791473 -1.315555099151041 -5.267473189832366 0 0 0
2620 1 -12.16422360891473 -1.443526934151038 -4.169266961432365 0 0 0
2621 1 -12.16422360891473 -1.443526934151038 -6.657573431012366 0 0 0
2622 1 -10.05169552791473 -1.315555099151041 -2.779183143032366 0 0 0
2623 1 -18.64690225941473 -7.434596724151049 4.650243652167635 0 0 0
2624 1 -18.64690225941473 -7.434596724151049 7.138548628767635 0 0 0
2625 1 -17.20362939741473 -5.424817692151052 7.143042498567635 0 0 0
2626 1 -18.64690225941473 -7.434596724151049 -0.3263513712323656 0 0 0
2627 1 -18.64690225941473 -7.434596724151049 2.161953605367634 0 0 0
2628 1 -17.20362939741473 -5.424817692151052 2.166447475167635 0 0 0
2629 1 -17.20362939741473 -5.424817692151052 4.654752451767635 0 0 0
2630 1 -15.74115913116473 -3.431935912151047 4.621085752767634 0 0 0
2631 1 -17.91672288666473 -3.391680694151049 5.916634077567634 0 0 0
2632 1 -17.91672288666473 -3.391680694151049 3.428344030767635 0 0 0
2633 1 -15.74115913116473 -3.431935912151047 7.109390729367634 0 0 0
2634 1 -14.31212450541473 -1.079490549151046 7.113586003167635 0 0 0
2635 1 -16.41314964126473 -1.485770064151041 5.804302262367635 0 0 0
2636 1 -18.64690225941473 -7.434596724151049 -5.302946394632366 0 0 0
2637 1 -18.64690225941473 -7.434596724151049 -2.814656347832366 0 0 0
2638 1 -17.20362939741473 -5.424817692151052 -2.810147548232365 0 0 0
2639 1 -17.20362939741473 -5.424817692151052 -0.3218575014323655 0 0 0
2640 1 -15.74115913116473 -3.431935912151047 -0.355509270632365 0 0 0
2641 1 -17.91672288666473 -3.391680694151049 0.9400390541676344 0 0 0
2642 1 -17.91672288666473 -3.391680694151049 -1.548265922432366 0 0 0
2643 1 -15.74115913116473 -3.431935912151047 2.132795705967634 0 0 0
2644 1 -14.31212450541473 -1.079490549151046 2.136990979767635 0 0 0
2645 1 -16.41314964126473 -1.485770064151041 3.315997285767635 0 0 0
2646 1 -16.41314964126473 -1.485770064151041 0.8276923091676345 0 0 0
2647 1 -14.31212450541473 -1.079490549151046 4.625281026567635 0 0 0
2648 1 -17.20362939741473 -5.424817692151052 -5.298452524832365 0 0 0
2649 1 -15.74115913116473 -3.431935912151047 -5.332104294032366 0 0 0
2650 1 -17.91672288666473 -3.391680694151049 -4.036555969232365 0 0 0
2651 1 -17.91672288666473 -3.391680694151049 -6.524857959872365 0 0 0
2652 1 -15.74115913116473 -3.431935912151047 -2.843814247232365 0 0 0
2653 1 -14.31212450541473 -1.079490549151046 -2.839618973432366 0 0 0
2654 1 -16.41314964126473 -1.485770064151041 -1.660597737632366 0 0 0
2655 1 -16.41314964126473 -1.485770064151041 -4.148902714232365 0 0 0
2656 1 -14.31212450541473 -1.079490549151046 -0.3513139968323653 0 0 0
2657 1 -16.41314964126473 -1.485770064151041 -6.637200225932366 0 0 0
2658 1 -14.31212450541473 -1.079490549151046 -5.327909020232365 0 0 0
2659 1 -18.54546402771473 -1.305864028151049 4.718816223567634 0 0 0
2660 1 -18.54546402771473 -1.305864028151049 7.207121200167634 0 0 0
2661 1 -18.54546402771473 -1.305864028151049 -0.2577787998323657 0 0 0
2662 1 -18.54546402771473 -1.305864028151049 2.230511246967634 0 0 0
2663 1 -18.54546402771473 -1.305864028151049 -5.234388753032366 0 0 0
2664 1 -18.54546402771473 -1.305864028151049 -2.746083776432365 0 0 0
2665 1 1.556748172585273 0.6509868468489657 6.631099656567633 0 0 0
2666 1 1.556748172585273 0.6509868468489657 4.142809609767633 0 0 0
2667 1 1.54175443808527 3.123949374848948 6.553972309767634 0 0 0
2668 1 1.556748172585273 0.6509868468489657 1.654504633167633 0 0 0
2669 1 1.556748172585273 0.6509868468489657 -0.8338003434323653 0 0 0
2670 1 1.54175443808527 3.123949374848948 4.065667333167633 0 0 0
2671 1 1.54175443808527 3.123949374848948 1.577377286367634 0 0 0
2672 1 1.530867514585271 5.578275227848948 6.545417534367635 0 0 0
2673 1 1.530867514585271 5.578275227848948 4.057112557767635 0 0 0
2674 1 1.527070651585269 8.057449980848972 6.544282869567633 0 0 0
2675 1 1.556748172585273 0.6509868468489657 -3.322090390232366 0 0 0
2676 1 1.556748172585273 0.6509868468489657 -5.810395366832366 0 0 0
2677 1 1.54175443808527 3.123949374848948 -0.9109276902323655 0 0 0
2678 1 1.54175443808527 3.123949374848948 -3.399232666832366 0 0 0
2679 1 1.530867514585271 5.578275227848948 1.568807581167635 0 0 0
2680 1 1.530867514585271 5.578275227848948 -0.919482465632365 0 0 0
2681 1 1.527070651585269 8.057449980848972 4.055977892967634 0 0 0
2682 1 1.527070651585269 8.057449980848972 1.567687846167633 0 0 0
2683 1 1.526063320585269 10.54557033784896 6.544611325167635 0 0 0
2684 1 1.526063320585269 10.54557033784896 4.056306348567635 0 0 0
2685 1 1.525288450585268 13.03518162884895 6.544984570167633 0 0 0
2686 1 1.54175443808527 3.123949374848948 -5.887522713632366 0 0 0
2687 1 1.530867514585271 5.578275227848948 -3.407787442232365 0 0 0
2688 1 1.530867514585271 5.578275227848948 -5.896092418832366 0 0 0
2689 1 1.527070651585269 8.057449980848972 -0.9206171304323654 0 0 0
2690 1 1.527070651585269 8.057449980848972 -3.408922107032366 0 0 0
2691 1 1.526063320585269 10.54557033784896 1.568001371967634 0 0 0
2692 1 1.526063320585269 10.54557033784896 -0.9202886748323653 0 0 0
2693 1 1.525288450585268 13.03518162884895 4.056694523367634 0 0 0
2694 1 1.525288450585268 13.03518162884895 1.568389546767634 0 0 0
2695 1 1.527070651585269 8.057449980848972 -5.897212153832366 0 0 0
2696 1 1.526063320585269 10.54557033784896 -3.408593651432366 0 0 0
2697 1 1.526063320585269 10.54557033784896 -5.896898628032366 0 0 0
2698 1 1.525288450585268 13.03518162884895 -0.9199154298323657 0 0 0
2699 1 1.525288450585268 13.03518162884895 -3.408205476632366 0 0 0
2700 1 1.525288450585268 13.03518162884895 -5.896510453232366 0 0 0
2701 1 -0.2056161554147309 1.855910007848962 5.270084158767634 0 0 0
2702 1 -1.950507164914729 0.6318531938489684 6.340087994967634 0 0 0
2703 1 -1.950507164914729 0.6318531938489684 3.851797948167635 0 0 0
2704 1 -0.2056161554147309 1.855910007848962 -7.171421315492366 0 0 1
2705 1 -0.2451732689147299 4.323654266848948 -7.147653073892366 0 0 1
2706 1 -2.017107241414731 3.070772728848937 6.515050321167635 0 0 0
2707 1 -0.2056161554147309 1.855910007848962 0.2934742055676347 0 0 0
2708 1 -1.950507164914729 0.6318531938489684 1.363492971567634 0 0 0
2709 1 -1.950507164914729 0.6318531938489684 -1.124812005032365 0 0 0
2710 1 -0.2056161554147309 1.855910007848962 2.781779182167634 0 0 0
2711 1 -0.2451732689147299 4.323654266848948 2.805547423767635 0 0 0
2712 1 -2.017107241414731 3.070772728848937 4.026745344567635 0 0 0
2713 1 -2.017107241414731 3.070772728848937 1.538440367967635 0 0 0
2714 1 -0.2451732689147299 4.323654266848948 5.293852400367633 0 0 0
2715 1 -0.238935565414728 6.809786711848957 5.297599780167634 0 0 0
2716 1 -2.005755395914729 5.562620420848944 6.535101042567636 0 0 0
2717 1 -2.005755395914729 5.562620420848944 4.046796065967635 0 0 0
2718 1 -0.238935565414728 6.809786711848957 -7.143898229192366 0 0 1
2719 1 -0.2353711634147295 9.299398002848946 -7.141834930832366 0 0 1
2720 1 -1.997231825914728 8.054468112848966 6.541983680367634 0 0 0
2721 1 -0.2056161554147309 1.855910007848962 -4.683120817832366 0 0 0
2722 1 -1.950507164914729 0.6318531938489684 -3.613102051832366 0 0 0
2723 1 -1.950507164914729 0.6318531938489684 -6.101410014392366 0 0 0
2724 1 -0.2056161554147309 1.855910007848962 -2.194815841232366 0 0 0
2725 1 -0.2451732689147299 4.323654266848948 -2.171047599632366 0 0 0
2726 1 -2.017107241414731 3.070772728848937 -0.9498496788323658 0 0 0
2727 1 -2.017107241414731 3.070772728848937 -3.438154655432366 0 0 0
2728 1 -0.2451732689147299 4.323654266848948 0.3172424471676347 0 0 0
2729 1 -0.238935565414728 6.809786711848957 0.3210047567676337 0 0 0
2730 1 -2.005755395914729 5.562620420848944 1.558491089367635 0 0 0
2731 1 -2.005755395914729 5.562620420848944 -0.9297989574323653 0 0 0
2732 1 -0.238935565414728 6.809786711848957 2.809294803567635 0 0 0
2733 1 -0.2353711634147295 9.299398002848946 2.811370045767633 0 0 0
2734 1 -1.997231825914728 8.054468112848966 4.053678703767634 0 0 0
2735 1 -1.997231825914728 8.054468112848966 1.565388656967635 0 0 0
2736 1 -0.2353711634147295 9.299398002848946 5.299660092567635 0 0 0
2737 1 -0.2352549329147315 11.78950627184896 5.300555880567634 0 0 0
2738 1 -1.996030777414727 10.54432789284893 6.544208220567635 0 0 0
2739 1 -1.996030777414727 10.54432789284893 4.055918173767635 0 0 0
2740 1 -0.2352549329147315 11.78950627184896 -7.140940635812366 0 0 1
2741 1 -1.996611929914732 13.03369069484897 6.544969640367635 0 0 0
2742 1 -2.017107241414731 3.070772728848937 -5.926459632032365 0 0 0
2743 1 -0.2451732689147299 4.323654266848948 -4.659352576232365 0 0 0
2744 1 -0.238935565414728 6.809786711848957 -4.655605196432366 0 0 0
2745 1 -2.005755395914729 5.562620420848944 -3.418103934032366 0 0 0
2746 1 -2.005755395914729 5.562620420848944 -5.906408910632366 0 0 0
2747 1 -0.238935565414728 6.809786711848957 -2.167300219832366 0 0 0
2748 1 -0.2353711634147295 9.299398002848946 -2.165239907432366 0 0 0
2749 1 -1.997231825914728 8.054468112848966 -0.9229163196323658 0 0 0
2750 1 -1.997231825914728 8.054468112848966 -3.411221296232366 0 0 0
2751 1 -0.2353711634147295 9.299398002848946 0.3230650691676349 0 0 0
2752 1 -0.2352549329147315 11.78950627184896 0.3239608571676342 0 0 0
2753 1 -1.996030777414727 10.54432789284893 1.567613197167635 0 0 0
2754 1 -1.996030777414727 10.54432789284893 -0.9206917794323655 0 0 0
2755 1 -0.2352549329147315 11.78950627184896 2.812265833767635 0 0 0
2756 1 -1.996611929914732 13.03369069484897 4.056664663767634 0 0 0
2757 1 -1.996611929914732 13.03369069484897 1.568374616967633 0 0 0
2758 1 -1.997231825914728 8.054468112848966 -5.899511343032366 0 0 0
2759 1 -0.2353711634147295 9.299398002848946 -4.653529954232366 0 0 0
2760 1 -0.2352549329147315 11.78950627184896 -4.652634166232366 0 0 0
2761 1 -1.996030777414727 10.54432789284893 -3.408981826232366 0 0 0
2762 1 -1.996030777414727 10.54432789284893 -5.897286802832365 0 0 0
2763 1 -0.2352549329147315 11.78950627184896 -2.164344119432366 0 0 0
2764 1 -1.996611929914732 13.03369069484897 -0.9199303596323656 0 0 0
2765 1 -1.996611929914732 13.03369069484897 -3.408235336232366 0 0 0
2766 1 -1.996611929914732 13.03369069484897 -5.896525383032365 0 0 0
2767 1 -3.775132297414729 1.717004656848943 5.176071208167635 0 0 0
2768 1 -5.60831974341473 0.5702279218489537 6.253495154967634 0 0 0
2769 1 -5.60831974341473 0.5702279218489537 3.765190178367634 0 0 0
2770 1 -3.775132297414729 1.717004656848943 -7.265425308212365 0 0 1
2771 1 -3.760487254414729 4.289362784848933 -7.165285167692366 0 0 1
2772 1 -5.502472501414729 3.062572591848948 6.501001379367635 0 0 0
2773 1 -3.775132297414729 1.717004656848943 0.1994761847676347 0 0 0
2774 1 -5.60831974341473 0.5702279218489537 1.276900131567634 0 0 0
2775 1 -5.60831974341473 0.5702279218489537 -1.211404845032366 0 0 0
2776 1 -3.775132297414729 1.717004656848943 2.687781161367635 0 0 0
2777 1 -3.760487254414729 4.289362784848933 2.787915329967634 0 0 0
2778 1 -5.502472501414729 3.062572591848948 4.012696402767634 0 0 0
2779 1 -5.502472501414729 3.062572591848948 1.524406355967633 0 0 0
2780 1 -3.760487254414729 4.289362784848933 5.276220306567634 0 0 0
2781 1 -3.755063164414729 6.804319953848946 5.294255504967634 0 0 0
2782 1 -5.504835854914729 5.56560228884895 6.533846939367635 0 0 0
2783 1 -5.504835854914729 5.56560228884895 4.045541962767635 0 0 0
2784 1 -3.755063164414729 6.804319953848946 -7.147242504392366 0 0 1
2785 1 -3.75630295641473 9.298404046848944 -7.142285810792366 0 0 1
2786 1 -5.51490916491473 8.054965090848938 6.542297206167634 0 0 0
2787 1 -3.775132297414729 1.717004656848943 -4.777118838632366 0 0 0
2788 1 -5.60831974341473 0.5702279218489537 -3.699709821632365 0 0 0
2789 1 -5.60831974341473 0.5702279218489537 -6.188005840352366 0 0 0
2790 1 -3.775132297414729 1.717004656848943 -2.288828791832366 0 0 0
2791 1 -3.760487254414729 4.289362784848933 -2.188679693432365 0 0 0
2792 1 -5.502472501414729 3.062572591848948 -0.9638986206323654 0 0 0
2793 1 -5.502472501414729 3.062572591848948 -3.452203597232366 0 0 0
2794 1 -3.760487254414729 4.289362784848933 0.2996103533676333 0 0 0
2795 1 -3.755063164414729 6.804319953848946 0.3176604815676338 0 0 0
2796 1 -5.504835854914729 5.56560228884895 1.557251915967633 0 0 0
2797 1 -5.504835854914729 5.56560228884895 -0.9310530606323661 0 0 0
2798 1 -3.755063164414729 6.804319953848946 2.805950528367635 0 0 0
2799 1 -3.75630295641473 9.298404046848944 2.810907221967636 0 0 0
2800 1 -5.51490916491473 8.054965090848938 4.053992229567635 0 0 0
2801 1 -5.51490916491473 8.054965090848938 1.565702182767634 0 0 0
2802 1 -3.75630295641473 9.298404046848944 5.299212198567634 0 0 0
2803 1 -3.757581491914729 11.78826382684896 5.300630529567634 0 0 0
2804 1 -5.51862854091473 10.54308544784895 6.544596395367634 0 0 0
2805 1 -5.51862854091473 10.54308544784895 4.056291418767634 0 0 0
2806 1 -3.757581491914729 11.78826382684896 -7.140874944692365 0 0 1
2807 1 -5.51913220641473 13.03244824984894 6.545208517167634 0 0 0
2808 1 -5.502472501414729 3.062572591848948 -5.940493644032365 0 0 0
2809 1 -3.760487254414729 4.289362784848933 -4.676984670032366 0 0 0
2810 1 -3.755063164414729 6.804319953848946 -4.658949471632366 0 0 0
2811 1 -5.504835854914729 5.56560228884895 -3.419358037232366 0 0 0
2812 1 -5.504835854914729 5.56560228884895 -5.907648084032366 0 0 0
2813 1 -3.755063164414729 6.804319953848946 -2.170644495032366 0 0 0
2814 1 -3.75630295641473 9.298404046848944 -2.165687801432366 0 0 0
2815 1 -5.51490916491473 8.054965090848938 -0.9226027938323655 0 0 0
2816 1 -5.51490916491473 8.054965090848938 -3.410907770432366 0 0 0
2817 1 -3.75630295641473 9.298404046848944 0.3226171751676334 0 0 0
2818 1 -3.757581491914729 11.78826382684896 0.3240205763676345 0 0 0
2819 1 -5.51862854091473 10.54308544784895 1.567986442167633 0 0 0
2820 1 -5.51862854091473 10.54308544784895 -0.920303604632366 0 0 0
2821 1 -3.757581491914729 11.78826382684896 2.812325552967634 0 0 0
2822 1 -5.51913220641473 13.03244824984894 4.056903540567633 0 0 0
2823 1 -5.51913220641473 13.03244824984894 1.568613493767634 0 0 0
2824 1 -5.51490916491473 8.054965090848938 -5.899197817232365 0 0 0
2825 1 -3.75630295641473 9.298404046848944 -4.653992778032366 0 0 0
2826 1 -3.757581491914729 11.78826382684896 -4.652574447032366 0 0 0
2827 1 -5.51862854091473 10.54308544784895 -3.408608581232366 0 0 0
2828 1 -5.51862854091473 10.54308544784895 -5.896913557832366 0 0 0
2829 1 -3.757581491914729 11.78826382684896 -2.164269470432365 0 0 0
2830 1 -5.51913220641473 13.03244824984894 -0.9196914828323655 0 0 0
2831 1 -5.51913220641473 13.03244824984894 -3.407996459432366 0 0 0
2832 1 -5.51913220641473 13.03244824984894 -5.896286506232366 0 0 0
2833 1 -7.298659904914729 1.863861655848936 5.232879097167634 0 0 0
2834 1 -9.012129935914729 0.6624173408489611 6.529129122567634 0 0 0
2835 1 -9.012129935914729 0.6624173408489611 4.040839075767634 0 0 0
2836 1 -7.298659904914729 1.863861655848936 -7.208614433252365 0 0 1
2837 1 -7.25910279141473 4.334090804848969 -7.153329383852366 0 0 1
2838 1 -9.035957188414729 3.141343604848956 6.542237486967634 0 0 0
2839 1 -7.298659904914729 1.863861655848936 0.2562840737676337 0 0 0
2840 1 -9.012129935914729 0.6624173408489611 1.552534099167634 0 0 0
2841 1 -9.012129935914729 0.6624173408489611 -0.9357708774323656 0 0 0
2842 1 -7.298659904914729 1.863861655848936 2.744589050367635 0 0 0
2843 1 -7.25910279141473 4.334090804848969 2.799874099767635 0 0 0
2844 1 -9.035957188414729 3.141343604848956 4.053947440167635 0 0 0
2845 1 -9.035957188414729 3.141343604848956 1.565642463567634 0 0 0
2846 1 -7.25910279141473 4.334090804848969 5.288164146567635 0 0 0
2847 1 -7.27483265241473 6.812520090848935 5.297838656967635 0 0 0
2848 1 -9.046805368414729 5.581008606848954 6.545029359567636 0 0 0
2849 1 -9.046805368414729 5.581008606848954 4.056724382967635 0 0 0
2850 1 -7.27483265241473 6.812520090848935 -7.143666817292366 0 0 1
2851 1 -7.28037297291473 9.297907068848971 -7.140957058592366 0 0 1
2852 1 -9.045681806914729 8.054716601848938 6.545820638967635 0 0 0
2853 1 -7.298659904914729 1.863861655848936 -4.720310949632365 0 0 0
2854 1 -9.012129935914729 0.6624173408489611 -3.424060924232366 0 0 0
2855 1 -9.012129935914729 0.6624173408489611 -5.912365900832365 0 0 0
2856 1 -7.298659904914729 1.863861655848936 -2.232020902832366 0 0 0
2857 1 -7.25910279141473 4.334090804848969 -2.176735853432366 0 0 0
2858 1 -9.035957188414729 3.141343604848956 -0.9226625130323658 0 0 0
2859 1 -9.035957188414729 3.141343604848956 -3.410952559832365 0 0 0
2860 1 -7.25910279141473 4.334090804848969 0.3115691231676339 0 0 0
2861 1 -7.27483265241473 6.812520090848935 0.321228703767634 0 0 0
2862 1 -9.046805368414729 5.581008606848954 1.568434336167634 0 0 0
2863 1 -9.046805368414729 5.581008606848954 -0.9198706404323653 0 0 0
2864 1 -7.27483265241473 6.812520090848935 2.809533680367634 0 0 0
2865 1 -7.28037297291473 9.297907068848971 2.812235974167633 0 0 0
2866 1 -9.045681806914729 8.054716601848938 4.057530592167636 0 0 0
2867 1 -9.045681806914729 8.054716601848938 1.569225615567635 0 0 0
2868 1 -7.28037297291473 9.297907068848971 5.300540950767633 0 0 0
2869 1 -7.280682920914728 11.78702138184896 5.301168002367636 0 0 0
2870 1 -9.043085992414728 10.54184300284895 6.545775849567635 0 0 0
2871 1 -9.043085992414728 10.54184300284895 4.057470872967635 0 0 0
2872 1 -7.280682920914728 11.78702138184896 -7.140325528052366 0 0 1
2873 1 -9.040993843414729 13.03219976084894 6.545671340967633 0 0 0
2874 1 -9.035957188414729 3.141343604848956 -5.899257536432366 0 0 0
2875 1 -7.25910279141473 4.334090804848969 -4.665025900232365 0 0 0
2876 1 -7.27483265241473 6.812520090848935 -4.655366319632366 0 0 0
2877 1 -9.046805368414729 5.581008606848954 -3.408175617032366 0 0 0
2878 1 -9.046805368414729 5.581008606848954 -5.896465663832366 0 0 0
2879 1 -7.27483265241473 6.812520090848935 -2.167061343032366 0 0 0
2880 1 -7.28037297291473 9.297907068848971 -2.164359049232366 0 0 0
2881 1 -9.045681806914729 8.054716601848938 -0.9190793610323658 0 0 0
2882 1 -9.045681806914729 8.054716601848938 -3.407369407832366 0 0 0
2883 1 -7.28037297291473 9.297907068848971 0.3239459273676335 0 0 0
2884 1 -7.280682920914728 11.78702138184896 0.3245729789676339 0 0 0
2885 1 -9.043085992414728 10.54184300284895 1.569165896367634 0 0 0
2886 1 -9.043085992414728 10.54184300284895 -0.9191241504323662 0 0 0
2887 1 -7.280682920914728 11.78702138184896 2.812877955567634 0 0 0
2888 1 -9.040993843414729 13.03219976084894 4.057366364367633 0 0 0
2889 1 -9.040993843414729 13.03219976084894 1.569076317567633 0 0 0
2890 1 -9.045681806914729 8.054716601848938 -5.895674384432366 0 0 0
2891 1 -7.28037297291473 9.297907068848971 -4.652664025832365 0 0 0
2892 1 -7.280682920914728 11.78702138184896 -4.652022044432366 0 0 0
2893 1 -9.043085992414728 10.54184300284895 -3.407429127032366 0 0 0
2894 1 -9.043085992414728 10.54184300284895 -5.895734103632366 0 0 0
2895 1 -7.280682920914728 11.78702138184896 -2.163731997632365 0 0 0
2896 1 -9.040993843414729 13.03219976084894 -0.9192286590323651 0 0 0
2897 1 -9.040993843414729 13.03219976084894 -3.407533635632365 0 0 0
2898 1 -9.040993843414729 13.03219976084894 -5.895823682432366 0 0 0
2899 1 -10.76349110991473 1.859637342848956 5.356975594767635 0 0 0
2900 1 -12.47560511841473 0.6020345138489631 6.795745490967635 0 0 0
2901 1 -12.47560511841473 0.6020345138489631 4.307440514367634 0 0 0
2902 1 -10.76349110991473 1.859637342848956 -7.084517935652366 0 0 1
2903 1 -10.83105977391473 4.319678442848968 -7.130080699292366 0 0 1
2904 1 -12.59954557491473 3.039960092848943 6.582846542967633 0 0 0
2905 1 -10.76349110991473 1.859637342848956 0.3803805713676338 0 0 0
2906 1 -12.47560511841473 0.6020345138489631 1.819135537767634 0 0 0
2907 1 -12.47560511841473 0.6020345138489631 -0.6691545090323654 0 0 0
2908 1 -10.76349110991473 1.859637342848956 2.868685547967635 0 0 0
2909 1 -10.83105977391473 4.319678442848968 2.823119798367635 0 0 0
2910 1 -12.59954557491473 3.039960092848943 4.094556496167634 0 0 0
2911 1 -12.59954557491473 3.039960092848943 1.606251519567634 0 0 0
2912 1 -10.83105977391473 4.319678442848968 5.311424774967636 0 0 0
2913 1 -10.81668593541473 6.805810887848949 5.305408065567635 0 0 0
2914 1 -12.58389320091473 5.551438415848949 6.558257162367635 0 0 0
2915 1 -12.58389320091473 5.551438415848949 4.069952185767635 0 0 0
2916 1 -10.81668593541473 6.805810887848949 -7.136091436772366 0 0 1
2917 1 -10.80696131691473 9.295919156848967 -7.138677278132366 0 0 1
2918 1 -12.57041046291473 8.049498332848955 6.549597878367633 0 0 0
2919 1 -10.76349110991473 1.859637342848956 -4.596214452032365 0 0 0
2920 1 -12.47560511841473 0.6020345138489631 -3.157459485632366 0 0 0
2921 1 -12.47560511841473 0.6020345138489631 -5.645764462232366 0 0 0
2922 1 -10.76349110991473 1.859637342848956 -2.107924405232366 0 0 0
2923 1 -10.83105977391473 4.319678442848968 -2.153475225032365 0 0 0
2924 1 -12.59954557491473 3.039960092848943 -0.8820534570323657 0 0 0
2925 1 -12.59954557491473 3.039960092848943 -3.370343503832365 0 0 0
2926 1 -10.83105977391473 4.319678442848968 0.334814821767635 0 0 0
2927 1 -10.81668593541473 6.805810887848949 0.328813042167635 0 0 0
2928 1 -12.58389320091473 5.551438415848949 1.581647209167635 0 0 0
2929 1 -12.58389320091473 5.551438415848949 -0.9066428376323659 0 0 0
2930 1 -10.81668593541473 6.805810887848949 2.817103088967635 0 0 0
2931 1 -10.80696131691473 9.295919156848967 2.814520233567634 0 0 0
2932 1 -12.57041046291473 8.049498332848955 4.061292901767635 0 0 0
2933 1 -12.57041046291473 8.049498332848955 1.572987925167634 0 0 0
2934 1 -10.80696131691473 9.295919156848967 5.302825210167635 0 0 0
2935 1 -10.80246707091473 11.78726987084896 5.301959281767635 0 0 0
2936 1 -12.56382406791473 10.54258846984895 6.546955303767634 0 0 0
2937 1 -12.56382406791473 10.54258846984895 4.058665256967634 0 0 0
2938 1 -10.80246707091473 11.78726987084896 -7.139540220572366 0 0 1
2939 1 -12.56107327941473 13.03418767284894 6.546104305167635 0 0 0
2940 1 -12.59954557491473 3.039960092848943 -5.858648480432366 0 0 0
2941 1 -10.83105977391473 4.319678442848968 -4.641780201632366 0 0 0
2942 1 -10.81668593541473 6.805810887848949 -4.647796911032366 0 0 0
2943 1 -12.58389320091473 5.551438415848949 -3.394947814232366 0 0 0
2944 1 -12.58389320091473 5.551438415848949 -5.883252790832366 0 0 0
2945 1 -10.81668593541473 6.805810887848949 -2.159491934432365 0 0 0
2946 1 -10.80696131691473 9.295919156848967 -2.162074789832365 0 0 0
2947 1 -12.57041046291473 8.049498332848955 -0.9153021216323651 0 0 0
2948 1 -12.57041046291473 8.049498332848955 -3.403607098232365 0 0 0
2949 1 -10.80696131691473 9.295919156848967 0.3262152569676342 0 0 0
2950 1 -10.80246707091473 11.78726987084896 0.3253642583676353 0 0 0
2951 1 -12.56382406791473 10.54258846984895 1.570360280367634 0 0 0
2952 1 -12.56382406791473 10.54258846984895 -0.9179446962323663 0 0 0
2953 1 -10.80246707091473 11.78726987084896 2.813654305167635 0 0 0
2954 1 -12.56107327941473 13.03418767284894 4.057799328567635 0 0 0
2955 1 -12.56107327941473 13.03418767284894 1.569494351967634 0 0 0
2956 1 -12.57041046291473 8.049498332848955 -5.891912074832366 0 0 0
2957 1 -10.80696131691473 9.295919156848967 -4.650379766432366 0 0 0
2958 1 -10.80246707091473 11.78726987084896 -4.651245694832365 0 0 0
2959 1 -12.56382406791473 10.54258846984895 -3.406234743032366 0 0 0
2960 1 -12.56382406791473 10.54258846984895 -5.894539719632366 0 0 0
2961 1 -10.80246707091473 11.78726987084896 -2.162940718232365 0 0 0
2962 1 -12.56107327941473 13.03418767284894 -0.9187956948323652 0 0 0
2963 1 -12.56107327941473 13.03418767284894 -3.407100671432366 0 0 0
2964 1 -12.56107327941473 13.03418767284894 -5.895405648032366 0 0 0
2965 1 -14.35156538841473 1.65040960484896 5.438790898767634 0 0 0
2966 1 -14.35156538841473 1.65040960484896 -7.002711589532366 0 0 1
2967 1 -14.32874546691473 4.268738197848947 -7.110173303972366 0 0 1
2968 1 -14.35156538841473 1.65040960484896 0.4621958753676347 0 0 0
2969 1 -14.35156538841473 1.65040960484896 2.950485922167633 0 0 0
2970 1 -14.32874546691473 4.268738197848947 2.843021221767634 0 0 0
2971 1 -14.32874546691473 4.268738197848947 5.331326198367634 0 0 0
2972 1 -14.32595593491473 6.795374349848956 5.310051233367634 0 0 0
2973 1 -14.32595593491473 6.795374349848956 -7.131452747912366 0 0 1
2974 1 -14.32312765941473 9.296913112848969 -7.137270890972366 0 0 1
2975 1 -14.35156538841473 1.65040960484896 -4.514414077832366 0 0 0
2976 1 -14.35156538841473 1.65040960484896 -2.026109101232366 0 0 0
2977 1 -14.32874546691473 4.268738197848947 -2.133573801632365 0 0 0
2978 1 -14.32874546691473 4.268738197848947 0.3547311749676343 0 0 0
2979 1 -14.32595593491473 6.795374349848956 0.3334412801676354 0 0 0
2980 1 -14.32595593491473 6.795374349848956 2.821746256767634 0 0 0
2981 1 -14.32312765941473 9.296913112848969 2.815923634767636 0 0 0
2982 1 -14.32312765941473 9.296913112848969 5.304228611367634 0 0 0
2983 1 -14.32119048441473 11.79000324984894 5.302451965167634 0 0 0
2984 1 -14.32119048441473 11.79000324984894 -7.139055002072366 0 0 1
2985 1 -14.32874546691473 4.268738197848947 -4.621878778232365 0 0 0
2986 1 -14.32595593491473 6.795374349848956 -4.643153743232366 0 0 0
2987 1 -14.32595593491473 6.795374349848956 -2.154848766632366 0 0 0
2988 1 -14.32312765941473 9.296913112848969 -2.160671388632365 0 0 0
2989 1 -14.32312765941473 9.296913112848969 0.3276335879676342 0 0 0
2990 1 -14.32119048441473 11.79000324984894 0.3258420119676337 0 0 0
2991 1 -14.32119048441473 11.79000324984894 2.814146988567634 0 0 0
2992 1 -14.32312765941473 9.296913112848969 -4.648976365232366 0 0 0
2993 1 -14.32119048441473 11.79000324984894 -4.650753011432366 0 0 0
2994 1 -14.32119048441473 11.79000324984894 -2.162448034832366 0 0 0
2995 1 1.524746041585271 15.52479291984893 6.545238376767635 0 0 0
2996 1 1.524746041585271 15.52479291984893 4.056933400167635 0 0 0
2997 1 1.52459106758527 18.01440421084895 6.545372744967635 0 0 0
2998 1 1.524746041585271 15.52479291984893 1.568628423567635 0 0 0
2999 1 1.524746041585271 15.52479291984893 -0.9196616232323658 0 0 0
3000 1 1.52459106758527 18.01440421084895 4.057067768367634 0 0 0
3001 1 1.52459106758527 18.01440421084895 1.568762791767634 0 0 0
3002 1 1.524746041585271 20.50351852384897 6.545447393967635 0 0 0
3003 1 1.524746041585271 20.50351852384897 4.057142417367634 0 0 0
3004 1 1.525133476585271 22.99288132584896 6.545477253567634 0 0 0
3005 1 1.524746041585271 15.52479291984893 -3.407966599832366 0 0 0
3006 1 1.524746041585271 15.52479291984893 -5.896271576432365 0 0 0
3007 1 1.52459106758527 18.01440421084895 -0.9195272550323654 0 0 0
3008 1 1.52459106758527 18.01440421084895 -3.407832231632366 0 0 0
3009 1 1.524746041585271 20.50351852384897 1.568837440767634 0 0 0
3010 1 1.524746041585271 20.50351852384897 -0.9194526060323653 0 0 0
3011 1 1.525133476585271 22.99288132584896 4.057172276967634 0 0 0
3012 1 1.525133476585271 22.99288132584896 1.568882230167635 0 0 0
3013 1 1.525520911585271 25.48224412784894 6.545492183367633 0 0 0
3014 1 1.525520911585271 25.48224412784894 4.057202136567634 0 0 0
3015 1 1.52459106758527 18.01440421084895 -5.896137208232366 0 0 0
3016 1 1.524746041585271 20.50351852384897 -3.407757582632366 0 0 0
3017 1 1.524746041585271 20.50351852384897 -5.896062559232366 0 0 0
3018 1 1.525133476585271 22.99288132584896 -0.9194227464323657 0 0 0
3019 1 1.525133476585271 22.99288132584896 -3.407727723032365 0 0 0
3020 1 1.525520911585271 25.48224412784894 1.568897159967634 0 0 0
3021 1 1.525520911585271 25.48224412784894 -0.9194078166323658 0 0 0
3022 1 1.525133476585271 22.99288132584896 -5.896017769832365 0 0 0
3023 1 1.525520911585271 25.48224412784894 -3.407697863432365 0 0 0
3024 1 1.525520911585271 25.48224412784894 -5.896002840032366 0 0 0
3025 1 -0.2359135724147308 14.27911756284895 -7.140527080352365 0 0 1
3026 1 -0.2359135724147308 14.27911756284895 2.812668938367635 0 0 0
3027 1 -0.2359135724147308 14.27911756284895 5.300973914967635 0 0 0
3028 1 -0.2362622639147283 16.76872885384897 5.301168002367636 0 0 0
3029 1 -1.997038108414731 15.52330198584896 6.545268236367633 0 0 0
3030 1 -1.997038108414731 15.52330198584896 4.056963259767633 0 0 0
3031 1 -0.2362622639147283 16.76872885384897 -7.140330006992365 0 0 1
3032 1 -0.2362235204147289 19.25834014484896 -7.140232963292366 0 0 1
3033 1 -1.997038108414731 18.01291327684895 6.545402604567634 0 0 0
3034 1 -0.2359135724147308 14.27911756284895 -2.163926085032365 0 0 0
3035 1 -0.2359135724147308 14.27911756284895 0.3243788915676351 0 0 0
3036 1 -0.2362622639147283 16.76872885384897 0.3245729789676339 0 0 0
3037 1 -1.997038108414731 15.52330198584896 1.568673212967633 0 0 0
3038 1 -1.997038108414731 15.52330198584896 -0.9196317636323652 0 0 0
3039 1 -0.2362622639147283 16.76872885384897 2.812863025767635 0 0 0
3040 1 -0.2362235204147289 19.25834014484896 2.812967534367635 0 0 0
3041 1 -1.997038108414731 18.01291327684895 4.057097627967634 0 0 0
3042 1 -1.997038108414731 18.01291327684895 1.568792651367634 0 0 0
3043 1 -0.2362235204147289 19.25834014484896 5.301272510967635 0 0 0
3044 1 -0.2359135724147308 21.74795143584898 5.301317300367634 0 0 0
3045 1 -1.996805647414728 20.50277305684894 6.545462323767634 0 0 0
3046 1 -1.996805647414728 20.50277305684894 4.057157347167633 0 0 0
3047 1 -0.2359135724147308 21.74795143584898 -7.140185187932365 0 0 1
3048 1 -0.2355648809147297 24.23731423784896 -7.140161300252366 0 0 1
3049 1 -1.99649569941473 22.99238434784893 6.545492183367633 0 0 0
3050 1 -0.2359135724147308 14.27911756284895 -4.652231061632365 0 0 0
3051 1 -0.2362622639147283 16.76872885384897 -4.652036974232366 0 0 0
3052 1 -1.997038108414731 15.52330198584896 -3.407936740232365 0 0 0
3053 1 -1.997038108414731 15.52330198584896 -5.896226787032366 0 0 0
3054 1 -0.2362622639147283 16.76872885384897 -2.163731997632365 0 0 0
3055 1 -0.2362235204147289 19.25834014484896 -2.163627489032366 0 0 0
3056 1 -1.997038108414731 18.01291327684895 -0.9194973954323657 0 0 0
3057 1 -1.997038108414731 18.01291327684895 -3.407802372032366 0 0 0
3058 1 -0.2362235204147289 19.25834014484896 0.3246625577676348 0 0 0
3059 1 -0.2359135724147308 21.74795143584898 0.324722276967635 0 0 0
3060 1 -1.996805647414728 20.50277305684894 1.568852370567635 0 0 0
3061 1 -1.996805647414728 20.50277305684894 -0.9194376762323655 0 0 0
3062 1 -0.2359135724147308 21.74795143584898 2.813012323767634 0 0 0
3063 1 -0.2355648809147297 24.23731423784896 2.813042183367633 0 0 0
3064 1 -1.99649569941473 22.99238434784893 4.057187206767635 0 0 0
3065 1 -1.99649569941473 22.99238434784893 1.568882230167635 0 0 0
3066 1 -0.2355648809147297 24.23731423784896 5.301332230167635 0 0 0
3067 1 -0.2351774459147293 26.72667703984895 5.301347159967634 0 0 0
3068 1 -1.996185751414728 25.48199563884894 6.545492183367633 0 0 0
3069 1 -1.996185751414728 25.48199563884894 4.057202136567634 0 0 0
3070 1 -0.2351774459147293 26.72667703984895 -7.140147863432365 0 0 1
3071 1 -1.997038108414731 18.01291327684895 -5.896107348632365 0 0 0
3072 1 -0.2362235204147289 19.25834014484896 -4.651932465632366 0 0 0
3073 1 -0.2359135724147308 21.74795143584898 -4.651887676232366 0 0 0
3074 1 -1.996805647414728 20.50277305684894 -3.407742652832366 0 0 0
3075 1 -1.996805647414728 20.50277305684894 -5.896047629432366 0 0 0
3076 1 -0.2359135724147308 21.74795143584898 -2.163582699632365 0 0 0
3077 1 -0.2355648809147297 24.23731423784896 -2.163567769832366 0 0 0
3078 1 -1.99649569941473 22.99238434784893 -0.9194078166323658 0 0 0
3079 1 -1.99649569941473 22.99238434784893 -3.407712793232366 0 0 0
3080 1 -0.2355648809147297 24.23731423784896 0.3247372067676348 0 0 0
3081 1 -0.2351774459147293 26.72667703984895 0.3247521365676338 0 0 0
3082 1 -1.996185751414728 25.48199563884894 1.568897159967634 0 0 0
3083 1 -1.996185751414728 25.48199563884894 -0.9194078166323658 0 0 0
3084 1 -0.2351774459147293 26.72667703984895 2.813057113167634 0 0 0
3085 1 -1.99649569941473 22.99238434784893 -5.896017769832365 0 0 0
3086 1 -0.2355648809147297 24.23731423784896 -4.651857816632366 0 0 0
3087 1 -0.2351774459147293 26.72667703984895 -4.651842886832366 0 0 0
3088 1 -1.996185751414728 25.48199563884894 -3.407697863432365 0 0 0
3089 1 -1.996185751414728 25.48199563884894 -5.896002840032366 0 0 0
3090 1 -0.2351774459147293 26.72667703984895 -2.163552840032366 0 0 0
3091 1 -3.75796892691473 14.27787511784895 -7.140428543672366 0 0 1
3092 1 -3.75796892691473 14.27787511784895 2.812773446967634 0 0 0
3093 1 -3.75796892691473 14.27787511784895 5.301078423567635 0 0 0
3094 1 -3.757852696414728 16.76773489784897 5.301242651367634 0 0 0
3095 1 -5.518744771414729 15.52230802984896 6.545402604567634 0 0 0
3096 1 -5.518744771414729 15.52230802984896 4.057097627967634 0 0 0
3097 1 -3.757852696414728 16.76773489784897 -7.140264315872366 0 0 1
3098 1 -3.757581491914729 19.25759467784896 -7.140195638792366 0 0 1
3099 1 -5.518279849414728 18.01241629884895 6.545462323767634 0 0 0
3100 1 -3.75796892691473 14.27787511784895 -2.163821576432365 0 0 0
3101 1 -3.75796892691473 14.27787511784895 0.3244684703676342 0 0 0
3102 1 -3.757852696414728 16.76773489784897 0.3246326981676333 0 0 0
3103 1 -5.518744771414729 15.52230802984896 1.568792651367634 0 0 0
3104 1 -5.518744771414729 15.52230802984896 -0.9194973954323657 0 0 0
3105 1 -3.757852696414728 16.76773489784897 2.812937674767634 0 0 0
3106 1 -3.757581491914729 19.25759467784896 2.812997393967635 0 0 0
3107 1 -5.518279849414728 18.01241629884895 4.057172276967634 0 0 0
3108 1 -5.518279849414728 18.01241629884895 1.568867300367634 0 0 0
3109 1 -3.757581491914729 19.25759467784896 5.301302370567635 0 0 0
3110 1 -3.75727154391473 21.74745445784895 5.301332230167635 0 0 0
3111 1 -5.517931157914729 20.50252456784897 6.545492183367633 0 0 0
3112 1 -5.517931157914729 20.50252456784897 4.057187206767635 0 0 0
3113 1 -3.75727154391473 21.74745445784895 -7.140165779192365 0 0 1
3114 1 -3.757000339414729 24.23706574884896 -7.140150849392366 0 0 1
3115 1 -5.517698696914728 22.99238434784893 6.545507113167634 0 0 0
3116 1 -3.75796892691473 14.27787511784895 -4.652126553032366 0 0 0
3117 1 -3.757852696414728 16.76773489784897 -4.651962325232366 0 0 0
3118 1 -5.518744771414729 15.52230802984896 -3.407802372032366 0 0 0
3119 1 -5.518744771414729 15.52230802984896 -5.896107348632365 0 0 0
3120 1 -3.757852696414728 16.76773489784897 -2.163657348632366 0 0 0
3121 1 -3.757581491914729 19.25759467784896 -2.163597629432366 0 0 0
3122 1 -5.518279849414728 18.01241629884895 -0.9194376762323655 0 0 0
3123 1 -5.518279849414728 18.01241629884895 -3.407727723032365 0 0 0
3124 1 -3.757581491914729 19.25759467784896 0.3247073471676343 0 0 0
3125 1 -3.75727154391473 21.74745445784895 0.3247372067676348 0 0 0
3126 1 -5.517931157914729 20.50252456784897 1.568897159967634 0 0 0
3127 1 -5.517931157914729 20.50252456784897 -0.9194078166323658 0 0 0
3128 1 -3.75727154391473 21.74745445784895 2.813027253567634 0 0 0
3129 1 -3.757000339414729 24.23706574884896 2.813042183367633 0 0 0
3130 1 -5.517698696914728 22.99238434784893 4.057202136567634 0 0 0
3131 1 -5.517698696914728 22.99238434784893 1.568897159967634 0 0 0
3132 1 -3.757000339414729 24.23706574884896 5.301347159967634 0 0 0
3133 1 -3.756806621914729 26.72667703984895 5.301362089767634 0 0 0
3134 1 -5.51758246641473 25.48199563884894 6.545507113167634 0 0 0
3135 1 -5.51758246641473 25.48199563884894 4.057202136567634 0 0 0
3136 1 -3.756806621914729 26.72667703984895 -7.140143384492366 0 0 1
3137 1 -5.518279849414728 18.01241629884895 -5.896032699632366 0 0 0
3138 1 -3.757581491914729 19.25759467784896 -4.651902606032365 0 0 0
3139 1 -3.75727154391473 21.74745445784895 -4.651872746432366 0 0 0
3140 1 -5.517931157914729 20.50252456784897 -3.407712793232366 0 0 0
3141 1 -5.517931157914729 20.50252456784897 -5.896002840032366 0 0 0
3142 1 -3.75727154391473 21.74745445784895 -2.163567769832366 0 0 0
3143 1 -3.757000339414729 24.23706574884896 -2.163552840032366 0 0 0
3144 1 -5.517698696914728 22.99238434784893 -0.919392886832366 0 0 0
3145 1 -5.517698696914728 22.99238434784893 -3.407697863432365 0 0 0
3146 1 -3.757000339414729 24.23706574884896 0.3247521365676338 0 0 0
3147 1 -3.756806621914729 26.72667703984895 0.3247521365676338 0 0 0
3148 1 -5.51758246641473 25.48199563884894 1.568912089767634 0 0 0
3149 1 -5.51758246641473 25.48199563884894 -0.919392886832366 0 0 0
3150 1 -3.756806621914729 26.72667703984895 2.813057113167634 0 0 0
3151 1 -5.517698696914728 22.99238434784893 -5.896002840032366 0 0 0
3152 1 -3.757000339414729 24.23706574884896 -4.651857816632366 0 0 0
3153 1 -3.756806621914729 26.72667703984895 -4.651842886832366 0 0 0
3154 1 -5.51758246641473 25.48199563884894 -3.407697863432365 0 0 0
3155 1 -5.51758246641473 25.48199563884894 -5.895987910232366 0 0 0
3156 1 -3.756806621914729 26.72667703984895 -2.163537910232366 0 0 0
3157 1 -7.279791820414728 14.27712965084895 -7.140177723032366 0 0 1
3158 1 -7.279791820414728 14.27712965084895 2.813027253567634 0 0 0
3159 1 -7.279791820414728 14.27712965084895 5.301317300367634 0 0 0
3160 1 -7.278978206914729 16.76748640884897 5.301362089767634 0 0 0
3161 1 -9.039715307914728 15.52255651884893 6.545596691967635 0 0 0
3162 1 -9.039715307914728 15.52255651884893 4.057291715367635 0 0 0
3163 1 -7.278978206914729 16.76748640884897 -7.140143384492366 0 0 1
3164 1 -7.278513284914728 19.25759467784896 -7.140137412572366 0 0 1
3165 1 -9.03909541191473 18.01291327684895 6.545551902567635 0 0 0
3166 1 -7.279791820414728 14.27712965084895 -2.163582699632365 0 0 0
3167 1 -7.279791820414728 14.27712965084895 0.324722276967635 0 0 0
3168 1 -7.278978206914729 16.76748640884897 0.3247521365676338 0 0 0
3169 1 -9.039715307914728 15.52255651884893 1.569001668567635 0 0 0
3170 1 -9.039715307914728 15.52255651884893 -0.919303308032366 0 0 0
3171 1 -7.278978206914729 16.76748640884897 2.813057113167634 0 0 0
3172 1 -7.278513284914728 19.25759467784896 2.813057113167634 0 0 0
3173 1 -9.03909541191473 18.01291327684895 4.057261855767633 0 0 0
3174 1 -9.03909541191473 18.01291327684895 1.568956879167633 0 0 0
3175 1 -7.278513284914728 19.25759467784896 5.301362089767634 0 0 0
3176 1 -7.278319567414728 21.74745445784895 5.301362089767634 0 0 0
3177 1 -9.03886295091473 20.50302154584894 6.545536972767636 0 0 0
3178 1 -9.03886295091473 20.50302154584894 4.057231996167635 0 0 0
3179 1 -7.278319567414728 21.74745445784895 -7.140135919592366 0 0 1
3180 1 -7.27824208041473 24.23731423784896 -7.140135919592366 0 0 1
3181 1 -9.03886295091473 22.99263283684895 6.545522042967635 0 0 0
3182 1 -7.279791820414728 14.27712965084895 -4.651872746432366 0 0 0
3183 1 -7.278978206914729 16.76748640884897 -4.651842886832366 0 0 0
3184 1 -9.039715307914728 15.52255651884893 -3.407608284632365 0 0 0
3185 1 -9.039715307914728 15.52255651884893 -5.895898331432366 0 0 0
3186 1 -7.278978206914729 16.76748640884897 -2.163537910232366 0 0 0
3187 1 -7.278513284914728 19.25759467784896 -2.163537910232366 0 0 0
3188 1 -9.03909541191473 18.01291327684895 -0.9193480974323656 0 0 0
3189 1 -9.03909541191473 18.01291327684895 -3.407638144232365 0 0 0
3190 1 -7.278513284914728 19.25759467784896 0.3247670663676345 0 0 0
3191 1 -7.278319567414728 21.74745445784895 0.3247670663676345 0 0 0
3192 1 -9.03886295091473 20.50302154584894 1.568941949367636 0 0 0
3193 1 -9.03886295091473 20.50302154584894 -0.9193630272323663 0 0 0
3194 1 -7.278319567414728 21.74745445784895 2.813057113167634 0 0 0
3195 1 -7.27824208041473 24.23731423784896 2.813057113167634 0 0 0
3196 1 -9.03886295091473 22.99263283684895 4.057231996167635 0 0 0
3197 1 -9.03886295091473 22.99263283684895 1.568927019567635 0 0 0
3198 1 -7.27824208041473 24.23731423784896 5.301362089767634 0 0 0
3199 1 -7.278280823914731 26.72667703984895 5.301362089767634 0 0 0
3200 1 -9.038979181414728 25.48224412784894 6.545522042967635 0 0 0
3201 1 -9.038979181414728 25.48224412784894 4.057217066367635 0 0 0
3202 1 -7.278280823914731 26.72667703984895 -7.140135919592366 0 0 1
3203 1 -9.03909541191473 18.01291327684895 -5.895943120832365 0 0 0
3204 1 -7.278513284914728 19.25759467784896 -4.651842886832366 0 0 0
3205 1 -7.278319567414728 21.74745445784895 -4.651842886832366 0 0 0
3206 1 -9.03886295091473 20.50302154584894 -3.407668003832366 0 0 0
3207 1 -9.03886295091473 20.50302154584894 -5.895958050632366 0 0 0
3208 1 -7.278319567414728 21.74745445784895 -2.163537910232366 0 0 0
3209 1 -7.27824208041473 24.23731423784896 -2.163537910232366 0 0 0
3210 1 -9.03886295091473 22.99263283684895 -0.9193779570323652 0 0 0
3211 1 -9.03886295091473 22.99263283684895 -3.407668003832366 0 0 0
3212 1 -7.27824208041473 24.23731423784896 0.3247670663676345 0 0 0
3213 1 -7.278280823914731 26.72667703984895 0.3247670663676345 0 0 0
3214 1 -9.038979181414728 25.48224412784894 1.568912089767634 0 0 0
3215 1 -9.038979181414728 25.48224412784894 -0.9193779570323652 0 0 0
3216 1 -7.278280823914731 26.72667703984895 2.813057113167634 0 0 0
3217 1 -9.03886295091473 22.99263283684895 -5.895972980432366 0 0 0
3218 1 -7.27824208041473 24.23731423784896 -4.651842886832366 0 0 0
3219 1 -7.278280823914731 26.72667703984895 -4.651842886832366 0 0 0
3220 1 -9.038979181414728 25.48224412784894 -3.407682933632366 0 0 0
3221 1 -9.038979181414728 25.48224412784894 -5.895987910232366 0 0 0
3222 1 -7.278280823914731 26.72667703984895 -2.163537910232366 0 0 0
3223 1 -10.80045240891473 14.27812360684895 -7.139871662132366 0 0 1
3224 1 -10.80045240891473 14.27812360684895 2.813325849567635 0 0 0
3225 1 -10.80045240891473 14.27812360684895 5.301630826167633 0 0 0
3226 1 -10.79960005191473 16.76848036484897 5.301481528167635 0 0 0
3227 1 -12.56006594841473 15.52454443084893 6.545775849567635 0 0 0
3228 1 -12.56006594841473 15.52454443084893 4.057470872967635 0 0 0
3229 1 -10.79960005191473 16.76848036484897 -7.140012002252366 0 0 1
3230 1 -10.79936759091473 19.25858863384893 -7.140076200392365 0 0 1
3231 1 -12.55983348741473 18.01440421084895 6.545641481367635 0 0 0
3232 1 -10.80045240891473 14.27812360684895 -2.163269173832366 0 0 0
3233 1 -10.80045240891473 14.27812360684895 0.3250358027676334 0 0 0
3234 1 -10.79960005191473 16.76848036484897 0.3248865047676341 0 0 0
3235 1 -12.56006594841473 15.52454443084893 1.569165896367634 0 0 0
3236 1 -12.56006594841473 15.52454443084893 -0.9191241504323662 0 0 0
3237 1 -10.79960005191473 16.76848036484897 2.813191481367635 0 0 0
3238 1 -10.79936759091473 19.25858863384893 2.813131762167634 0 0 0
3239 1 -12.55983348741473 18.01440421084895 4.057336504767635 0 0 0
3240 1 -12.55983348741473 18.01440421084895 1.569031528167635 0 0 0
3241 1 -10.79936759091473 19.25858863384893 5.301421808967634 0 0 0
3242 1 -10.79940633441473 21.74819992484895 5.301391949367636 0 0 0
3243 1 -12.55998846141473 20.50376701284894 6.545566832367633 0 0 0
3244 1 -12.55998846141473 20.50376701284894 4.057276785567634 0 0 0
3245 1 -10.79940633441473 21.74819992484895 -7.140106059992366 0 0 1
3246 1 -10.79963879541473 24.23756272684896 -7.140120989792366 0 0 1
3247 1 -12.56025966591473 22.99312981484896 6.545536972767636 0 0 0
3248 1 -10.80045240891473 14.27812360684895 -4.651574150432365 0 0 0
3249 1 -10.79960005191473 16.76848036484897 -4.651708518632366 0 0 0
3250 1 -12.56006594841473 15.52454443084893 -3.407429127032366 0 0 0
3251 1 -12.56006594841473 15.52454443084893 -5.895734103632366 0 0 0
3252 1 -10.79960005191473 16.76848036484897 -2.163418471832366 0 0 0
3253 1 -10.79936759091473 19.25858863384893 -2.163478191032365 0 0 0
3254 1 -12.55983348741473 18.01440421084895 -0.9192585186323656 0 0 0
3255 1 -12.55983348741473 18.01440421084895 -3.407563495232366 0 0 0
3256 1 -10.79936759091473 19.25858863384893 0.3248267855676339 0 0 0
3257 1 -10.79940633441473 21.74819992484895 0.3247969259676351 0 0 0
3258 1 -12.55998846141473 20.50376701284894 1.568971808967634 0 0 0
3259 1 -12.55998846141473 20.50376701284894 -0.9193331676323657 0 0 0
3260 1 -10.79940633441473 21.74819992484895 2.813086972767636 0 0 0
3261 1 -10.79963879541473 24.23756272684896 2.813072042967635 0 0 0
3262 1 -12.56025966591473 22.99312981484896 4.057246925967634 0 0 0
3263 1 -12.56025966591473 22.99312981484896 1.568941949367636 0 0 0
3264 1 -10.79963879541473 24.23756272684896 5.301377019567635 0 0 0
3265 1 -10.79983251291473 26.72692552884895 5.301377019567635 0 0 0
3266 1 -12.56060835741473 25.48249261684894 6.545522042967635 0 0 0
3267 1 -12.56060835741473 25.48249261684894 4.057231996167635 0 0 0
3268 1 -10.79983251291473 26.72692552884895 -7.140128454692366 0 0 1
3269 1 -12.55983348741473 18.01440421084895 -5.895868471832365 0 0 0
3270 1 -10.79936759091473 19.25858863384893 -4.651768237832366 0 0 0
3271 1 -10.79940633441473 21.74819992484895 -4.651813027232365 0 0 0
3272 1 -12.55998846141473 20.50376701284894 -3.407623214432366 0 0 0
3273 1 -12.55998846141473 20.50376701284894 -5.895928191032366 0 0 0
3274 1 -10.79940633441473 21.74819992484895 -2.163508050632366 0 0 0
3275 1 -10.79963879541473 24.23756272684896 -2.163522980432366 0 0 0
3276 1 -12.56025966591473 22.99312981484896 -0.9193630272323663 0 0 0
3277 1 -12.56025966591473 22.99312981484896 -3.407653074032366 0 0 0
3278 1 -10.79963879541473 24.23756272684896 0.3247819961676344 0 0 0
3279 1 -10.79983251291473 26.72692552884895 0.3247670663676345 0 0 0
3280 1 -12.56060835741473 25.48249261684894 1.568927019567635 0 0 0
3281 1 -12.56060835741473 25.48249261684894 -0.9193779570323652 0 0 0
3282 1 -10.79983251291473 26.72692552884895 2.813072042967635 0 0 0
3283 1 -12.56025966591473 22.99312981484896 -5.895958050632366 0 0 0
3284 1 -10.79963879541473 24.23756272684896 -4.651827957032365 0 0 0
3285 1 -10.79983251291473 26.72692552884895 -4.651827957032365 0 0 0
3286 1 -12.56060835741473 25.48249261684894 -3.407668003832366 0 0 0
3287 1 -12.56060835741473 25.48249261684894 -5.895972980432366 0 0 0
3288 1 -10.79983251291473 26.72692552884895 -2.163522980432366 0 0 0
3289 1 -14.32041561441473 14.28060849684896 -7.139676081752365 0 0 1
3290 1 -14.32041561441473 14.28060849684896 2.813519936967634 0 0 0
3291 1 -14.32041561441473 14.28060849684896 5.301824913567634 0 0 0
3292 1 -14.32033812741473 16.77046827684894 5.301571106967636 0 0 0
3293 1 -14.32033812741473 16.77046827684894 -7.139925409412366 0 0 1
3294 1 -14.32060933191473 19.25983107884896 -7.140034396952366 0 0 1
3295 1 -14.32041561441473 14.28060849684896 -2.163075086432366 0 0 0
3296 1 -14.32041561441473 14.28060849684896 0.325229890167634 0 0 0
3297 1 -14.32033812741473 16.77046827684894 0.3249760835676332 0 0 0
3298 1 -14.32033812741473 16.77046827684894 2.813281060167634 0 0 0
3299 1 -14.32060933191473 19.25983107884896 2.813161621767634 0 0 0
3300 1 -14.32060933191473 19.25983107884896 5.301466598367634 0 0 0
3301 1 -14.32095802341473 21.74894539184898 5.301406879167633 0 0 0
3302 1 -14.32095802341473 21.74894539184898 -7.140086651252366 0 0 1
3303 1 -14.32134545841473 24.23805970484896 -7.140112031912365 0 0 1
3304 1 -14.32041561441473 14.28060849684896 -4.651380063032366 0 0 0
3305 1 -14.32033812741473 16.77046827684894 -4.651618939832366 0 0 0
3306 1 -14.32033812741473 16.77046827684894 -2.163328893032365 0 0 0
3307 1 -14.32060933191473 19.25983107884896 -2.163433401632365 0 0 0
3308 1 -14.32060933191473 19.25983107884896 0.3248715749676343 0 0 0
3309 1 -14.32095802341473 21.74894539184898 0.3248118557676341 0 0 0
3310 1 -14.32095802341473 21.74894539184898 2.813116832367633 0 0 0
3311 1 -14.32134545841473 24.23805970484896 2.813086972767636 0 0 0
3312 1 -14.32134545841473 24.23805970484896 5.301391949367636 0 0 0
3313 1 -14.32173289341473 26.72717401784895 5.301377019567635 0 0 0
3314 1 -14.32173289341473 26.72717401784895 -7.140123975752366 0 0 1
3315 1 -14.32060933191473 19.25983107884896 -4.651738378232366 0 0 0
3316 1 -14.32095802341473 21.74894539184898 -4.651783167632366 0 0 0
3317 1 -14.32095802341473 21.74894539184898 -2.163493120832365 0 0 0
3318 1 -14.32134545841473 24.23805970484896 -2.163508050632366 0 0 0
3319 1 -14.32134545841473 24.23805970484896 0.3247819961676344 0 0 0
3320 1 -14.32173289341473 26.72717401784895 0.3247819961676344 0 0 0
3321 1 -14.32173289341473 26.72717401784895 2.813072042967635 0 0 0
3322 1 -14.32134545841473 24.23805970484896 -4.651813027232365 0 0 0
3323 1 -14.32173289341473 26.72717401784895 -4.651827957032365 0 0 0
3324 1 -14.32173289341473 26.72717401784895 -2.163522980432366 0 0 0
3325 1 1.525908346585272 27.97135844084896 6.545507113167634 0 0 0
3326 1 1.525908346585272 27.97135844084896 4.057202136567634 0 0 0
3327 1 1.525908346585272 27.97135844084896 1.568897159967634 0 0 0
3328 1 1.52621829458527 30.46047275384895 6.545507113167634 0 0 0
3329 1 1.52621829458527 30.46047275384895 4.057202136567634 0 0 0
3330 1 1.52645075558527 32.94958706684896 6.545507113167634 0 0 0
3331 1 1.525908346585272 27.97135844084896 -0.919392886832366 0 0 0
3332 1 1.525908346585272 27.97135844084896 -3.407697863432365 0 0 0
3333 1 1.52621829458527 30.46047275384895 1.568912089767634 0 0 0
3334 1 1.52621829458527 30.46047275384895 -0.919392886832366 0 0 0
3335 1 1.52645075558527 32.94958706684896 4.057217066367635 0 0 0
3336 1 1.52645075558527 32.94958706684896 1.568912089767634 0 0 0
3337 1 1.52664447308527 35.43870137984895 6.545507113167634 0 0 0
3338 1 1.52664447308527 35.43870137984895 4.057217066367635 0 0 0
3339 1 1.526760703585268 37.92781569284897 6.545507113167634 0 0 0
3340 1 1.525908346585272 27.97135844084896 -5.896002840032366 0 0 0
3341 1 1.52621829458527 30.46047275384895 -3.407697863432365 0 0 0
3342 1 1.52621829458527 30.46047275384895 -5.895987910232366 0 0 0
3343 1 1.52645075558527 32.94958706684896 -0.919392886832366 0 0 0
3344 1 1.52645075558527 32.94958706684896 -3.407682933632366 0 0 0
3345 1 1.52664447308527 35.43870137984895 1.568912089767634 0 0 0
3346 1 1.52664447308527 35.43870137984895 -0.919392886832366 0 0 0
3347 1 1.526760703585268 37.92781569284897 4.057217066367635 0 0 0
3348 1 1.526760703585268 37.92781569284897 1.568912089767634 0 0 0
3349 1 1.52683819058527 40.41693000584895 6.545507113167634 0 0 0
3350 1 1.52683819058527 40.41693000584895 4.057217066367635 0 0 0
3351 1 1.52645075558527 32.94958706684896 -5.895987910232366 0 0 0
3352 1 1.52664447308527 35.43870137984895 -3.407682933632366 0 0 0
3353 1 1.52664447308527 35.43870137984895 -5.895987910232366 0 0 0
3354 1 1.526760703585268 37.92781569284897 -0.919392886832366 0 0 0
3355 1 1.526760703585268 37.92781569284897 -3.407682933632366 0 0 0
3356 1 1.52683819058527 40.41693000584895 1.568912089767634 0 0 0
3357 1 1.52683819058527 40.41693000584895 -0.919392886832366 0 0 0
3358 1 1.526760703585268 37.92781569284897 -5.895987910232366 0 0 0
3359 1 1.52683819058527 40.41693000584895 -3.407682933632366 0 0 0
3360 1 1.52683819058527 40.41693000584895 -5.895987910232366 0 0 0
3361 1 -0.2348674979147312 29.21603984184894 -7.140141891512366 0 0 1
3362 1 -1.99587580341473 27.97135844084896 6.545507113167634 0 0 0
3363 1 -0.2348674979147312 29.21603984184894 2.813057113167634 0 0 0
3364 1 -1.99587580341473 27.97135844084896 4.057202136567634 0 0 0
3365 1 -1.99587580341473 27.97135844084896 1.568912089767634 0 0 0
3366 1 -0.2348674979147312 29.21603984184894 5.301362089767634 0 0 0
3367 1 -0.2346350369147281 31.70515415484896 5.301362089767634 0 0 0
3368 1 -1.99568208591473 30.46047275384895 6.545507113167634 0 0 0
3369 1 -1.99568208591473 30.46047275384895 4.057217066367635 0 0 0
3370 1 -0.2346350369147281 31.70515415484896 -7.140138905552366 0 0 1
3371 1 -0.2344413194147279 34.19426846784894 -7.140137412572366 0 0 1
3372 1 -1.995527111914729 32.94983555584894 6.545507113167634 0 0 0
3373 1 -0.2348674979147312 29.21603984184894 -2.163537910232366 0 0 0
3374 1 -1.99587580341473 27.97135844084896 -0.919392886832366 0 0 0
3375 1 -1.99587580341473 27.97135844084896 -3.407697863432365 0 0 0
3376 1 -0.2348674979147312 29.21603984184894 0.3247521365676338 0 0 0
3377 1 -0.2346350369147281 31.70515415484896 0.3247670663676345 0 0 0
3378 1 -1.99568208591473 30.46047275384895 1.568912089767634 0 0 0
3379 1 -1.99568208591473 30.46047275384895 -0.919392886832366 0 0 0
3380 1 -0.2346350369147281 31.70515415484896 2.813057113167634 0 0 0
3381 1 -0.2344413194147279 34.19426846784894 2.813057113167634 0 0 0
3382 1 -1.995527111914729 32.94983555584894 4.057217066367635 0 0 0
3383 1 -1.995527111914729 32.94983555584894 1.568912089767634 0 0 0
3384 1 -0.2344413194147279 34.19426846784894 5.301362089767634 0 0 0
3385 1 -0.2343250889147299 36.68338278084896 5.301362089767634 0 0 0
3386 1 -1.995410881414731 35.43894986884895 6.545507113167634 0 0 0
3387 1 -1.995410881414731 35.43894986884895 4.057217066367635 0 0 0
3388 1 -0.2343250889147299 36.68338278084896 -7.140137412572366 0 0 1
3389 1 -0.2342476019147277 39.17249709384895 -7.140137412572366 0 0 1
3390 1 -1.995333394414729 37.92806418184894 6.545507113167634 0 0 0
3391 1 -1.99587580341473 27.97135844084896 -5.895987910232366 0 0 0
3392 1 -0.2348674979147312 29.21603984184894 -4.651842886832366 0 0 0
3393 1 -0.2346350369147281 31.70515415484896 -4.651842886832366 0 0 0
3394 1 -1.99568208591473 30.46047275384895 -3.407682933632366 0 0 0
3395 1 -1.99568208591473 30.46047275384895 -5.895987910232366 0 0 0
3396 1 -0.2346350369147281 31.70515415484896 -2.163537910232366 0 0 0
3397 1 -0.2344413194147279 34.19426846784894 -2.163537910232366 0 0 0
3398 1 -1.995527111914729 32.94983555584894 -0.919392886832366 0 0 0
3399 1 -1.995527111914729 32.94983555584894 -3.407682933632366 0 0 0
3400 1 -0.2344413194147279 34.19426846784894 0.3247670663676345 0 0 0
3401 1 -0.2343250889147299 36.68338278084896 0.3247670663676345 0 0 0
3402 1 -1.995410881414731 35.43894986884895 1.568912089767634 0 0 0
3403 1 -1.995410881414731 35.43894986884895 -0.919392886832366 0 0 0
3404 1 -0.2343250889147299 36.68338278084896 2.813057113167634 0 0 0
3405 1 -0.2342476019147277 39.17249709384895 2.813057113167634 0 0 0
3406 1 -1.995333394414729 37.92806418184894 4.057217066367635 0 0 0
3407 1 -1.995333394414729 37.92806418184894 1.568912089767634 0 0 0
3408 1 -0.2342476019147277 39.17249709384895 5.301362089767634 0 0 0
3409 1 -1.99529465091473 40.41693000584895 6.545507113167634 0 0 0
3410 1 -1.99529465091473 40.41693000584895 4.057217066367635 0 0 0
3411 1 -1.995527111914729 32.94983555584894 -5.895987910232366 0 0 0
3412 1 -0.2344413194147279 34.19426846784894 -4.651842886832366 0 0 0
3413 1 -0.2343250889147299 36.68338278084896 -4.651842886832366 0 0 0
3414 1 -1.995410881414731 35.43894986884895 -3.407682933632366 0 0 0
3415 1 -1.995410881414731 35.43894986884895 -5.895987910232366 0 0 0
3416 1 -0.2343250889147299 36.68338278084896 -2.163537910232366 0 0 0
3417 1 -0.2342476019147277 39.17249709384895 -2.163537910232366 0 0 0
3418 1 -1.995333394414729 37.92806418184894 -0.919392886832366 0 0 0
3419 1 -1.995333394414729 37.92806418184894 -3.407682933632366 0 0 0
3420 1 -0.2342476019147277 39.17249709384895 0.3247670663676345 0 0 0
3421 1 -1.99529465091473 40.41693000584895 1.568912089767634 0 0 0
3422 1 -1.99529465091473 40.41693000584895 -0.919392886832366 0 0 0
3423 1 -1.995333394414729 37.92806418184894 -5.895987910232366 0 0 0
3424 1 -0.2342476019147277 39.17249709384895 -4.651842886832366 0 0 0
3425 1 -1.99529465091473 40.41693000584895 -3.407682933632366 0 0 0
3426 1 -1.99529465091473 40.41693000584895 -5.895987910232366 0 0 0
3427 1 -3.75661290441473 29.21603984184894 -7.140140398532366 0 0 1
3428 1 -5.51750497941473 27.97135844084896 6.545507113167634 0 0 0
3429 1 -3.75661290441473 29.21603984184894 2.813057113167634 0 0 0
3430 1 -5.51750497941473 27.97135844084896 4.057217066367635 0 0 0
3431 1 -5.51750497941473 27.97135844084896 1.568912089767634 0 0 0
3432 1 -3.75661290441473 29.21603984184894 5.301362089767634 0 0 0
3433 1 -3.756496673914729 31.70515415484896 5.301362089767634 0 0 0
3434 1 -5.517427492414729 30.46072124284895 6.545507113167634 0 0 0
3435 1 -5.517427492414729 30.46072124284895 4.057217066367635 0 0 0
3436 1 -3.756496673914729 31.70515415484896 -7.140138905552366 0 0 1
3437 1 -3.756419186914728 34.19426846784894 -7.140137412572366 0 0 1
3438 1 -5.517427492414729 32.94983555584894 6.545507113167634 0 0 0
3439 1 -3.75661290441473 29.21603984184894 -2.163537910232366 0 0 0
3440 1 -5.51750497941473 27.97135844084896 -0.919392886832366 0 0 0
3441 1 -5.51750497941473 27.97135844084896 -3.407682933632366 0 0 0
3442 1 -3.75661290441473 29.21603984184894 0.3247670663676345 0 0 0
3443 1 -3.756496673914729 31.70515415484896 0.3247670663676345 0 0 0
3444 1 -5.517427492414729 30.46072124284895 1.568912089767634 0 0 0
3445 1 -5.517427492414729 30.46072124284895 -0.919392886832366 0 0 0
3446 1 -3.756496673914729 31.70515415484896 2.813057113167634 0 0 0
3447 1 -3.756419186914728 34.19426846784894 2.813057113167634 0 0 0
3448 1 -5.517427492414729 32.94983555584894 4.057217066367635 0 0 0
3449 1 -5.517427492414729 32.94983555584894 1.568912089767634 0 0 0
3450 1 -3.756419186914728 34.19426846784894 5.301362089767634 0 0 0
3451 1 -3.756380443414729 36.68338278084896 5.301362089767634 0 0 0
3452 1 -5.517388748914728 35.43894986884895 6.545507113167634 0 0 0
3453 1 -5.517388748914728 35.43894986884895 4.057217066367635 0 0 0
3454 1 -3.756380443414729 36.68338278084896 -7.140137412572366 0 0 1
3455 1 -3.756341699914728 39.17249709384895 -7.140135919592366 0 0 1
3456 1 -5.517388748914728 37.92806418184894 6.545507113167634 0 0 0
3457 1 -5.51750497941473 27.97135844084896 -5.895987910232366 0 0 0
3458 1 -3.75661290441473 29.21603984184894 -4.651842886832366 0 0 0
3459 1 -3.756496673914729 31.70515415484896 -4.651842886832366 0 0 0
3460 1 -5.517427492414729 30.46072124284895 -3.407682933632366 0 0 0
3461 1 -5.517427492414729 30.46072124284895 -5.895987910232366 0 0 0
3462 1 -3.756496673914729 31.70515415484896 -2.163537910232366 0 0 0
3463 1 -3.756419186914728 34.19426846784894 -2.163537910232366 0 0 0
3464 1 -5.517427492414729 32.94983555584894 -0.919392886832366 0 0 0
3465 1 -5.517427492414729 32.94983555584894 -3.407682933632366 0 0 0
3466 1 -3.756419186914728 34.19426846784894 0.3247670663676345 0 0 0
3467 1 -3.756380443414729 36.68338278084896 0.3247670663676345 0 0 0
3468 1 -5.517388748914728 35.43894986884895 1.568912089767634 0 0 0
3469 1 -5.517388748914728 35.43894986884895 -0.919392886832366 0 0 0
3470 1 -3.756380443414729 36.68338278084896 2.813057113167634 0 0 0
3471 1 -3.756341699914728 39.17249709384895 2.813057113167634 0 0 0
3472 1 -5.517388748914728 37.92806418184894 4.057217066367635 0 0 0
3473 1 -5.517388748914728 37.92806418184894 1.568912089767634 0 0 0
3474 1 -3.756341699914728 39.17249709384895 5.301362089767634 0 0 0
3475 1 -5.517388748914728 40.41717849484895 6.545507113167634 0 0 0
3476 1 -5.517388748914728 40.41717849484895 4.057217066367635 0 0 0
3477 1 -5.517427492414729 32.94983555584894 -5.895987910232366 0 0 0
3478 1 -3.756419186914728 34.19426846784894 -4.651842886832366 0 0 0
3479 1 -3.756380443414729 36.68338278084896 -4.651842886832366 0 0 0
3480 1 -5.517388748914728 35.43894986884895 -3.407682933632366 0 0 0
3481 1 -5.517388748914728 35.43894986884895 -5.895987910232366 0 0 0
3482 1 -3.756380443414729 36.68338278084896 -2.163537910232366 0 0 0
3483 1 -3.756341699914728 39.17249709384895 -2.163537910232366 0 0 0
3484 1 -5.517388748914728 37.92806418184894 -0.919392886832366 0 0 0
3485 1 -5.517388748914728 37.92806418184894 -3.407682933632366 0 0 0
3486 1 -3.756341699914728 39.17249709384895 0.3247670663676345 0 0 0
3487 1 -5.517388748914728 40.41717849484895 1.568912089767634 0 0 0
3488 1 -5.517388748914728 40.41717849484895 -0.919392886832366 0 0 0
3489 1 -5.517388748914728 37.92806418184894 -5.895987910232366 0 0 0
3490 1 -3.756341699914728 39.17249709384895 -4.651842886832366 0 0 0
3491 1 -5.517388748914728 40.41717849484895 -3.407682933632366 0 0 0
3492 1 -5.517388748914728 40.41717849484895 -5.895987910232366 0 0 0
3493 1 -7.278319567414728 29.21603984184894 -7.140135919592366 0 0 1
3494 1 -9.03909541191473 27.97160692984893 6.545522042967635 0 0 0
3495 1 -7.278319567414728 29.21603984184894 2.813057113167634 0 0 0
3496 1 -9.03909541191473 27.97160692984893 4.057217066367635 0 0 0
3497 1 -9.03909541191473 27.97160692984893 1.568912089767634 0 0 0
3498 1 -7.278319567414728 29.21603984184894 5.301362089767634 0 0 0
3499 1 -7.278358310914729 31.70515415484896 5.301362089767634 0 0 0
3500 1 -9.039211642414729 30.46072124284895 6.545522042967635 0 0 0
3501 1 -9.039211642414729 30.46072124284895 4.057217066367635 0 0 0
3502 1 -7.278358310914729 31.70515415484896 -7.140135919592366 0 0 1
3503 1 -7.278397054414729 34.19451695684894 -7.140135919592366 0 0 1
3504 1 -9.039327872914729 32.94983555584894 6.545507113167634 0 0 0
3505 1 -7.278319567414728 29.21603984184894 -2.163537910232366 0 0 0
3506 1 -9.03909541191473 27.97160692984893 -0.9193779570323652 0 0 0
3507 1 -9.03909541191473 27.97160692984893 -3.407682933632366 0 0 0
3508 1 -7.278319567414728 29.21603984184894 0.3247670663676345 0 0 0
3509 1 -7.278358310914729 31.70515415484896 0.3247670663676345 0 0 0
3510 1 -9.039211642414729 30.46072124284895 1.568912089767634 0 0 0
3511 1 -9.039211642414729 30.46072124284895 -0.9193779570323652 0 0 0
3512 1 -7.278358310914729 31.70515415484896 2.813057113167634 0 0 0
3513 1 -7.278397054414729 34.19451695684894 2.813057113167634 0 0 0
3514 1 -9.039327872914729 32.94983555584894 4.057217066367635 0 0 0
3515 1 -9.039327872914729 32.94983555584894 1.568912089767634 0 0 0
3516 1 -7.278397054414729 34.19451695684894 5.301362089767634 0 0 0
3517 1 -7.278397054414729 36.68338278084896 5.301362089767634 0 0 0
3518 1 -9.039405359914729 35.43894986884895 6.545507113167634 0 0 0
3519 1 -9.039405359914729 35.43894986884895 4.057217066367635 0 0 0
3520 1 -7.278397054414729 36.68338278084896 -7.140135919592366 0 0 1
3521 1 -7.278435797914728 39.17249709384895 -7.140135919592366 0 0 1
3522 1 -9.03948284691473 37.92806418184894 6.545507113167634 0 0 0
3523 1 -9.03909541191473 27.97160692984893 -5.895987910232366 0 0 0
3524 1 -7.278319567414728 29.21603984184894 -4.651842886832366 0 0 0
3525 1 -7.278358310914729 31.70515415484896 -4.651842886832366 0 0 0
3526 1 -9.039211642414729 30.46072124284895 -3.407682933632366 0 0 0
3527 1 -9.039211642414729 30.46072124284895 -5.895987910232366 0 0 0
3528 1 -7.278358310914729 31.70515415484896 -2.163537910232366 0 0 0
3529 1 -7.278397054414729 34.19451695684894 -2.163537910232366 0 0 0
3530 1 -9.039327872914729 32.94983555584894 -0.919392886832366 0 0 0
3531 1 -9.039327872914729 32.94983555584894 -3.407682933632366 0 0 0
3532 1 -7.278397054414729 34.19451695684894 0.3247670663676345 0 0 0
3533 1 -7.278397054414729 36.68338278084896 0.3247670663676345 0 0 0
3534 1 -9.039405359914729 35.43894986884895 1.568912089767634 0 0 0
3535 1 -9.039405359914729 35.43894986884895 -0.919392886832366 0 0 0
3536 1 -7.278397054414729 36.68338278084896 2.813057113167634 0 0 0
3537 1 -7.278435797914728 39.17249709384895 2.813057113167634 0 0 0
3538 1 -9.03948284691473 37.92806418184894 4.057217066367635 0 0 0
3539 1 -9.03948284691473 37.92806418184894 1.568912089767634 0 0 0
3540 1 -7.278435797914728 39.17249709384895 5.301362089767634 0 0 0
3541 1 -9.039521590414729 40.41717849484895 6.545507113167634 0 0 0
3542 1 -9.039521590414729 40.41717849484895 4.057217066367635 0 0 0
3543 1 -9.039327872914729 32.94983555584894 -5.895987910232366 0 0 0
3544 1 -7.278397054414729 34.19451695684894 -4.651842886832366 0 0 0
3545 1 -7.278397054414729 36.68338278084896 -4.651842886832366 0 0 0
3546 1 -9.039405359914729 35.43894986884895 -3.407682933632366 0 0 0
3547 1 -9.039405359914729 35.43894986884895 -5.895987910232366 0 0 0
3548 1 -7.278397054414729 36.68338278084896 -2.163537910232366 0 0 0
3549 1 -7.278435797914728 39.17249709384895 -2.163537910232366 0 0 0
3550 1 -9.03948284691473 37.92806418184894 -0.919392886832366 0 0 0
3551 1 -9.03948284691473 37.92806418184894 -3.407682933632366 0 0 0
3552 1 -7.278435797914728 39.17249709384895 0.3247670663676345 0 0 0
3553 1 -9.039521590414729 40.41717849484895 1.568912089767634 0 0 0
3554 1 -9.039521590414729 40.41717849484895 -0.919392886832366 0 0 0
3555 1 -9.03948284691473 37.92806418184894 -5.895987910232366 0 0 0
3556 1 -7.278435797914728 39.17249709384895 -4.651842886832366 0 0 0
3557 1 -9.039521590414729 40.41717849484895 -3.407682933632366 0 0 0
3558 1 -9.039521590414729 40.41717849484895 -5.895987910232366 0 0 0
3559 1 -10.80006497391473 29.21628833084894 -7.140132933632366 0 0 1
3560 1 -12.56087956191473 27.97160692984893 6.545522042967635 0 0 0
3561 1 -10.80006497391473 29.21628833084894 2.813072042967635 0 0 0
3562 1 -12.56087956191473 27.97160692984893 4.057217066367635 0 0 0
3563 1 -12.56087956191473 27.97160692984893 1.568927019567635 0 0 0
3564 1 -10.80006497391473 29.21628833084894 5.301362089767634 0 0 0
3565 1 -10.80025869141473 31.70540264384896 5.301362089767634 0 0 0
3566 1 -12.56115076641473 30.46072124284895 6.545522042967635 0 0 0
3567 1 -12.56115076641473 30.46072124284895 4.057217066367635 0 0 0
3568 1 -10.80025869141473 31.70540264384896 -7.140134426612366 0 0 1
3569 1 -10.80037492191473 34.19451695684894 -7.140135919592366 0 0 1
3570 1 -12.56134448391473 32.94983555584894 6.545522042967635 0 0 0
3571 1 -10.80006497391473 29.21628833084894 -2.163537910232366 0 0 0
3572 1 -12.56087956191473 27.97160692984893 -0.9193779570323652 0 0 0
3573 1 -12.56087956191473 27.97160692984893 -3.407682933632366 0 0 0
3574 1 -10.80006497391473 29.21628833084894 0.3247670663676345 0 0 0
3575 1 -10.80025869141473 31.70540264384896 0.3247670663676345 0 0 0
3576 1 -12.56115076641473 30.46072124284895 1.568912089767634 0 0 0
3577 1 -12.56115076641473 30.46072124284895 -0.9193779570323652 0 0 0
3578 1 -10.80025869141473 31.70540264384896 2.813072042967635 0 0 0
3579 1 -10.80037492191473 34.19451695684894 2.813057113167634 0 0 0
3580 1 -12.56134448391473 32.94983555584894 4.057217066367635 0 0 0
3581 1 -12.56134448391473 32.94983555584894 1.568912089767634 0 0 0
3582 1 -10.80037492191473 34.19451695684894 5.301362089767634 0 0 0
3583 1 -10.80049115241473 36.68338278084896 5.301362089767634 0 0 0
3584 1 -12.56146071441473 35.43894986884895 6.545507113167634 0 0 0
3585 1 -12.56146071441473 35.43894986884895 4.057217066367635 0 0 0
3586 1 -10.80049115241473 36.68338278084896 -7.140135919592366 0 0 1
3587 1 -10.80056863941473 39.17249709384895 -7.140135919592366 0 0 1
3588 1 -12.56157694491473 37.92806418184894 6.545507113167634 0 0 0
3589 1 -12.56087956191473 27.97160692984893 -5.895972980432366 0 0 0
3590 1 -10.80006497391473 29.21628833084894 -4.651827957032365 0 0 0
3591 1 -10.80025869141473 31.70540264384896 -4.651827957032365 0 0 0
3592 1 -12.56115076641473 30.46072124284895 -3.407682933632366 0 0 0
3593 1 -12.56115076641473 30.46072124284895 -5.895987910232366 0 0 0
3594 1 -10.80025869141473 31.70540264384896 -2.163537910232366 0 0 0
3595 1 -10.80037492191473 34.19451695684894 -2.163537910232366 0 0 0
3596 1 -12.56134448391473 32.94983555584894 -0.9193779570323652 0 0 0
3597 1 -12.56134448391473 32.94983555584894 -3.407682933632366 0 0 0
3598 1 -10.80037492191473 34.19451695684894 0.3247670663676345 0 0 0
3599 1 -10.80049115241473 36.68338278084896 0.3247670663676345 0 0 0
3600 1 -12.56146071441473 35.43894986884895 1.568912089767634 0 0 0
3601 1 -12.56146071441473 35.43894986884895 -0.919392886832366 0 0 0
3602 1 -10.80049115241473 36.68338278084896 2.813057113167634 0 0 0
3603 1 -10.80056863941473 39.17249709384895 2.813057113167634 0 0 0
3604 1 -12.56157694491473 37.92806418184894 4.057217066367635 0 0 0
3605 1 -12.56157694491473 37.92806418184894 1.568912089767634 0 0 0
3606 1 -10.80056863941473 39.17249709384895 5.301362089767634 0 0 0
3607 1 -12.56165443191473 40.41693000584895 6.545507113167634 0 0 0
3608 1 -12.56165443191473 40.41693000584895 4.057217066367635 0 0 0
3609 1 -12.56134448391473 32.94983555584894 -5.895987910232366 0 0 0
3610 1 -10.80037492191473 34.19451695684894 -4.651842886832366 0 0 0
3611 1 -10.80049115241473 36.68338278084896 -4.651842886832366 0 0 0
3612 1 -12.56146071441473 35.43894986884895 -3.407682933632366 0 0 0
3613 1 -12.56146071441473 35.43894986884895 -5.895987910232366 0 0 0
3614 1 -10.80049115241473 36.68338278084896 -2.163537910232366 0 0 0
3615 1 -10.80056863941473 39.17249709384895 -2.163537910232366 0 0 0
3616 1 -12.56157694491473 37.92806418184894 -0.919392886832366 0 0 0
3617 1 -12.56157694491473 37.92806418184894 -3.407682933632366 0 0 0
3618 1 -10.80056863941473 39.17249709384895 0.3247670663676345 0 0 0
3619 1 -12.56165443191473 40.41693000584895 1.568912089767634 0 0 0
3620 1 -12.56165443191473 40.41693000584895 -0.919392886832366 0 0 0
3621 1 -12.56157694491473 37.92806418184894 -5.895987910232366 0 0 0
3622 1 -10.80056863941473 39.17249709384895 -4.651842886832366 0 0 0
3623 1 -12.56165443191473 40.41693000584895 -3.407682933632366 0 0 0
3624 1 -12.56165443191473 40.41693000584895 -5.895987910232366 0 0 0
3625 1 -14.32204284141473 29.21628833084894 -7.140129947672365 0 0 1
3626 1 -14.32204284141473 29.21628833084894 2.813072042967635 0 0 0
3627 1 -14.32204284141473 29.21628833084894 5.301377019567635 0 0 0
3628 1 -14.32227530241473 31.70540264384896 5.301362089767634 0 0 0
3629 1 -14.32227530241473 31.70540264384896 -7.140132933632366 0 0 1
3630 1 -14.32246901991473 34.19426846784894 -7.140134426612366 0 0 1
3631 1 -14.32204284141473 29.21628833084894 -2.163522980432366 0 0 0
3632 1 -14.32204284141473 29.21628833084894 0.3247670663676345 0 0 0
3633 1 -14.32227530241473 31.70540264384896 0.3247670663676345 0 0 0
3634 1 -14.32227530241473 31.70540264384896 2.813072042967635 0 0 0
3635 1 -14.32246901991473 34.19426846784894 2.813072042967635 0 0 0
3636 1 -14.32246901991473 34.19426846784894 5.301362089767634 0 0 0
3637 1 -14.32258525041473 36.68338278084896 5.301362089767634 0 0 0
3638 1 -14.32258525041473 36.68338278084896 -7.140135919592366 0 0 1
3639 1 -14.32270148091473 39.17249709384895 -7.140135919592366 0 0 1
3640 1 -14.32204284141473 29.21628833084894 -4.651827957032365 0 0 0
3641 1 -14.32227530241473 31.70540264384896 -4.651827957032365 0 0 0
3642 1 -14.32227530241473 31.70540264384896 -2.163537910232366 0 0 0
3643 1 -14.32246901991473 34.19426846784894 -2.163537910232366 0 0 0
3644 1 -14.32246901991473 34.19426846784894 0.3247670663676345 0 0 0
3645 1 -14.32258525041473 36.68338278084896 0.3247670663676345 0 0 0
3646 1 -14.32258525041473 36.68338278084896 2.813057113167634 0 0 0
3647 1 -14.32270148091473 39.17249709384895 2.813057113167634 0 0 0
3648 1 -14.32270148091473 39.17249709384895 5.301362089767634 0 0 0
3649 1 -14.32246901991473 34.19426846784894 -4.651827957032365 0 0 0
3650 1 -14.32258525041473 36.68338278084896 -4.651842886832366 0 0 0
3651 1 -14.32258525041473 36.68338278084896 -2.163537910232366 0 0 0
3652 1 -14.32270148091473 39.17249709384895 -2.163537910232366 0 0 0
3653 1 -14.32270148091473 39.17249709384895 0.3247670663676345 0 0 0
3654 1 -14.32270148091473 39.17249709384895 -4.651842886832366 0 0 0
3655 1 1.526876934085269 42.90604431884897 6.545507113167634 0 0 0
3656 1 1.526876934085269 42.90604431884897 4.057217066367635 0 0 0
3657 1 1.526876934085269 42.90604431884897 1.568912089767634 0 0 0
3658 1 1.526915677585269 45.39515863184896 6.545507113167634 0 0 0
3659 1 1.526915677585269 45.39515863184896 4.057217066367635 0 0 0
3660 1 1.526915677585269 47.88402445584894 6.545507113167634 0 0 0
3661 1 1.526876934085269 42.90604431884897 -0.919392886832366 0 0 0
3662 1 1.526876934085269 42.90604431884897 -3.407682933632366 0 0 0
3663 1 1.526915677585269 45.39515863184896 1.568912089767634 0 0 0
3664 1 1.526915677585269 45.39515863184896 -0.919392886832366 0 0 0
3665 1 1.526915677585269 47.88402445584894 4.057217066367635 0 0 0
3666 1 1.526915677585269 47.88402445584894 1.568912089767634 0 0 0
3667 1 1.526915677585269 50.37313876884896 6.545507113167634 0 0 0
3668 1 1.526915677585269 50.37313876884896 4.057217066367635 0 0 0
3669 1 1.526915677585269 52.86225308184895 6.545507113167634 0 0 0
3670 1 1.526876934085269 42.90604431884897 -5.895987910232366 0 0 0
3671 1 1.526915677585269 45.39515863184896 -3.407682933632366 0 0 0
3672 1 1.526915677585269 45.39515863184896 -5.895987910232366 0 0 0
3673 1 1.526915677585269 47.88402445584894 -0.919392886832366 0 0 0
3674 1 1.526915677585269 47.88402445584894 -3.407682933632366 0 0 0
3675 1 1.526915677585269 50.37313876884896 1.568912089767634 0 0 0
3676 1 1.526915677585269 50.37313876884896 -0.919392886832366 0 0 0
3677 1 1.526915677585269 52.86225308184895 4.057217066367635 0 0 0
3678 1 1.526915677585269 52.86225308184895 1.568912089767634 0 0 0
3679 1 1.526915677585269 47.88402445584894 -5.895987910232366 0 0 0
3680 1 1.526915677585269 50.37313876884896 -3.407682933632366 0 0 0
3681 1 1.526915677585269 50.37313876884896 -5.895987910232366 0 0 0
3682 1 1.526915677585269 52.86225308184895 -0.919392886832366 0 0 0
3683 1 1.526915677585269 52.86225308184895 -3.407682933632366 0 0 0
3684 1 1.526915677585269 52.86225308184895 -5.895987910232366 0 0 0
3685 1 -0.2342088584147319 41.66161140684896 5.301362089767634 0 0 0
3686 1 -0.2342088584147319 41.66161140684896 -7.140135919592366 0 0 1
3687 1 -0.2341701149147291 44.15047723084895 -7.140135919592366 0 0 1
3688 1 -1.99525590741473 42.90604431884897 6.545507113167634 0 0 0
3689 1 -0.2342088584147319 41.66161140684896 0.3247670663676345 0 0 0
3690 1 -0.2342088584147319 41.66161140684896 2.813057113167634 0 0 0
3691 1 -0.2341701149147291 44.15047723084895 2.813057113167634 0 0 0
3692 1 -1.99525590741473 42.90604431884897 4.057217066367635 0 0 0
3693 1 -1.99525590741473 42.90604431884897 1.568912089767634 0 0 0
3694 1 -0.2341701149147291 44.15047723084895 5.301362089767634 0 0 0
3695 1 -0.2341701149147291 46.63959154384894 5.301362089767634 0 0 0
3696 1 -1.99525590741473 45.39515863184896 6.545507113167634 0 0 0
3697 1 -1.99525590741473 45.39515863184896 4.057217066367635 0 0 0
3698 1 -0.2341701149147291 46.63959154384894 -7.140135919592366 0 0 1
3699 1 -0.2341701149147291 49.12870585684895 -7.140135919592366 0 0 1
3700 1 -1.995217163914727 47.88427294484895 6.545507113167634 0 0 0
3701 1 -0.2342088584147319 41.66161140684896 -4.651842886832366 0 0 0
3702 1 -0.2342088584147319 41.66161140684896 -2.163537910232366 0 0 0
3703 1 -0.2341701149147291 44.15047723084895 -2.163537910232366 0 0 0
3704 1 -1.99525590741473 42.90604431884897 -0.919392886832366 0 0 0
3705 1 -1.99525590741473 42.90604431884897 -3.407682933632366 0 0 0
3706 1 -0.2341701149147291 44.15047723084895 0.3247670663676345 0 0 0
3707 1 -0.2341701149147291 46.63959154384894 0.3247670663676345 0 0 0
3708 1 -1.99525590741473 45.39515863184896 1.568912089767634 0 0 0
3709 1 -1.99525590741473 45.39515863184896 -0.919392886832366 0 0 0
3710 1 -0.2341701149147291 46.63959154384894 2.813057113167634 0 0 0
3711 1 -0.2341701149147291 49.12870585684895 2.813057113167634 0 0 0
3712 1 -1.995217163914727 47.88427294484895 4.057217066367635 0 0 0
3713 1 -1.995217163914727 47.88427294484895 1.568912089767634 0 0 0
3714 1 -0.2341701149147291 49.12870585684895 5.301362089767634 0 0 0
3715 1 -0.2341701149147291 51.61782016984894 5.301362089767634 0 0 0
3716 1 -1.995217163914727 50.37313876884896 6.545507113167634 0 0 0
3717 1 -1.995217163914727 50.37313876884896 4.057217066367635 0 0 0
3718 1 -0.2341701149147291 51.61782016984894 -7.140135919592366 0 0 1
3719 1 -0.2341701149147291 54.10668599384896 -7.140135919592366 0 0 1
3720 1 -1.995217163914727 52.86225308184895 6.545507113167634 0 0 0
3721 1 -1.99525590741473 42.90604431884897 -5.895987910232366 0 0 0
3722 1 -0.2341701149147291 44.15047723084895 -4.651842886832366 0 0 0
3723 1 -0.2341701149147291 46.63959154384894 -4.651842886832366 0 0 0
3724 1 -1.99525590741473 45.39515863184896 -3.407682933632366 0 0 0
3725 1 -1.99525590741473 45.39515863184896 -5.895987910232366 0 0 0
3726 1 -0.2341701149147291 46.63959154384894 -2.163537910232366 0 0 0
3727 1 -0.2341701149147291 49.12870585684895 -2.163537910232366 0 0 0
3728 1 -1.995217163914727 47.88427294484895 -0.919392886832366 0 0 0
3729 1 -1.995217163914727 47.88427294484895 -3.407682933632366 0 0 0
3730 1 -0.2341701149147291 49.12870585684895 0.3247670663676345 0 0 0
3731 1 -0.2341701149147291 51.61782016984894 0.3247670663676345 0 0 0
3732 1 -1.995217163914727 50.37313876884896 1.568912089767634 0 0 0
3733 1 -1.995217163914727 50.37313876884896 -0.919392886832366 0 0 0
3734 1 -0.2341701149147291 51.61782016984894 2.813057113167634 0 0 0
3735 1 -0.2341701149147291 54.10668599384896 2.813057113167634 0 0 0
3736 1 -1.995217163914727 52.86225308184895 4.057217066367635 0 0 0
3737 1 -1.995217163914727 52.86225308184895 1.568912089767634 0 0 0
3738 1 -0.2341701149147291 54.10668599384896 5.301362089767634 0 0 0
3739 1 -1.995217163914727 47.88427294484895 -5.895987910232366 0 0 0
3740 1 -0.2341701149147291 49.12870585684895 -4.651842886832366 0 0 0
3741 1 -0.2341701149147291 51.61782016984894 -4.651842886832366 0 0 0
3742 1 -1.995217163914727 50.37313876884896 -3.407682933632366 0 0 0
3743 1 -1.995217163914727 50.37313876884896 -5.895987910232366 0 0 0
3744 1 -0.2341701149147291 51.61782016984894 -2.163537910232366 0 0 0
3745 1 -0.2341701149147291 54.10668599384896 -2.163537910232366 0 0 0
3746 1 -1.995217163914727 52.86225308184895 -0.919392886832366 0 0 0
3747 1 -1.995217163914727 52.86225308184895 -3.407682933632366 0 0 0
3748 1 -0.2341701149147291 54.10668599384896 0.3247670663676345 0 0 0
3749 1 -1.995217163914727 52.86225308184895 -5.895987910232366 0 0 0
3750 1 -0.2341701149147291 54.10668599384896 -4.651842886832366 0 0 0
3751 1 -3.756341699914728 41.66161140684896 5.301362089767634 0 0 0
3752 1 -3.756341699914728 41.66161140684896 -7.140135919592366 0 0 1
3753 1 -3.75630295641473 44.15072571984895 -7.140135919592366 0 0 1
3754 1 -5.517388748914728 42.90604431884897 6.545507113167634 0 0 0
3755 1 -3.756341699914728 41.66161140684896 0.3247670663676345 0 0 0
3756 1 -3.756341699914728 41.66161140684896 2.813057113167634 0 0 0
3757 1 -3.75630295641473 44.15072571984895 2.813057113167634 0 0 0
3758 1 -5.517388748914728 42.90604431884897 4.057217066367635 0 0 0
3759 1 -5.517388748914728 42.90604431884897 1.568912089767634 0 0 0
3760 1 -3.75630295641473 44.15072571984895 5.301362089767634 0 0 0
3761 1 -3.75630295641473 46.63959154384894 5.301362089767634 0 0 0
3762 1 -5.517388748914728 45.39515863184896 6.545507113167634 0 0 0
3763 1 -5.517388748914728 45.39515863184896 4.057217066367635 0 0 0
3764 1 -3.75630295641473 46.63959154384894 -7.140135919592366 0 0 1
3765 1 -3.75630295641473 49.12870585684895 -7.140135919592366 0 0 1
3766 1 -5.517388748914728 47.88427294484895 6.545507113167634 0 0 0
3767 1 -3.756341699914728 41.66161140684896 -4.651842886832366 0 0 0
3768 1 -3.756341699914728 41.66161140684896 -2.163537910232366 0 0 0
3769 1 -3.75630295641473 44.15072571984895 -2.163537910232366 0 0 0
3770 1 -5.517388748914728 42.90604431884897 -0.919392886832366 0 0 0
3771 1 -5.517388748914728 42.90604431884897 -3.407682933632366 0 0 0
3772 1 -3.75630295641473 44.15072571984895 0.3247670663676345 0 0 0
3773 1 -3.75630295641473 46.63959154384894 0.3247670663676345 0 0 0
3774 1 -5.517388748914728 45.39515863184896 1.568912089767634 0 0 0
3775 1 -5.517388748914728 45.39515863184896 -0.919392886832366 0 0 0
3776 1 -3.75630295641473 46.63959154384894 2.813057113167634 0 0 0
3777 1 -3.75630295641473 49.12870585684895 2.813057113167634 0 0 0
3778 1 -5.517388748914728 47.88427294484895 4.057217066367635 0 0 0
3779 1 -5.517388748914728 47.88427294484895 1.568912089767634 0 0 0
3780 1 -3.75630295641473 49.12870585684895 5.301362089767634 0 0 0
3781 1 -3.75630295641473 51.61782016984894 5.301362089767634 0 0 0
3782 1 -5.517388748914728 50.37313876884896 6.545507113167634 0 0 0
3783 1 -5.517388748914728 50.37313876884896 4.057217066367635 0 0 0
3784 1 -3.75630295641473 51.61782016984894 -7.140135919592366 0 0 1
3785 1 -3.75630295641473 54.10693448284896 -7.140135919592366 0 0 1
3786 1 -5.517388748914728 52.86225308184895 6.545507113167634 0 0 0
3787 1 -5.517388748914728 42.90604431884897 -5.895987910232366 0 0 0
3788 1 -3.75630295641473 44.15072571984895 -4.651842886832366 0 0 0
3789 1 -3.75630295641473 46.63959154384894 -4.651842886832366 0 0 0
3790 1 -5.517388748914728 45.39515863184896 -3.407682933632366 0 0 0
3791 1 -5.517388748914728 45.39515863184896 -5.895987910232366 0 0 0
3792 1 -3.75630295641473 46.63959154384894 -2.163537910232366 0 0 0
3793 1 -3.75630295641473 49.12870585684895 -2.163537910232366 0 0 0
3794 1 -5.517388748914728 47.88427294484895 -0.919392886832366 0 0 0
3795 1 -5.517388748914728 47.88427294484895 -3.407682933632366 0 0 0
3796 1 -3.75630295641473 49.12870585684895 0.3247670663676345 0 0 0
3797 1 -3.75630295641473 51.61782016984894 0.3247670663676345 0 0 0
3798 1 -5.517388748914728 50.37313876884896 1.568912089767634 0 0 0
3799 1 -5.517388748914728 50.37313876884896 -0.919392886832366 0 0 0
3800 1 -3.75630295641473 51.61782016984894 2.813057113167634 0 0 0
3801 1 -3.75630295641473 54.10693448284896 2.813057113167634 0 0 0
3802 1 -5.517388748914728 52.86225308184895 4.057217066367635 0 0 0
3803 1 -5.517388748914728 52.86225308184895 1.568912089767634 0 0 0
3804 1 -3.75630295641473 54.10693448284896 5.301362089767634 0 0 0
3805 1 -5.517388748914728 47.88427294484895 -5.895987910232366 0 0 0
3806 1 -3.75630295641473 49.12870585684895 -4.651842886832366 0 0 0
3807 1 -3.75630295641473 51.61782016984894 -4.651842886832366 0 0 0
3808 1 -5.517388748914728 50.37313876884896 -3.407682933632366 0 0 0
3809 1 -5.517388748914728 50.37313876884896 -5.895987910232366 0 0 0
3810 1 -3.75630295641473 51.61782016984894 -2.163537910232366 0 0 0
3811 1 -3.75630295641473 54.10693448284896 -2.163537910232366 0 0 0
3812 1 -5.517388748914728 52.86225308184895 -0.919392886832366 0 0 0
3813 1 -5.517388748914728 52.86225308184895 -3.407682933632366 0 0 0
3814 1 -3.75630295641473 54.10693448284896 0.3247670663676345 0 0 0
3815 1 -5.517388748914728 52.86225308184895 -5.895987910232366 0 0 0
3816 1 -3.75630295641473 54.10693448284896 -4.651842886832366 0 0 0
3817 1 -7.278435797914728 41.66161140684896 5.301362089767634 0 0 0
3818 1 -7.278435797914728 41.66161140684896 -7.140135919592366 0 0 1
3819 1 -7.278474541414729 44.15072571984895 -7.140135919592366 0 0 1
3820 1 -9.039521590414729 42.90604431884897 6.545507113167634 0 0 0
3821 1 -7.278435797914728 41.66161140684896 0.3247670663676345 0 0 0
3822 1 -7.278435797914728 41.66161140684896 2.813057113167634 0 0 0
3823 1 -7.278474541414729 44.15072571984895 2.813057113167634 0 0 0
3824 1 -9.039521590414729 42.90604431884897 4.057217066367635 0 0 0
3825 1 -9.039521590414729 42.90604431884897 1.568912089767634 0 0 0
3826 1 -7.278474541414729 44.15072571984895 5.301362089767634 0 0 0
3827 1 -7.278474541414729 46.63959154384894 5.301362089767634 0 0 0
3828 1 -9.03956033391473 45.39515863184896 6.545507113167634 0 0 0
3829 1 -9.03956033391473 45.39515863184896 4.057217066367635 0 0 0
3830 1 -7.278474541414729 46.63959154384894 -7.140135919592366 0 0 1
3831 1 -7.278474541414729 49.12870585684895 -7.140135919592366 0 0 1
3832 1 -9.03956033391473 47.88427294484895 6.545507113167634 0 0 0
3833 1 -7.278435797914728 41.66161140684896 -4.651842886832366 0 0 0
3834 1 -7.278435797914728 41.66161140684896 -2.163537910232366 0 0 0
3835 1 -7.278474541414729 44.15072571984895 -2.163537910232366 0 0 0
3836 1 -9.039521590414729 42.90604431884897 -0.919392886832366 0 0 0
3837 1 -9.039521590414729 42.90604431884897 -3.407682933632366 0 0 0
3838 1 -7.278474541414729 44.15072571984895 0.3247670663676345 0 0 0
3839 1 -7.278474541414729 46.63959154384894 0.3247670663676345 0 0 0
3840 1 -9.03956033391473 45.39515863184896 1.568912089767634 0 0 0
3841 1 -9.03956033391473 45.39515863184896 -0.919392886832366 0 0 0
3842 1 -7.278474541414729 46.63959154384894 2.813057113167634 0 0 0
3843 1 -7.278474541414729 49.12870585684895 2.813057113167634 0 0 0
3844 1 -9.03956033391473 47.88427294484895 4.057217066367635 0 0 0
3845 1 -9.03956033391473 47.88427294484895 1.568912089767634 0 0 0
3846 1 -7.278474541414729 49.12870585684895 5.301362089767634 0 0 0
3847 1 -7.278474541414729 51.61782016984894 5.301362089767634 0 0 0
3848 1 -9.03956033391473 50.37313876884896 6.545507113167634 0 0 0
3849 1 -9.03956033391473 50.37313876884896 4.057217066367635 0 0 0
3850 1 -7.278474541414729 51.61782016984894 -7.140135919592366 0 0 1
3851 1 -7.278474541414729 54.10693448284896 -7.140135919592366 0 0 1
3852 1 -9.03956033391473 52.86225308184895 6.545507113167634 0 0 0
3853 1 -9.039521590414729 42.90604431884897 -5.895987910232366 0 0 0
3854 1 -7.278474541414729 44.15072571984895 -4.651842886832366 0 0 0
3855 1 -7.278474541414729 46.63959154384894 -4.651842886832366 0 0 0
3856 1 -9.03956033391473 45.39515863184896 -3.407682933632366 0 0 0
3857 1 -9.03956033391473 45.39515863184896 -5.895987910232366 0 0 0
3858 1 -7.278474541414729 46.63959154384894 -2.163537910232366 0 0 0
3859 1 -7.278474541414729 49.12870585684895 -2.163537910232366 0 0 0
3860 1 -9.03956033391473 47.88427294484895 -0.919392886832366 0 0 0
3861 1 -9.03956033391473 47.88427294484895 -3.407682933632366 0 0 0
3862 1 -7.278474541414729 49.12870585684895 0.3247670663676345 0 0 0
3863 1 -7.278474541414729 51.61782016984894 0.3247670663676345 0 0 0
3864 1 -9.03956033391473 50.37313876884896 1.568912089767634 0 0 0
3865 1 -9.03956033391473 50.37313876884896 -0.919392886832366 0 0 0
3866 1 -7.278474541414729 51.61782016984894 2.813057113167634 0 0 0
3867 1 -7.278474541414729 54.10693448284896 2.813057113167634 0 0 0
3868 1 -9.03956033391473 52.86225308184895 4.057217066367635 0 0 0
3869 1 -9.03956033391473 52.86225308184895 1.568912089767634 0 0 0
3870 1 -7.278474541414729 54.10693448284896 5.301362089767634 0 0 0
3871 1 -9.03956033391473 47.88427294484895 -5.895987910232366 0 0 0
3872 1 -7.278474541414729 49.12870585684895 -4.651842886832366 0 0 0
3873 1 -7.278474541414729 51.61782016984894 -4.651842886832366 0 0 0
3874 1 -9.03956033391473 50.37313876884896 -3.407682933632366 0 0 0
3875 1 -9.03956033391473 50.37313876884896 -5.895987910232366 0 0 0
3876 1 -7.278474541414729 51.61782016984894 -2.163537910232366 0 0 0
3877 1 -7.278474541414729 54.10693448284896 -2.163537910232366 0 0 0
3878 1 -9.03956033391473 52.86225308184895 -0.919392886832366 0 0 0
3879 1 -9.03956033391473 52.86225308184895 -3.407682933632366 0 0 0
3880 1 -7.278474541414729 54.10693448284896 0.3247670663676345 0 0 0
3881 1 -9.03956033391473 52.86225308184895 -5.895987910232366 0 0 0
3882 1 -7.278474541414729 54.10693448284896 -4.651842886832366 0 0 0
3883 1 -10.80060738291473 41.66161140684896 5.301362089767634 0 0 0
3884 1 -10.80060738291473 41.66161140684896 -7.140135919592366 0 0 1
3885 1 -10.80060738291473 44.15072571984895 -7.140135919592366 0 0 1
3886 1 -12.56169317541473 42.90604431884897 6.545507113167634 0 0 0
3887 1 -10.80060738291473 41.66161140684896 0.3247670663676345 0 0 0
3888 1 -10.80060738291473 41.66161140684896 2.813057113167634 0 0 0
3889 1 -10.80060738291473 44.15072571984895 2.813057113167634 0 0 0
3890 1 -12.56169317541473 42.90604431884897 4.057217066367635 0 0 0
3891 1 -12.56169317541473 42.90604431884897 1.568912089767634 0 0 0
3892 1 -10.80060738291473 44.15072571984895 5.301362089767634 0 0 0
3893 1 -10.80064612641473 46.63959154384894 5.301362089767634 0 0 0
3894 1 -12.56169317541473 45.39515863184896 6.545507113167634 0 0 0
3895 1 -12.56169317541473 45.39515863184896 4.057217066367635 0 0 0
3896 1 -10.80064612641473 46.63959154384894 -7.140135919592366 0 0 1
3897 1 -10.80064612641473 49.12870585684895 -7.140135919592366 0 0 1
3898 1 -12.56169317541473 47.88427294484895 6.545507113167634 0 0 0
3899 1 -10.80060738291473 41.66161140684896 -4.651842886832366 0 0 0
3900 1 -10.80060738291473 41.66161140684896 -2.163537910232366 0 0 0
3901 1 -10.80060738291473 44.15072571984895 -2.163537910232366 0 0 0
3902 1 -12.56169317541473 42.90604431884897 -0.919392886832366 0 0 0
3903 1 -12.56169317541473 42.90604431884897 -3.407682933632366 0 0 0
3904 1 -10.80060738291473 44.15072571984895 0.3247670663676345 0 0 0
3905 1 -10.80064612641473 46.63959154384894 0.3247670663676345 0 0 0
3906 1 -12.56169317541473 45.39515863184896 1.568912089767634 0 0 0
3907 1 -12.56169317541473 45.39515863184896 -0.919392886832366 0 0 0
3908 1 -10.80064612641473 46.63959154384894 2.813057113167634 0 0 0
3909 1 -10.80064612641473 49.12870585684895 2.813057113167634 0 0 0
3910 1 -12.56169317541473 47.88427294484895 4.057217066367635 0 0 0
3911 1 -12.56169317541473 47.88427294484895 1.568912089767634 0 0 0
3912 1 -10.80064612641473 49.12870585684895 5.301362089767634 0 0 0
3913 1 -10.80064612641473 51.61782016984894 5.301362089767634 0 0 0
3914 1 -12.56169317541473 50.37313876884896 6.545507113167634 0 0 0
3915 1 -12.56169317541473 50.37313876884896 4.057217066367635 0 0 0
3916 1 -10.80064612641473 51.61782016984894 -7.140135919592366 0 0 1
3917 1 -10.80060738291473 54.10668599384896 -7.140135919592366 0 0 1
3918 1 -12.56169317541473 52.86225308184895 6.545507113167634 0 0 0
3919 1 -12.56169317541473 42.90604431884897 -5.895987910232366 0 0 0
3920 1 -10.80060738291473 44.15072571984895 -4.651842886832366 0 0 0
3921 1 -10.80064612641473 46.63959154384894 -4.651842886832366 0 0 0
3922 1 -12.56169317541473 45.39515863184896 -3.407682933632366 0 0 0
3923 1 -12.56169317541473 45.39515863184896 -5.895987910232366 0 0 0
3924 1 -10.80064612641473 46.63959154384894 -2.163537910232366 0 0 0
3925 1 -10.80064612641473 49.12870585684895 -2.163537910232366 0 0 0
3926 1 -12.56169317541473 47.88427294484895 -0.919392886832366 0 0 0
3927 1 -12.56169317541473 47.88427294484895 -3.407682933632366 0 0 0
3928 1 -10.80064612641473 49.12870585684895 0.3247670663676345 0 0 0
3929 1 -10.80064612641473 51.61782016984894 0.3247670663676345 0 0 0
3930 1 -12.56169317541473 50.37313876884896 1.568912089767634 0 0 0
3931 1 -12.56169317541473 50.37313876884896 -0.919392886832366 0 0 0
3932 1 -10.80064612641473 51.61782016984894 2.813057113167634 0 0 0
3933 1 -10.80060738291473 54.10668599384896 2.813057113167634 0 0 0
3934 1 -12.56169317541473 52.86225308184895 4.057217066367635 0 0 0
3935 1 -12.56169317541473 52.86225308184895 1.568912089767634 0 0 0
3936 1 -10.80060738291473 54.10668599384896 5.301362089767634 0 0 0
3937 1 -12.56169317541473 47.88427294484895 -5.895987910232366 0 0 0
3938 1 -10.80064612641473 49.12870585684895 -4.651842886832366 0 0 0
3939 1 -10.80064612641473 51.61782016984894 -4.651842886832366 0 0 0
3940 1 -12.56169317541473 50.37313876884896 -3.407682933632366 0 0 0
3941 1 -12.56169317541473 50.37313876884896 -5.895987910232366 0 0 0
3942 1 -10.80064612641473 51.61782016984894 -2.163537910232366 0 0 0
3943 1 -10.80060738291473 54.10668599384896 -2.163537910232366 0 0 0
3944 1 -12.56169317541473 52.86225308184895 -0.919392886832366 0 0 0
3945 1 -12.56169317541473 52.86225308184895 -3.407682933632366 0 0 0
3946 1 -10.80060738291473 54.10668599384896 0.3247670663676345 0 0 0
3947 1 -12.56169317541473 52.86225308184895 -5.895987910232366 0 0 0
3948 1 -10.80060738291473 54.10668599384896 -4.651842886832366 0 0 0
3949 1 -14.32274022441473 41.66161140684896 5.301362089767634 0 0 0
3950 1 -14.32274022441473 41.66161140684896 -7.140135919592366 0 0 1
3951 1 -14.32277896791473 44.15047723084895 -7.140135919592366 0 0 1
3952 1 -14.32274022441473 41.66161140684896 0.3247670663676345 0 0 0
3953 1 -14.32274022441473 41.66161140684896 2.813057113167634 0 0 0
3954 1 -14.32277896791473 44.15047723084895 2.813057113167634 0 0 0
3955 1 -14.32277896791473 44.15047723084895 5.301362089767634 0 0 0
3956 1 -14.32277896791473 46.63959154384894 5.301362089767634 0 0 0
3957 1 -14.32277896791473 46.63959154384894 -7.140135919592366 0 0 1
3958 1 -14.32277896791473 49.12870585684895 -7.140135919592366 0 0 1
3959 1 -14.32274022441473 41.66161140684896 -4.651842886832366 0 0 0
3960 1 -14.32274022441473 41.66161140684896 -2.163537910232366 0 0 0
3961 1 -14.32277896791473 44.15047723084895 -2.163537910232366 0 0 0
3962 1 -14.32277896791473 44.15047723084895 0.3247670663676345 0 0 0
3963 1 -14.32277896791473 46.63959154384894 0.3247670663676345 0 0 0
3964 1 -14.32277896791473 46.63959154384894 2.813057113167634 0 0 0
3965 1 -14.32277896791473 49.12870585684895 2.813057113167634 0 0 0
3966 1 -14.32277896791473 49.12870585684895 5.301362089767634 0 0 0
3967 1 -14.32277896791473 51.61782016984894 5.301362089767634 0 0 0
3968 1 -14.32277896791473 51.61782016984894 -7.140135919592366 0 0 1
3969 1 -14.32277896791473 54.10668599384896 -7.140135919592366 0 0 1
3970 1 -14.32277896791473 44.15047723084895 -4.651842886832366 0 0 0
3971 1 -14.32277896791473 46.63959154384894 -4.651842886832366 0 0 0
3972 1 -14.32277896791473 46.63959154384894 -2.163537910232366 0 0 0
3973 1 -14.32277896791473 49.12870585684895 -2.163537910232366 0 0 0
3974 1 -14.32277896791473 49.12870585684895 0.3247670663676345 0 0 0
3975 1 -14.32277896791473 51.61782016984894 0.3247670663676345 0 0 0
3976 1 -14.32277896791473 51.61782016984894 2.813057113167634 0 0 0
3977 1 -14.32277896791473 54.10668599384896 2.813057113167634 0 0 0
3978 1 -14.32277896791473 54.10668599384896 5.301362089767634 0 0 0
3979 1 -14.32277896791473 49.12870585684895 -4.651842886832366 0 0 0
3980 1 -14.32277896791473 51.61782016984894 -4.651842886832366 0 0 0
3981 1 -14.32277896791473 51.61782016984894 -2.163537910232366 0 0 0
3982 1 -14.32277896791473 54.10668599384896 -2.163537910232366 0 0 0
3983 1 -14.32277896791473 54.10668599384896 0.3247670663676345 0 0 0
3984 1 -14.32277896791473 54.10668599384896 -4.651842886832366 0 0 0
3985 1 1.526915677585269 55.35136739484896 6.545507113167634 0 0 0
3986 1 1.526915677585269 55.35136739484896 4.057217066367635 0 0 0
3987 1 1.526915677585269 57.84048170784895 6.545507113167634 0 0 0
3988 1 1.526915677585269 55.35136739484896 1.568912089767634 0 0 0
3989 1 1.526915677585269 55.35136739484896 -0.919392886832366 0 0 0
3990 1 1.526915677585269 57.84048170784895 4.057217066367635 0 0 0
3991 1 1.526915677585269 57.84048170784895 1.568912089767634 0 0 0
3992 1 1.526915677585269 60.32934753184897 6.545507113167634 0 0 0
3993 1 1.526915677585269 60.32934753184897 4.057217066367635 0 0 0
3994 1 1.526915677585269 62.81846184484893 6.545507113167634 0 0 0
3995 1 1.526915677585269 55.35136739484896 -3.407682933632366 0 0 0
3996 1 1.526915677585269 55.35136739484896 -5.895987910232366 0 0 0
3997 1 1.526915677585269 57.84048170784895 -0.919392886832366 0 0 0
3998 1 1.526915677585269 57.84048170784895 -3.407682933632366 0 0 0
3999 1 1.526915677585269 60.32934753184897 1.568912089767634 0 0 0
4000 1 1.526915677585269 60.32934753184897 -0.919392886832366 0 0 0
4001 1 1.526915677585269 62.81846184484893 4.057217066367635 0 0 0
4002 1 1.526915677585269 62.81846184484893 1.568912089767634 0 0 0
4003 1 1.526915677585269 65.30757615784894 6.545507113167634 0 0 0
4004 1 1.526915677585269 65.30757615784894 4.057217066367635 0 0 0
4005 1 1.526915677585269 67.79669047084893 6.545507113167634 0 0 0
4006 1 1.526915677585269 57.84048170784895 -5.895987910232366 0 0 0
4007 1 1.526915677585269 60.32934753184897 -3.407682933632366 0 0 0
4008 1 1.526915677585269 60.32934753184897 -5.895987910232366 0 0 0
4009 1 1.526915677585269 62.81846184484893 -0.919392886832366 0 0 0
4010 1 1.526915677585269 62.81846184484893 -3.407682933632366 0 0 0
4011 1 1.526915677585269 65.30757615784894 1.568912089767634 0 0 0
4012 1 1.526915677585269 65.30757615784894 -0.919392886832366 0 0 0
4013 1 1.526915677585269 67.79669047084893 4.057217066367635 0 0 0
4014 1 1.526915677585269 67.79669047084893 1.568912089767634 0 0 0
4015 1 1.526915677585269 62.81846184484893 -5.895987910232366 0 0 0
4016 1 1.526915677585269 65.30757615784894 -3.407682933632366 0 0 0
4017 1 1.526915677585269 65.30757615784894 -5.895987910232366 0 0 0
4018 1 1.526915677585269 67.79669047084893 -0.919392886832366 0 0 0
4019 1 1.526915677585269 67.79669047084893 -3.407682933632366 0 0 0
4020 1 1.526915677585269 67.79669047084893 -5.895987910232366 0 0 0
4021 1 -0.2341701149147291 56.59580030684897 5.301362089767634 0 0 0
4022 1 -1.995217163914727 55.35136739484896 6.545507113167634 0 0 0
4023 1 -1.995217163914727 55.35136739484896 4.057217066367635 0 0 0
4024 1 -0.2341701149147291 56.59580030684897 -7.140135919592366 0 0 1
4025 1 -0.2341701149147291 59.08491461984896 -7.140135919592366 0 0 1
4026 1 -1.995217163914727 57.84048170784895 6.545507113167634 0 0 0
4027 1 -0.2341701149147291 56.59580030684897 0.3247670663676345 0 0 0
4028 1 -1.995217163914727 55.35136739484896 1.568912089767634 0 0 0
4029 1 -1.995217163914727 55.35136739484896 -0.919392886832366 0 0 0
4030 1 -0.2341701149147291 56.59580030684897 2.813057113167634 0 0 0
4031 1 -0.2341701149147291 59.08491461984896 2.813057113167634 0 0 0
4032 1 -1.995217163914727 57.84048170784895 4.057217066367635 0 0 0
4033 1 -1.995217163914727 57.84048170784895 1.568912089767634 0 0 0
4034 1 -0.2341701149147291 59.08491461984896 5.301362089767634 0 0 0
4035 1 -0.2341701149147291 61.57402893284898 5.301362089767634 0 0 0
4036 1 -1.995217163914727 60.32934753184897 6.545507113167634 0 0 0
4037 1 -1.995217163914727 60.32934753184897 4.057217066367635 0 0 0
4038 1 -0.2341701149147291 61.57402893284898 -7.140135919592366 0 0 1
4039 1 -0.2341701149147291 64.06314324584896 -7.140135919592366 0 0 1
4040 1 -1.995217163914727 62.81846184484893 6.545507113167634 0 0 0
4041 1 -0.2341701149147291 56.59580030684897 -4.651842886832366 0 0 0
4042 1 -1.995217163914727 55.35136739484896 -3.407682933632366 0 0 0
4043 1 -1.995217163914727 55.35136739484896 -5.895987910232366 0 0 0
4044 1 -0.2341701149147291 56.59580030684897 -2.163537910232366 0 0 0
4045 1 -0.2341701149147291 59.08491461984896 -2.163537910232366 0 0 0
4046 1 -1.995217163914727 57.84048170784895 -0.919392886832366 0 0 0
4047 1 -1.995217163914727 57.84048170784895 -3.407682933632366 0 0 0
4048 1 -0.2341701149147291 59.08491461984896 0.3247670663676345 0 0 0
4049 1 -0.2341701149147291 61.57402893284898 0.3247670663676345 0 0 0
4050 1 -1.995217163914727 60.32934753184897 1.568912089767634 0 0 0
4051 1 -1.995217163914727 60.32934753184897 -0.919392886832366 0 0 0
4052 1 -0.2341701149147291 61.57402893284898 2.813057113167634 0 0 0
4053 1 -0.2341701149147291 64.06314324584896 2.813057113167634 0 0 0
4054 1 -1.995217163914727 62.81846184484893 4.057217066367635 0 0 0
4055 1 -1.995217163914727 62.81846184484893 1.568912089767634 0 0 0
4056 1 -0.2341701149147291 64.06314324584896 5.301362089767634 0 0 0
4057 1 -0.2341701149147291 66.55200906984895 5.301362089767634 0 0 0
4058 1 -1.995217163914727 65.30757615784894 6.545507113167634 0 0 0
4059 1 -1.995217163914727 65.30757615784894 4.057217066367635 0 0 0
4060 1 -0.2341701149147291 66.55200906984895 -7.140135919592366 0 0 1
4061 1 -1.995217163914727 67.79669047084893 6.545507113167634 0 0 0
4062 1 -1.995217163914727 57.84048170784895 -5.895987910232366 0 0 0
4063 1 -0.2341701149147291 59.08491461984896 -4.651842886832366 0 0 0
4064 1 -0.2341701149147291 61.57402893284898 -4.651842886832366 0 0 0
4065 1 -1.995217163914727 60.32934753184897 -3.407682933632366 0 0 0
4066 1 -1.995217163914727 60.32934753184897 -5.895987910232366 0 0 0
4067 1 -0.2341701149147291 61.57402893284898 -2.163537910232366 0 0 0
4068 1 -0.2341701149147291 64.06314324584896 -2.163537910232366 0 0 0
4069 1 -1.995217163914727 62.81846184484893 -0.919392886832366 0 0 0
4070 1 -1.995217163914727 62.81846184484893 -3.407682933632366 0 0 0
4071 1 -0.2341701149147291 64.06314324584896 0.3247670663676345 0 0 0
4072 1 -0.2341701149147291 66.55200906984895 0.3247670663676345 0 0 0
4073 1 -1.995217163914727 65.30757615784894 1.568912089767634 0 0 0
4074 1 -1.995217163914727 65.30757615784894 -0.919392886832366 0 0 0
4075 1 -0.2341701149147291 66.55200906984895 2.813057113167634 0 0 0
4076 1 -1.995217163914727 67.79669047084893 4.057217066367635 0 0 0
4077 1 -1.995217163914727 67.79669047084893 1.568912089767634 0 0 0
4078 1 -1.995217163914727 62.81846184484893 -5.895987910232366 0 0 0
4079 1 -0.2341701149147291 64.06314324584896 -4.651842886832366 0 0 0
4080 1 -0.2341701149147291 66.55200906984895 -4.651842886832366 0 0 0
4081 1 -1.995217163914727 65.30757615784894 -3.407682933632366 0 0 0
4082 1 -1.995217163914727 65.30757615784894 -5.895987910232366 0 0 0
4083 1 -0.2341701149147291 66.55200906984895 -2.163537910232366 0 0 0
4084 1 -1.995217163914727 67.79669047084893 -0.919392886832366 0 0 0
4085 1 -1.995217163914727 67.79669047084893 -3.407682933632366 0 0 0
4086 1 -1.995217163914727 67.79669047084893 -5.895987910232366 0 0 0
4087 1 -3.75630295641473 56.59580030684897 5.301362089767634 0 0 0
4088 1 -5.517388748914728 55.35136739484896 6.545507113167634 0 0 0
4089 1 -5.517388748914728 55.35136739484896 4.057217066367635 0 0 0
4090 1 -3.75630295641473 56.59580030684897 -7.140135919592366 0 0 1
4091 1 -3.75630295641473 59.08491461984896 -7.140135919592366 0 0 1
4092 1 -5.517388748914728 57.84048170784895 6.545507113167634 0 0 0
4093 1 -3.75630295641473 56.59580030684897 0.3247670663676345 0 0 0
4094 1 -5.517388748914728 55.35136739484896 1.568912089767634 0 0 0
4095 1 -5.517388748914728 55.35136739484896 -0.919392886832366 0 0 0
4096 1 -3.75630295641473 56.59580030684897 2.813057113167634 0 0 0
4097 1 -3.75630295641473 59.08491461984896 2.813057113167634 0 0 0
4098 1 -5.517388748914728 57.84048170784895 4.057217066367635 0 0 0
4099 1 -5.517388748914728 57.84048170784895 1.568912089767634 0 0 0
4100 1 -3.75630295641473 59.08491461984896 5.301362089767634 0 0 0
4101 1 -3.75630295641473 61.57402893284898 5.301362089767634 0 0 0
4102 1 -5.517388748914728 60.32934753184897 6.545507113167634 0 0 0
4103 1 -5.517388748914728 60.32934753184897 4.057217066367635 0 0 0
4104 1 -3.75630295641473 61.57402893284898 -7.140135919592366 0 0 1
4105 1 -3.75630295641473 64.06314324584896 -7.140135919592366 0 0 1
4106 1 -5.517388748914728 62.81846184484893 6.545507113167634 0 0 0
4107 1 -3.75630295641473 56.59580030684897 -4.651842886832366 0 0 0
4108 1 -5.517388748914728 55.35136739484896 -3.407682933632366 0 0 0
4109 1 -5.517388748914728 55.35136739484896 -5.895987910232366 0 0 0
4110 1 -3.75630295641473 56.59580030684897 -2.163537910232366 0 0 0
4111 1 -3.75630295641473 59.08491461984896 -2.163537910232366 0 0 0
4112 1 -5.517388748914728 57.84048170784895 -0.919392886832366 0 0 0
4113 1 -5.517388748914728 57.84048170784895 -3.407682933632366 0 0 0
4114 1 -3.75630295641473 59.08491461984896 0.3247670663676345 0 0 0
4115 1 -3.75630295641473 61.57402893284898 0.3247670663676345 0 0 0
4116 1 -5.517388748914728 60.32934753184897 1.568912089767634 0 0 0
4117 1 -5.517388748914728 60.32934753184897 -0.919392886832366 0 0 0
4118 1 -3.75630295641473 61.57402893284898 2.813057113167634 0 0 0
4119 1 -3.75630295641473 64.06314324584896 2.813057113167634 0 0 0
4120 1 -5.517388748914728 62.81846184484893 4.057217066367635 0 0 0
4121 1 -5.517388748914728 62.81846184484893 1.568912089767634 0 0 0
4122 1 -3.75630295641473 64.06314324584896 5.301362089767634 0 0 0
4123 1 -3.75630295641473 66.55200906984895 5.301362089767634 0 0 0
4124 1 -5.517350005414729 65.30757615784894 6.545507113167634 0 0 0
4125 1 -5.517350005414729 65.30757615784894 4.057217066367635 0 0 0
4126 1 -3.75630295641473 66.55200906984895 -7.140135919592366 0 0 1
4127 1 -5.517350005414729 67.79669047084893 6.545507113167634 0 0 0
4128 1 -5.517388748914728 57.84048170784895 -5.895987910232366 0 0 0
4129 1 -3.75630295641473 59.08491461984896 -4.651842886832366 0 0 0
4130 1 -3.75630295641473 61.57402893284898 -4.651842886832366 0 0 0
4131 1 -5.517388748914728 60.32934753184897 -3.407682933632366 0 0 0
4132 1 -5.517388748914728 60.32934753184897 -5.895987910232366 0 0 0
4133 1 -3.75630295641473 61.57402893284898 -2.163537910232366 0 0 0
4134 1 -3.75630295641473 64.06314324584896 -2.163537910232366 0 0 0
4135 1 -5.517388748914728 62.81846184484893 -0.919392886832366 0 0 0
4136 1 -5.517388748914728 62.81846184484893 -3.407682933632366 0 0 0
4137 1 -3.75630295641473 64.06314324584896 0.3247670663676345 0 0 0
4138 1 -3.75630295641473 66.55200906984895 0.3247670663676345 0 0 0
4139 1 -5.517350005414729 65.30757615784894 1.568912089767634 0 0 0
4140 1 -5.517350005414729 65.30757615784894 -0.919392886832366 0 0 0
4141 1 -3.75630295641473 66.55200906984895 2.813057113167634 0 0 0
4142 1 -5.517350005414729 67.79669047084893 4.057217066367635 0 0 0
4143 1 -5.517350005414729 67.79669047084893 1.568912089767634 0 0 0
4144 1 -5.517388748914728 62.81846184484893 -5.895987910232366 0 0 0
4145 1 -3.75630295641473 64.06314324584896 -4.651842886832366 0 0 0
4146 1 -3.75630295641473 66.55200906984895 -4.651842886832366 0 0 0
4147 1 -5.517350005414729 65.30757615784894 -3.407682933632366 0 0 0
4148 1 -5.517350005414729 65.30757615784894 -5.895987910232366 0 0 0
4149 1 -3.75630295641473 66.55200906984895 -2.163537910232366 0 0 0
4150 1 -5.517350005414729 67.79669047084893 -0.919392886832366 0 0 0
4151 1 -5.517350005414729 67.79669047084893 -3.407682933632366 0 0 0
4152 1 -5.517350005414729 67.79669047084893 -5.895987910232366 0 0 0
4153 1 -7.278474541414729 56.59580030684897 5.301362089767634 0 0 0
4154 1 -9.039521590414729 55.35136739484896 6.545507113167634 0 0 0
4155 1 -9.039521590414729 55.35136739484896 4.057217066367635 0 0 0
4156 1 -7.278474541414729 56.59580030684897 -7.140135919592366 0 0 1
4157 1 -7.278435797914728 59.08491461984896 -7.140135919592366 0 0 1
4158 1 -9.039521590414729 57.84048170784895 6.545507113167634 0 0 0
4159 1 -7.278474541414729 56.59580030684897 0.3247670663676345 0 0 0
4160 1 -9.039521590414729 55.35136739484896 1.568912089767634 0 0 0
4161 1 -9.039521590414729 55.35136739484896 -0.919392886832366 0 0 0
4162 1 -7.278474541414729 56.59580030684897 2.813057113167634 0 0 0
4163 1 -7.278435797914728 59.08491461984896 2.813057113167634 0 0 0
4164 1 -9.039521590414729 57.84048170784895 4.057217066367635 0 0 0
4165 1 -9.039521590414729 57.84048170784895 1.568912089767634 0 0 0
4166 1 -7.278435797914728 59.08491461984896 5.301362089767634 0 0 0
4167 1 -7.278435797914728 61.57402893284898 5.301362089767634 0 0 0
4168 1 -9.039521590414729 60.32934753184897 6.545507113167634 0 0 0
4169 1 -9.039521590414729 60.32934753184897 4.057217066367635 0 0 0
4170 1 -7.278435797914728 61.57402893284898 -7.140135919592366 0 0 1
4171 1 -7.278435797914728 64.06314324584896 -7.140135919592366 0 0 1
4172 1 -9.039521590414729 62.81846184484893 6.545507113167634 0 0 0
4173 1 -7.278474541414729 56.59580030684897 -4.651842886832366 0 0 0
4174 1 -9.039521590414729 55.35136739484896 -3.407682933632366 0 0 0
4175 1 -9.039521590414729 55.35136739484896 -5.895987910232366 0 0 0
4176 1 -7.278474541414729 56.59580030684897 -2.163537910232366 0 0 0
4177 1 -7.278435797914728 59.08491461984896 -2.163537910232366 0 0 0
4178 1 -9.039521590414729 57.84048170784895 -0.919392886832366 0 0 0
4179 1 -9.039521590414729 57.84048170784895 -3.407682933632366 0 0 0
4180 1 -7.278435797914728 59.08491461984896 0.3247670663676345 0 0 0
4181 1 -7.278435797914728 61.57402893284898 0.3247670663676345 0 0 0
4182 1 -9.039521590414729 60.32934753184897 1.568912089767634 0 0 0
4183 1 -9.039521590414729 60.32934753184897 -0.919392886832366 0 0 0
4184 1 -7.278435797914728 61.57402893284898 2.813057113167634 0 0 0
4185 1 -7.278435797914728 64.06314324584896 2.813057113167634 0 0 0
4186 1 -9.039521590414729 62.81846184484893 4.057217066367635 0 0 0
4187 1 -9.039521590414729 62.81846184484893 1.568912089767634 0 0 0
4188 1 -7.278435797914728 64.06314324584896 5.301362089767634 0 0 0
4189 1 -7.278435797914728 66.55200906984895 5.301362089767634 0 0 0
4190 1 -9.039521590414729 65.30757615784894 6.545507113167634 0 0 0
4191 1 -9.039521590414729 65.30757615784894 4.057217066367635 0 0 0
4192 1 -7.278435797914728 66.55200906984895 -7.140135919592366 0 0 1
4193 1 -9.03948284691473 67.79669047084893 6.545507113167634 0 0 0
4194 1 -9.039521590414729 57.84048170784895 -5.895987910232366 0 0 0
4195 1 -7.278435797914728 59.08491461984896 -4.651842886832366 0 0 0
4196 1 -7.278435797914728 61.57402893284898 -4.651842886832366 0 0 0
4197 1 -9.039521590414729 60.32934753184897 -3.407682933632366 0 0 0
4198 1 -9.039521590414729 60.32934753184897 -5.895987910232366 0 0 0
4199 1 -7.278435797914728 61.57402893284898 -2.163537910232366 0 0 0
4200 1 -7.278435797914728 64.06314324584896 -2.163537910232366 0 0 0
4201 1 -9.039521590414729 62.81846184484893 -0.919392886832366 0 0 0
4202 1 -9.039521590414729 62.81846184484893 -3.407682933632366 0 0 0
4203 1 -7.278435797914728 64.06314324584896 0.3247670663676345 0 0 0
4204 1 -7.278435797914728 66.55200906984895 0.3247670663676345 0 0 0
4205 1 -9.039521590414729 65.30757615784894 1.568912089767634 0 0 0
4206 1 -9.039521590414729 65.30757615784894 -0.919392886832366 0 0 0
4207 1 -7.278435797914728 66.55200906984895 2.813057113167634 0 0 0
4208 1 -9.03948284691473 67.79669047084893 4.057217066367635 0 0 0
4209 1 -9.03948284691473 67.79669047084893 1.568912089767634 0 0 0
4210 1 -9.039521590414729 62.81846184484893 -5.895987910232366 0 0 0
4211 1 -7.278435797914728 64.06314324584896 -4.651842886832366 0 0 0
4212 1 -7.278435797914728 66.55200906984895 -4.651842886832366 0 0 0
4213 1 -9.039521590414729 65.30757615784894 -3.407682933632366 0 0 0
4214 1 -9.039521590414729 65.30757615784894 -5.895987910232366 0 0 0
4215 1 -7.278435797914728 66.55200906984895 -2.163537910232366 0 0 0
4216 1 -9.03948284691473 67.79669047084893 -0.919392886832366 0 0 0
4217 1 -9.03948284691473 67.79669047084893 -3.407682933632366 0 0 0
4218 1 -9.03948284691473 67.79669047084893 -5.895987910232366 0 0 0
4219 1 -10.80060738291473 56.59580030684897 5.301362089767634 0 0 0
4220 1 -12.56169317541473 55.35136739484896 6.545507113167634 0 0 0
4221 1 -12.56169317541473 55.35136739484896 4.057217066367635 0 0 0
4222 1 -10.80060738291473 56.59580030684897 -7.140135919592366 0 0 1
4223 1 -10.80060738291473 59.08491461984896 -7.140135919592366 0 0 1
4224 1 -12.56169317541473 57.84048170784895 6.545507113167634 0 0 0
4225 1 -10.80060738291473 56.59580030684897 0.3247670663676345 0 0 0
4226 1 -12.56169317541473 55.35136739484896 1.568912089767634 0 0 0
4227 1 -12.56169317541473 55.35136739484896 -0.919392886832366 0 0 0
4228 1 -10.80060738291473 56.59580030684897 2.813057113167634 0 0 0
4229 1 -10.80060738291473 59.08491461984896 2.813057113167634 0 0 0
4230 1 -12.56169317541473 57.84048170784895 4.057217066367635 0 0 0
4231 1 -12.56169317541473 57.84048170784895 1.568912089767634 0 0 0
4232 1 -10.80060738291473 59.08491461984896 5.301362089767634 0 0 0
4233 1 -10.80060738291473 61.57402893284898 5.301362089767634 0 0 0
4234 1 -12.56165443191473 60.32934753184897 6.545507113167634 0 0 0
4235 1 -12.56165443191473 60.32934753184897 4.057217066367635 0 0 0
4236 1 -10.80060738291473 61.57402893284898 -7.140135919592366 0 0 1
4237 1 -10.80056863941473 64.06314324584896 -7.140135919592366 0 0 1
4238 1 -12.56165443191473 62.81846184484893 6.545507113167634 0 0 0
4239 1 -10.80060738291473 56.59580030684897 -4.651842886832366 0 0 0
4240 1 -12.56169317541473 55.35136739484896 -3.407682933632366 0 0 0
4241 1 -12.56169317541473 55.35136739484896 -5.895987910232366 0 0 0
4242 1 -10.80060738291473 56.59580030684897 -2.163537910232366 0 0 0
4243 1 -10.80060738291473 59.08491461984896 -2.163537910232366 0 0 0
4244 1 -12.56169317541473 57.84048170784895 -0.919392886832366 0 0 0
4245 1 -12.56169317541473 57.84048170784895 -3.407682933632366 0 0 0
4246 1 -10.80060738291473 59.08491461984896 0.3247670663676345 0 0 0
4247 1 -10.80060738291473 61.57402893284898 0.3247670663676345 0 0 0
4248 1 -12.56165443191473 60.32934753184897 1.568912089767634 0 0 0
4249 1 -12.56165443191473 60.32934753184897 -0.919392886832366 0 0 0
4250 1 -10.80060738291473 61.57402893284898 2.813057113167634 0 0 0
4251 1 -10.80056863941473 64.06314324584896 2.813057113167634 0 0 0
4252 1 -12.56165443191473 62.81846184484893 4.057217066367635 0 0 0
4253 1 -12.56165443191473 62.81846184484893 1.568912089767634 0 0 0
4254 1 -10.80056863941473 64.06314324584896 5.301362089767634 0 0 0
4255 1 -10.80056863941473 66.55200906984895 5.301362089767634 0 0 0
4256 1 -12.56165443191473 65.30757615784894 6.545507113167634 0 0 0
4257 1 -12.56165443191473 65.30757615784894 4.057217066367635 0 0 0
4258 1 -10.80056863941473 66.55200906984895 -7.140135919592366 0 0 1
4259 1 -12.56165443191473 67.79669047084893 6.545507113167634 0 0 0
4260 1 -12.56169317541473 57.84048170784895 -5.895987910232366 0 0 0
4261 1 -10.80060738291473 59.08491461984896 -4.651842886832366 0 0 0
4262 1 -10.80060738291473 61.57402893284898 -4.651842886832366 0 0 0
4263 1 -12.56165443191473 60.32934753184897 -3.407682933632366 0 0 0
4264 1 -12.56165443191473 60.32934753184897 -5.895987910232366 0 0 0
4265 1 -10.80060738291473 61.57402893284898 -2.163537910232366 0 0 0
4266 1 -10.80056863941473 64.06314324584896 -2.163537910232366 0 0 0
4267 1 -12.56165443191473 62.81846184484893 -0.919392886832366 0 0 0
4268 1 -12.56165443191473 62.81846184484893 -3.407682933632366 0 0 0
4269 1 -10.80056863941473 64.06314324584896 0.3247670663676345 0 0 0
4270 1 -10.80056863941473 66.55200906984895 0.3247670663676345 0 0 0
4271 1 -12.56165443191473 65.30757615784894 1.568912089767634 0 0 0
4272 1 -12.56165443191473 65.30757615784894 -0.919392886832366 0 0 0
4273 1 -10.80056863941473 66.55200906984895 2.813057113167634 0 0 0
4274 1 -12.56165443191473 67.79669047084893 4.057217066367635 0 0 0
4275 1 -12.56165443191473 67.79669047084893 1.568912089767634 0 0 0
4276 1 -12.56165443191473 62.81846184484893 -5.895987910232366 0 0 0
4277 1 -10.80056863941473 64.06314324584896 -4.651842886832366 0 0 0
4278 1 -10.80056863941473 66.55200906984895 -4.651842886832366 0 0 0
4279 1 -12.56165443191473 65.30757615784894 -3.407682933632366 0 0 0
4280 1 -12.56165443191473 65.30757615784894 -5.895987910232366 0 0 0
4281 1 -10.80056863941473 66.55200906984895 -2.163537910232366 0 0 0
4282 1 -12.56165443191473 67.79669047084893 -0.919392886832366 0 0 0
4283 1 -12.56165443191473 67.79669047084893 -3.407682933632366 0 0 0
4284 1 -12.56165443191473 67.79669047084893 -5.895987910232366 0 0 0
4285 1 -14.32274022441473 56.59580030684897 5.301362089767634 0 0 0
4286 1 -14.32274022441473 56.59580030684897 -7.140135919592366 0 0 1
4287 1 -14.32274022441473 59.08491461984896 -7.140135919592366 0 0 1
4288 1 -14.32274022441473 56.59580030684897 0.3247670663676345 0 0 0
4289 1 -14.32274022441473 56.59580030684897 2.813057113167634 0 0 0
4290 1 -14.32274022441473 59.08491461984896 2.813057113167634 0 0 0
4291 1 -14.32274022441473 59.08491461984896 5.301362089767634 0 0 0
4292 1 -14.32274022441473 61.57402893284898 5.301362089767634 0 0 0
4293 1 -14.32274022441473 61.57402893284898 -7.140135919592366 0 0 1
4294 1 -14.32270148091473 64.06314324584896 -7.140135919592366 0 0 1
4295 1 -14.32274022441473 56.59580030684897 -4.651842886832366 0 0 0
4296 1 -14.32274022441473 56.59580030684897 -2.163537910232366 0 0 0
4297 1 -14.32274022441473 59.08491461984896 -2.163537910232366 0 0 0
4298 1 -14.32274022441473 59.08491461984896 0.3247670663676345 0 0 0
4299 1 -14.32274022441473 61.57402893284898 0.3247670663676345 0 0 0
4300 1 -14.32274022441473 61.57402893284898 2.813057113167634 0 0 0
4301 1 -14.32270148091473 64.06314324584896 2.813057113167634 0 0 0
4302 1 -14.32270148091473 64.06314324584896 5.301362089767634 0 0 0
4303 1 -14.32270148091473 66.55200906984895 5.301362089767634 0 0 0
4304 1 -14.32270148091473 66.55200906984895 -7.140135919592366 0 0 1
4305 1 -14.32274022441473 59.08491461984896 -4.651842886832366 0 0 0
4306 1 -14.32274022441473 61.57402893284898 -4.651842886832366 0 0 0
4307 1 -14.32274022441473 61.57402893284898 -2.163537910232366 0 0 0
4308 1 -14.32270148091473 64.06314324584896 -2.163537910232366 0 0 0
4309 1 -14.32270148091473 64.06314324584896 0.3247670663676345 0 0 0
4310 1 -14.32270148091473 66.55200906984895 0.3247670663676345 0 0 0
4311 1 -14.32270148091473 66.55200906984895 2.813057113167634 0 0 0
4312 1 -14.32270148091473 64.06314324584896 -4.651842886832366 0 0 0
4313 1 -14.32270148091473 66.55200906984895 -4.651842886832366 0 0 0
4314 1 -14.32270148091473 66.55200906984895 -2.163537910232366 0 0 0
4315 1 1.526915677585269 70.28580478384895 6.545507113167634 0 0 0
4316 1 1.526915677585269 70.28580478384895 4.057217066367635 0 0 0
4317 1 1.526915677585269 72.77467060784896 6.545507113167634 0 0 0
4318 1 1.526915677585269 70.28580478384895 1.568912089767634 0 0 0
4319 1 1.526915677585269 70.28580478384895 -0.919392886832366 0 0 0
4320 1 1.526915677585269 72.77467060784896 4.057217066367635 0 0 0
4321 1 1.526915677585269 72.77467060784896 1.568912089767634 0 0 0
4322 1 1.526915677585269 75.26378492084895 6.545507113167634 0 0 0
4323 1 1.526915677585269 75.26378492084895 4.057217066367635 0 0 0
4324 1 1.526954421085271 77.75289923384896 6.545507113167634 0 0 0
4325 1 1.526915677585269 70.28580478384895 -3.407682933632366 0 0 0
4326 1 1.526915677585269 70.28580478384895 -5.895987910232366 0 0 0
4327 1 1.526915677585269 72.77467060784896 -0.919392886832366 0 0 0
4328 1 1.526915677585269 72.77467060784896 -3.407682933632366 0 0 0
4329 1 1.526915677585269 75.26378492084895 1.568912089767634 0 0 0
4330 1 1.526915677585269 75.26378492084895 -0.919392886832366 0 0 0
4331 1 1.526954421085271 77.75289923384896 4.057217066367635 0 0 0
4332 1 1.526954421085271 77.75289923384896 1.568912089767634 0 0 0
4333 1 1.526954421085271 80.24201354684895 6.545507113167634 0 0 0
4334 1 1.526954421085271 80.24201354684895 4.057217066367635 0 0 0
4335 1 1.526915677585269 72.77467060784896 -5.895987910232366 0 0 0
4336 1 1.526915677585269 75.26378492084895 -3.407682933632366 0 0 0
4337 1 1.526915677585269 75.26378492084895 -5.895987910232366 0 0 0
4338 1 1.526954421085271 77.75289923384896 -0.919392886832366 0 0 0
4339 1 1.526954421085271 77.75289923384896 -3.407682933632366 0 0 0
4340 1 1.526954421085271 80.24201354684895 1.568912089767634 0 0 0
4341 1 1.526954421085271 80.24201354684895 -0.919392886832366 0 0 0
4342 1 1.526954421085271 77.75289923384896 -5.895987910232366 0 0 0
4343 1 1.526954421085271 80.24201354684895 -3.407682933632366 0 0 0
4344 1 1.526954421085271 80.24201354684895 -5.895987910232366 0 0 0
4345 1 -0.2341313714147297 69.04112338284894 -7.140135919592366 0 0 1
4346 1 -0.2341313714147297 69.04112338284894 2.813057113167634 0 0 0
4347 1 -0.2341313714147297 69.04112338284894 5.301362089767634 0 0 0
4348 1 -0.2341313714147297 71.53023769584895 5.301362089767634 0 0 0
4349 1 -1.995217163914727 70.28580478384895 6.545507113167634 0 0 0
4350 1 -1.995217163914727 70.28580478384895 4.057217066367635 0 0 0
4351 1 -0.2341313714147297 71.53023769584895 -7.140135919592366 0 0 1
4352 1 -0.2341313714147297 74.01935200884894 -7.140135919592366 0 0 1
4353 1 -1.995217163914727 72.77467060784896 6.545507113167634 0 0 0
4354 1 -0.2341313714147297 69.04112338284894 -2.163537910232366 0 0 0
4355 1 -0.2341313714147297 69.04112338284894 0.3247670663676345 0 0 0
4356 1 -0.2341313714147297 71.53023769584895 0.3247670663676345 0 0 0
4357 1 -1.995217163914727 70.28580478384895 1.568912089767634 0 0 0
4358 1 -1.995217163914727 70.28580478384895 -0.919392886832366 0 0 0
4359 1 -0.2341313714147297 71.53023769584895 2.813057113167634 0 0 0
4360 1 -0.2341313714147297 74.01935200884894 2.813057113167634 0 0 0
4361 1 -1.995217163914727 72.77467060784896 4.057217066367635 0 0 0
4362 1 -1.995217163914727 72.77467060784896 1.568912089767634 0 0 0
4363 1 -0.2341313714147297 74.01935200884894 5.301362089767634 0 0 0
4364 1 -0.2341313714147297 76.50846632184896 5.301362089767634 0 0 0
4365 1 -1.995217163914727 75.26378492084895 6.545507113167634 0 0 0
4366 1 -1.995217163914727 75.26378492084895 4.057217066367635 0 0 0
4367 1 -0.2341313714147297 76.50846632184896 -7.140135919592366 0 0 1
4368 1 -0.2341313714147297 78.99733214584897 -7.140135919592366 0 0 1
4369 1 -1.995178420414732 77.75289923384896 6.545507113167634 0 0 0
4370 1 -0.2341313714147297 69.04112338284894 -4.651842886832366 0 0 0
4371 1 -0.2341313714147297 71.53023769584895 -4.651842886832366 0 0 0
4372 1 -1.995217163914727 70.28580478384895 -3.407682933632366 0 0 0
4373 1 -1.995217163914727 70.28580478384895 -5.895987910232366 0 0 0
4374 1 -0.2341313714147297 71.53023769584895 -2.163537910232366 0 0 0
4375 1 -0.2341313714147297 74.01935200884894 -2.163537910232366 0 0 0
4376 1 -1.995217163914727 72.77467060784896 -0.919392886832366 0 0 0
4377 1 -1.995217163914727 72.77467060784896 -3.407682933632366 0 0 0
4378 1 -0.2341313714147297 74.01935200884894 0.3247670663676345 0 0 0
4379 1 -0.2341313714147297 76.50846632184896 0.3247670663676345 0 0 0
4380 1 -1.995217163914727 75.26378492084895 1.568912089767634 0 0 0
4381 1 -1.995217163914727 75.26378492084895 -0.919392886832366 0 0 0
4382 1 -0.2341313714147297 76.50846632184896 2.813057113167634 0 0 0
4383 1 -0.2341313714147297 78.99733214584897 2.813057113167634 0 0 0
4384 1 -1.995178420414732 77.75289923384896 4.057217066367635 0 0 0
4385 1 -1.995178420414732 77.75289923384896 1.568912089767634 0 0 0
4386 1 -0.2341313714147297 78.99733214584897 5.301362089767634 0 0 0
4387 1 -0.2341313714147297 81.48644645884896 5.301362089767634 0 0 0
4388 1 -1.995178420414732 80.24201354684895 6.545507113167634 0 0 0
4389 1 -1.995178420414732 80.24201354684895 4.057217066367635 0 0 0
4390 1 -0.2341313714147297 81.48644645884896 -7.140135919592366 0 0 1
4391 1 -1.995217163914727 72.77467060784896 -5.895987910232366 0 0 0
4392 1 -0.2341313714147297 74.01935200884894 -4.651842886832366 0 0 0
4393 1 -0.2341313714147297 76.50846632184896 -4.651842886832366 0 0 0
4394 1 -1.995217163914727 75.26378492084895 -3.407682933632366 0 0 0
4395 1 -1.995217163914727 75.26378492084895 -5.895987910232366 0 0 0
4396 1 -0.2341313714147297 76.50846632184896 -2.163537910232366 0 0 0
4397 1 -0.2341313714147297 78.99733214584897 -2.163537910232366 0 0 0
4398 1 -1.995178420414732 77.75289923384896 -0.919392886832366 0 0 0
4399 1 -1.995178420414732 77.75289923384896 -3.407682933632366 0 0 0
4400 1 -0.2341313714147297 78.99733214584897 0.3247670663676345 0 0 0
4401 1 -0.2341313714147297 81.48644645884896 0.3247670663676345 0 0 0
4402 1 -1.995178420414732 80.24201354684895 1.568912089767634 0 0 0
4403 1 -1.995178420414732 80.24201354684895 -0.919392886832366 0 0 0
4404 1 -0.2341313714147297 81.48644645884896 2.813057113167634 0 0 0
4405 1 -1.995178420414732 77.75289923384896 -5.895987910232366 0 0 0
4406 1 -0.2341313714147297 78.99733214584897 -4.651842886832366 0 0 0
4407 1 -0.2341313714147297 81.48644645884896 -4.651842886832366 0 0 0
4408 1 -1.995178420414732 80.24201354684895 -3.407682933632366 0 0 0
4409 1 -1.995178420414732 80.24201354684895 -5.895987910232366 0 0 0
4410 1 -0.2341313714147297 81.48644645884896 -2.163537910232366 0 0 0
4411 1 -3.75630295641473 69.04112338284894 -7.140135919592366 0 0 1
4412 1 -3.75630295641473 69.04112338284894 2.813057113167634 0 0 0
4413 1 -3.75630295641473 69.04112338284894 5.301362089767634 0 0 0
4414 1 -3.756264212914729 71.53023769584895 5.301362089767634 0 0 0
4415 1 -5.517350005414729 70.28580478384895 6.545507113167634 0 0 0
4416 1 -5.517350005414729 70.28580478384895 4.057217066367635 0 0 0
4417 1 -3.756264212914729 71.53023769584895 -7.140135919592366 0 0 1
4418 1 -3.756264212914729 74.01935200884894 -7.140135919592366 0 0 1
4419 1 -5.517350005414729 72.77467060784896 6.545507113167634 0 0 0
4420 1 -3.75630295641473 69.04112338284894 -2.163537910232366 0 0 0
4421 1 -3.75630295641473 69.04112338284894 0.3247670663676345 0 0 0
4422 1 -3.756264212914729 71.53023769584895 0.3247670663676345 0 0 0
4423 1 -5.517350005414729 70.28580478384895 1.568912089767634 0 0 0
4424 1 -5.517350005414729 70.28580478384895 -0.919392886832366 0 0 0
4425 1 -3.756264212914729 71.53023769584895 2.813057113167634 0 0 0
4426 1 -3.756264212914729 74.01935200884894 2.813057113167634 0 0 0
4427 1 -5.517350005414729 72.77467060784896 4.057217066367635 0 0 0
4428 1 -5.517350005414729 72.77467060784896 1.568912089767634 0 0 0
4429 1 -3.756264212914729 74.01935200884894 5.301362089767634 0 0 0
4430 1 -3.756264212914729 76.50846632184896 5.301362089767634 0 0 0
4431 1 -5.517350005414729 75.26378492084895 6.545507113167634 0 0 0
4432 1 -5.517350005414729 75.26378492084895 4.057217066367635 0 0 0
4433 1 -3.756264212914729 76.50846632184896 -7.140135919592366 0 0 1
4434 1 -3.756264212914729 78.99733214584897 -7.140135919592366 0 0 1
4435 1 -5.517350005414729 77.75289923384896 6.545507113167634 0 0 0
4436 1 -3.75630295641473 69.04112338284894 -4.651842886832366 0 0 0
4437 1 -3.756264212914729 71.53023769584895 -4.651842886832366 0 0 0
4438 1 -5.517350005414729 70.28580478384895 -3.407682933632366 0 0 0
4439 1 -5.517350005414729 70.28580478384895 -5.895987910232366 0 0 0
4440 1 -3.756264212914729 71.53023769584895 -2.163537910232366 0 0 0
4441 1 -3.756264212914729 74.01935200884894 -2.163537910232366 0 0 0
4442 1 -5.517350005414729 72.77467060784896 -0.919392886832366 0 0 0
4443 1 -5.517350005414729 72.77467060784896 -3.407682933632366 0 0 0
4444 1 -3.756264212914729 74.01935200884894 0.3247670663676345 0 0 0
4445 1 -3.756264212914729 76.50846632184896 0.3247670663676345 0 0 0
4446 1 -5.517350005414729 75.26378492084895 1.568912089767634 0 0 0
4447 1 -5.517350005414729 75.26378492084895 -0.919392886832366 0 0 0
4448 1 -3.756264212914729 76.50846632184896 2.813057113167634 0 0 0
4449 1 -3.756264212914729 78.99733214584897 2.813057113167634 0 0 0
4450 1 -5.517350005414729 77.75289923384896 4.057217066367635 0 0 0
4451 1 -5.517350005414729 77.75289923384896 1.568912089767634 0 0 0
4452 1 -3.756264212914729 78.99733214584897 5.301362089767634 0 0 0
4453 1 -3.756264212914729 81.48644645884896 5.301362089767634 0 0 0
4454 1 -5.517311261914728 80.24201354684895 6.545507113167634 0 0 0
4455 1 -5.517311261914728 80.24201354684895 4.057217066367635 0 0 0
4456 1 -3.756264212914729 81.48644645884896 -7.140135919592366 0 0 1
4457 1 -5.517350005414729 72.77467060784896 -5.895987910232366 0 0 0
4458 1 -3.756264212914729 74.01935200884894 -4.651842886832366 0 0 0
4459 1 -3.756264212914729 76.50846632184896 -4.651842886832366 0 0 0
4460 1 -5.517350005414729 75.26378492084895 -3.407682933632366 0 0 0
4461 1 -5.517350005414729 75.26378492084895 -5.895987910232366 0 0 0
4462 1 -3.756264212914729 76.50846632184896 -2.163537910232366 0 0 0
4463 1 -3.756264212914729 78.99733214584897 -2.163537910232366 0 0 0
4464 1 -5.517350005414729 77.75289923384896 -0.919392886832366 0 0 0
4465 1 -5.517350005414729 77.75289923384896 -3.407682933632366 0 0 0
4466 1 -3.756264212914729 78.99733214584897 0.3247670663676345 0 0 0
4467 1 -3.756264212914729 81.48644645884896 0.3247670663676345 0 0 0
4468 1 -5.517311261914728 80.24201354684895 1.568912089767634 0 0 0
4469 1 -5.517311261914728 80.24201354684895 -0.919392886832366 0 0 0
4470 1 -3.756264212914729 81.48644645884896 2.813057113167634 0 0 0
4471 1 -5.517350005414729 77.75289923384896 -5.895987910232366 0 0 0
4472 1 -3.756264212914729 78.99733214584897 -4.651842886832366 0 0 0
4473 1 -3.756264212914729 81.48644645884896 -4.651842886832366 0 0 0
4474 1 -5.517311261914728 80.24201354684895 -3.407682933632366 0 0 0
4475 1 -5.517311261914728 80.24201354684895 -5.895987910232366 0 0 0
4476 1 -3.756264212914729 81.48644645884896 -2.163537910232366 0 0 0
4477 1 -7.278435797914728 69.04112338284894 -7.140135919592366 0 0 1
4478 1 -7.278435797914728 69.04112338284894 2.813057113167634 0 0 0
4479 1 -7.278435797914728 69.04112338284894 5.301362089767634 0 0 0
4480 1 -7.278435797914728 71.53023769584895 5.301362089767634 0 0 0
4481 1 -9.03948284691473 70.28580478384895 6.545507113167634 0 0 0
4482 1 -9.03948284691473 70.28580478384895 4.057217066367635 0 0 0
4483 1 -7.278435797914728 71.53023769584895 -7.140135919592366 0 0 1
4484 1 -7.278397054414729 74.01935200884894 -7.140135919592366 0 0 1
4485 1 -9.03948284691473 72.77467060784896 6.545507113167634 0 0 0
4486 1 -7.278435797914728 69.04112338284894 -2.163537910232366 0 0 0
4487 1 -7.278435797914728 69.04112338284894 0.3247670663676345 0 0 0
4488 1 -7.278435797914728 71.53023769584895 0.3247670663676345 0 0 0
4489 1 -9.03948284691473 70.28580478384895 1.568912089767634 0 0 0
4490 1 -9.03948284691473 70.28580478384895 -0.919392886832366 0 0 0
4491 1 -7.278435797914728 71.53023769584895 2.813057113167634 0 0 0
4492 1 -7.278397054414729 74.01935200884894 2.813057113167634 0 0 0
4493 1 -9.03948284691473 72.77467060784896 4.057217066367635 0 0 0
4494 1 -9.03948284691473 72.77467060784896 1.568912089767634 0 0 0
4495 1 -7.278397054414729 74.01935200884894 5.301362089767634 0 0 0
4496 1 -7.278397054414729 76.50846632184896 5.301362089767634 0 0 0
4497 1 -9.03948284691473 75.26378492084895 6.545507113167634 0 0 0
4498 1 -9.03948284691473 75.26378492084895 4.057217066367635 0 0 0
4499 1 -7.278397054414729 76.50846632184896 -7.140135919592366 0 0 1
4500 1 -7.278397054414729 78.99733214584897 -7.140135919592366 0 0 1
4501 1 -9.03948284691473 77.75289923384896 6.545507113167634 0 0 0
4502 1 -7.278435797914728 69.04112338284894 -4.651842886832366 0 0 0
4503 1 -7.278435797914728 71.53023769584895 -4.651842886832366 0 0 0
4504 1 -9.03948284691473 70.28580478384895 -3.407682933632366 0 0 0
4505 1 -9.03948284691473 70.28580478384895 -5.895987910232366 0 0 0
4506 1 -7.278435797914728 71.53023769584895 -2.163537910232366 0 0 0
4507 1 -7.278397054414729 74.01935200884894 -2.163537910232366 0 0 0
4508 1 -9.03948284691473 72.77467060784896 -0.919392886832366 0 0 0
4509 1 -9.03948284691473 72.77467060784896 -3.407682933632366 0 0 0
4510 1 -7.278397054414729 74.01935200884894 0.3247670663676345 0 0 0
4511 1 -7.278397054414729 76.50846632184896 0.3247670663676345 0 0 0
4512 1 -9.03948284691473 75.26378492084895 1.568912089767634 0 0 0
4513 1 -9.03948284691473 75.26378492084895 -0.919392886832366 0 0 0
4514 1 -7.278397054414729 76.50846632184896 2.813057113167634 0 0 0
4515 1 -7.278397054414729 78.99733214584897 2.813057113167634 0 0 0
4516 1 -9.03948284691473 77.75289923384896 4.057217066367635 0 0 0
4517 1 -9.03948284691473 77.75289923384896 1.568912089767634 0 0 0
4518 1 -7.278397054414729 78.99733214584897 5.301362089767634 0 0 0
4519 1 -7.278397054414729 81.48644645884896 5.301362089767634 0 0 0
4520 1 -9.039444103414729 80.24201354684895 6.545507113167634 0 0 0
4521 1 -9.039444103414729 80.24201354684895 4.057217066367635 0 0 0
4522 1 -7.278397054414729 81.48644645884896 -7.140135919592366 0 0 1
4523 1 -9.03948284691473 72.77467060784896 -5.895987910232366 0 0 0
4524 1 -7.278397054414729 74.01935200884894 -4.651842886832366 0 0 0
4525 1 -7.278397054414729 76.50846632184896 -4.651842886832366 0 0 0
4526 1 -9.03948284691473 75.26378492084895 -3.407682933632366 0 0 0
4527 1 -9.03948284691473 75.26378492084895 -5.895987910232366 0 0 0
4528 1 -7.278397054414729 76.50846632184896 -2.163537910232366 0 0 0
4529 1 -7.278397054414729 78.99733214584897 -2.163537910232366 0 0 0
4530 1 -9.03948284691473 77.75289923384896 -0.919392886832366 0 0 0
4531 1 -9.03948284691473 77.75289923384896 -3.407682933632366 0 0 0
4532 1 -7.278397054414729 78.99733214584897 0.3247670663676345 0 0 0
4533 1 -7.278397054414729 81.48644645884896 0.3247670663676345 0 0 0
4534 1 -9.039444103414729 80.24201354684895 1.568912089767634 0 0 0
4535 1 -9.039444103414729 80.24201354684895 -0.919392886832366 0 0 0
4536 1 -7.278397054414729 81.48644645884896 2.813057113167634 0 0 0
4537 1 -9.03948284691473 77.75289923384896 -5.895987910232366 0 0 0
4538 1 -7.278397054414729 78.99733214584897 -4.651842886832366 0 0 0
4539 1 -7.278397054414729 81.48644645884896 -4.651842886832366 0 0 0
4540 1 -9.039444103414729 80.24201354684895 -3.407682933632366 0 0 0
4541 1 -9.039444103414729 80.24201354684895 -5.895987910232366 0 0 0
4542 1 -7.278397054414729 81.48644645884896 -2.163537910232366 0 0 0
4543 1 -10.80056863941473 69.04112338284894 -7.140135919592366 0 0 1
4544 1 -10.80056863941473 69.04112338284894 2.813057113167634 0 0 0
4545 1 -10.80056863941473 69.04112338284894 5.301362089767634 0 0 0
4546 1 -10.80056863941473 71.53023769584895 5.301362089767634 0 0 0
4547 1 -12.56161568841473 70.28580478384895 6.545507113167634 0 0 0
4548 1 -12.56161568841473 70.28580478384895 4.057217066367635 0 0 0
4549 1 -10.80056863941473 71.53023769584895 -7.140135919592366 0 0 1
4550 1 -10.80052989591473 74.01935200884894 -7.140135919592366 0 0 1
4551 1 -12.56161568841473 72.77467060784896 6.545507113167634 0 0 0
4552 1 -10.80056863941473 69.04112338284894 -2.163537910232366 0 0 0
4553 1 -10.80056863941473 69.04112338284894 0.3247670663676345 0 0 0
4554 1 -10.80056863941473 71.53023769584895 0.3247670663676345 0 0 0
4555 1 -12.56161568841473 70.28580478384895 1.568912089767634 0 0 0
4556 1 -12.56161568841473 70.28580478384895 -0.919392886832366 0 0 0
4557 1 -10.80056863941473 71.53023769584895 2.813057113167634 0 0 0
4558 1 -10.80052989591473 74.01935200884894 2.813057113167634 0 0 0
4559 1 -12.56161568841473 72.77467060784896 4.057217066367635 0 0 0
4560 1 -12.56161568841473 72.77467060784896 1.568912089767634 0 0 0
4561 1 -10.80052989591473 74.01935200884894 5.301362089767634 0 0 0
4562 1 -10.80052989591473 76.50846632184896 5.301362089767634 0 0 0
4563 1 -12.56161568841473 75.26378492084895 6.545507113167634 0 0 0
4564 1 -12.56161568841473 75.26378492084895 4.057217066367635 0 0 0
4565 1 -10.80052989591473 76.50846632184896 -7.140135919592366 0 0 1
4566 1 -10.80052989591473 78.99733214584897 -7.140135919592366 0 0 1
4567 1 -12.56161568841473 77.75289923384896 6.545507113167634 0 0 0
4568 1 -10.80056863941473 69.04112338284894 -4.651842886832366 0 0 0
4569 1 -10.80056863941473 71.53023769584895 -4.651842886832366 0 0 0
4570 1 -12.56161568841473 70.28580478384895 -3.407682933632366 0 0 0
4571 1 -12.56161568841473 70.28580478384895 -5.895987910232366 0 0 0
4572 1 -10.80056863941473 71.53023769584895 -2.163537910232366 0 0 0
4573 1 -10.80052989591473 74.01935200884894 -2.163537910232366 0 0 0
4574 1 -12.56161568841473 72.77467060784896 -0.919392886832366 0 0 0
4575 1 -12.56161568841473 72.77467060784896 -3.407682933632366 0 0 0
4576 1 -10.80052989591473 74.01935200884894 0.3247670663676345 0 0 0
4577 1 -10.80052989591473 76.50846632184896 0.3247670663676345 0 0 0
4578 1 -12.56161568841473 75.26378492084895 1.568912089767634 0 0 0
4579 1 -12.56161568841473 75.26378492084895 -0.919392886832366 0 0 0
4580 1 -10.80052989591473 76.50846632184896 2.813057113167634 0 0 0
4581 1 -10.80052989591473 78.99733214584897 2.813057113167634 0 0 0
4582 1 -12.56161568841473 77.75289923384896 4.057217066367635 0 0 0
4583 1 -12.56161568841473 77.75289923384896 1.568912089767634 0 0 0
4584 1 -10.80052989591473 78.99733214584897 5.301362089767634 0 0 0
4585 1 -10.80052989591473 81.48644645884896 5.301362089767634 0 0 0
4586 1 -12.56161568841473 80.24201354684895 6.545507113167634 0 0 0
4587 1 -12.56161568841473 80.24201354684895 4.057217066367635 0 0 0
4588 1 -10.80052989591473 81.48644645884896 -7.140135919592366 0 0 1
4589 1 -12.56161568841473 72.77467060784896 -5.895987910232366 0 0 0
4590 1 -10.80052989591473 74.01935200884894 -4.651842886832366 0 0 0
4591 1 -10.80052989591473 76.50846632184896 -4.651842886832366 0 0 0
4592 1 -12.56161568841473 75.26378492084895 -3.407682933632366 0 0 0
4593 1 -12.56161568841473 75.26378492084895 -5.895987910232366 0 0 0
4594 1 -10.80052989591473 76.50846632184896 -2.163537910232366 0 0 0
4595 1 -10.80052989591473 78.99733214584897 -2.163537910232366 0 0 0
4596 1 -12.56161568841473 77.75289923384896 -0.919392886832366 0 0 0
4597 1 -12.56161568841473 77.75289923384896 -3.407682933632366 0 0 0
4598 1 -10.80052989591473 78.99733214584897 0.3247670663676345 0 0 0
4599 1 -10.80052989591473 81.48644645884896 0.3247670663676345 0 0 0
4600 1 -12.56161568841473 80.24201354684895 1.568912089767634 0 0 0
4601 1 -12.56161568841473 80.24201354684895 -0.919392886832366 0 0 0
4602 1 -10.80052989591473 81.48644645884896 2.813057113167634 0 0 0
4603 1 -12.56161568841473 77.75289923384896 -5.895987910232366 0 0 0
4604 1 -10.80052989591473 78.99733214584897 -4.651842886832366 0 0 0
4605 1 -10.80052989591473 81.48644645884896 -4.651842886832366 0 0 0
4606 1 -12.56161568841473 80.24201354684895 -3.407682933632366 0 0 0
4607 1 -12.56161568841473 80.24201354684895 -5.895987910232366 0 0 0
4608 1 -10.80052989591473 81.48644645884896 -2.163537910232366 0 0 0
4609 1 -14.32270148091473 69.04112338284894 -7.140135919592366 0 0 1
4610 1 -14.32270148091473 69.04112338284894 2.813057113167634 0 0 0
4611 1 -14.32270148091473 69.04112338284894 5.301362089767634 0 0 0
4612 1 -14.32270148091473 71.53023769584895 5.301362089767634 0 0 0
4613 1 -14.32270148091473 71.53023769584895 -7.140135919592366 0 0 1
4614 1 -14.32270148091473 74.01935200884894 -7.140135919592366 0 0 1
4615 1 -14.32270148091473 69.04112338284894 -2.163537910232366 0 0 0
4616 1 -14.32270148091473 69.04112338284894 0.3247670663676345 0 0 0
4617 1 -14.32270148091473 71.53023769584895 0.3247670663676345 0 0 0
4618 1 -14.32270148091473 71.53023769584895 2.813057113167634 0 0 0
4619 1 -14.32270148091473 74.01935200884894 2.813057113167634 0 0 0
4620 1 -14.32270148091473 74.01935200884894 5.301362089767634 0 0 0
4621 1 -14.32266273741473 76.50846632184896 5.301362089767634 0 0 0
4622 1 -14.32266273741473 76.50846632184896 -7.140135919592366 0 0 1
4623 1 -14.32266273741473 78.99758063484894 -7.140135919592366 0 0 1
4624 1 -14.32270148091473 69.04112338284894 -4.651842886832366 0 0 0
4625 1 -14.32270148091473 71.53023769584895 -4.651842886832366 0 0 0
4626 1 -14.32270148091473 71.53023769584895 -2.163537910232366 0 0 0
4627 1 -14.32270148091473 74.01935200884894 -2.163537910232366 0 0 0
4628 1 -14.32270148091473 74.01935200884894 0.3247670663676345 0 0 0
4629 1 -14.32266273741473 76.50846632184896 0.3247670663676345 0 0 0
4630 1 -14.32266273741473 76.50846632184896 2.813057113167634 0 0 0
4631 1 -14.32266273741473 78.99758063484894 2.813057113167634 0 0 0
4632 1 -14.32266273741473 78.99758063484894 5.301362089767634 0 0 0
4633 1 -14.32266273741473 81.48644645884896 5.301362089767634 0 0 0
4634 1 -14.32266273741473 81.48644645884896 -7.140135919592366 0 0 1
4635 1 -14.32270148091473 74.01935200884894 -4.651842886832366 0 0 0
4636 1 -14.32266273741473 76.50846632184896 -4.651842886832366 0 0 0
4637 1 -14.32266273741473 76.50846632184896 -2.163537910232366 0 0 0
4638 1 -14.32266273741473 78.99758063484894 -2.163537910232366 0 0 0
4639 1 -14.32266273741473 78.99758063484894 0.3247670663676345 0 0 0
4640 1 -14.32266273741473 81.48644645884896 0.3247670663676345 0 0 0
4641 1 -14.32266273741473 81.48644645884896 2.813057113167634 0 0 0
4642 1 -14.32266273741473 78.99758063484894 -4.651842886832366 0 0 0
4643 1 -14.32266273741473 81.48644645884896 -4.651842886832366 0 0 0
4644 1 -14.32266273741473 81.48644645884896 -2.163537910232366 0 0 0
4645 1 1.526954421085271 82.73112785984897 6.545507113167634 0 0 0
4646 1 1.526954421085271 82.73112785984897 4.057217066367635 0 0 0
4647 1 1.526954421085271 82.73112785984897 1.568912089767634 0 0 0
4648 1 1.526954421085271 85.22024217284896 6.545507113167634 0 0 0
4649 1 1.526954421085271 85.22024217284896 4.057217066367635 0 0 0
4650 1 1.526954421085271 87.70910799684894 6.545507113167634 0 0 0
4651 1 1.526954421085271 82.73112785984897 -0.919392886832366 0 0 0
4652 1 1.526954421085271 82.73112785984897 -3.407682933632366 0 0 0
4653 1 1.526954421085271 85.22024217284896 1.568912089767634 0 0 0
4654 1 1.526954421085271 85.22024217284896 -0.919392886832366 0 0 0
4655 1 1.526954421085271 87.70910799684894 4.057217066367635 0 0 0
4656 1 1.526954421085271 87.70910799684894 1.568912089767634 0 0 0
4657 1 1.526954421085271 90.19822230984896 6.545507113167634 0 0 0
4658 1 1.526954421085271 90.19822230984896 4.057217066367635 0 0 0
4659 1 1.526993164585271 92.68733662284895 6.545507113167634 0 0 0
4660 1 1.526954421085271 82.73112785984897 -5.895987910232366 0 0 0
4661 1 1.526954421085271 85.22024217284896 -3.407682933632366 0 0 0
4662 1 1.526954421085271 85.22024217284896 -5.895987910232366 0 0 0
4663 1 1.526954421085271 87.70910799684894 -0.919392886832366 0 0 0
4664 1 1.526954421085271 87.70910799684894 -3.407682933632366 0 0 0
4665 1 1.526954421085271 90.19822230984896 1.568912089767634 0 0 0
4666 1 1.526954421085271 90.19822230984896 -0.919392886832366 0 0 0
4667 1 1.526993164585271 92.68733662284895 4.057217066367635 0 0 0
4668 1 1.526993164585271 92.68733662284895 1.568912089767634 0 0 0
4669 1 1.526993164585271 95.17645093584896 6.545507113167634 0 0 0
4670 1 1.526993164585271 95.17645093584896 4.057217066367635 0 0 0
4671 1 1.526954421085271 87.70910799684894 -5.895987910232366 0 0 0
4672 1 1.526954421085271 90.19822230984896 -3.407682933632366 0 0 0
4673 1 1.526954421085271 90.19822230984896 -5.895987910232366 0 0 0
4674 1 1.526993164585271 92.68733662284895 -0.919392886832366 0 0 0
4675 1 1.526993164585271 92.68733662284895 -3.407682933632366 0 0 0
4676 1 1.526993164585271 95.17645093584896 1.568912089767634 0 0 0
4677 1 1.526993164585271 95.17645093584896 -0.919392886832366 0 0 0
4678 1 1.526993164585271 92.68733662284895 -5.895987910232366 0 0 0
4679 1 1.526993164585271 95.17645093584896 -3.407682933632366 0 0 0
4680 1 1.526993164585271 95.17645093584896 -5.895987910232366 0 0 0
4681 1 -0.2341313714147297 83.97556077184895 -7.140135919592366 0 0 1
4682 1 -1.995178420414732 82.73112785984897 6.545507113167634 0 0 0
4683 1 -0.2341313714147297 83.97556077184895 2.813057113167634 0 0 0
4684 1 -1.995178420414732 82.73112785984897 4.057217066367635 0 0 0
4685 1 -1.995178420414732 82.73112785984897 1.568912089767634 0 0 0
4686 1 -0.2341313714147297 83.97556077184895 5.301362089767634 0 0 0
4687 1 -0.2340926279147304 86.46467508484893 5.301362089767634 0 0 0
4688 1 -1.995178420414732 85.22024217284896 6.545507113167634 0 0 0
4689 1 -1.995178420414732 85.22024217284896 4.057217066367635 0 0 0
4690 1 -0.2340926279147304 86.46467508484893 -7.140135919592366 0 0 1
4691 1 -0.2340926279147304 88.95378939784895 -7.140135919592366 0 0 1
4692 1 -1.995178420414732 87.70910799684894 6.545507113167634 0 0 0
4693 1 -0.2341313714147297 83.97556077184895 -2.163537910232366 0 0 0
4694 1 -1.995178420414732 82.73112785984897 -0.919392886832366 0 0 0
4695 1 -1.995178420414732 82.73112785984897 -3.407682933632366 0 0 0
4696 1 -0.2341313714147297 83.97556077184895 0.3247670663676345 0 0 0
4697 1 -0.2340926279147304 86.46467508484893 0.3247670663676345 0 0 0
4698 1 -1.995178420414732 85.22024217284896 1.568912089767634 0 0 0
4699 1 -1.995178420414732 85.22024217284896 -0.919392886832366 0 0 0
4700 1 -0.2340926279147304 86.46467508484893 2.813057113167634 0 0 0
4701 1 -0.2340926279147304 88.95378939784895 2.813057113167634 0 0 0
4702 1 -1.995178420414732 87.70910799684894 4.057217066367635 0 0 0
4703 1 -1.995178420414732 87.70910799684894 1.568912089767634 0 0 0
4704 1 -0.2340926279147304 88.95378939784895 5.301362089767634 0 0 0
4705 1 -0.2340926279147304 91.44265522184897 5.301362089767634 0 0 0
4706 1 -1.995178420414732 90.19822230984896 6.545507113167634 0 0 0
4707 1 -1.995178420414732 90.19822230984896 4.057217066367635 0 0 0
4708 1 -0.2340926279147304 91.44265522184897 -7.140135919592366 0 0 1
4709 1 -0.2340926279147304 93.93176953484895 -7.140135919592366 0 0 1
4710 1 -1.995178420414732 92.68733662284895 6.545507113167634 0 0 0
4711 1 -1.995178420414732 82.73112785984897 -5.895987910232366 0 0 0
4712 1 -0.2341313714147297 83.97556077184895 -4.651842886832366 0 0 0
4713 1 -0.2340926279147304 86.46467508484893 -4.651842886832366 0 0 0
4714 1 -1.995178420414732 85.22024217284896 -3.407682933632366 0 0 0
4715 1 -1.995178420414732 85.22024217284896 -5.895987910232366 0 0 0
4716 1 -0.2340926279147304 86.46467508484893 -2.163537910232366 0 0 0
4717 1 -0.2340926279147304 88.95378939784895 -2.163537910232366 0 0 0
4718 1 -1.995178420414732 87.70910799684894 -0.919392886832366 0 0 0
4719 1 -1.995178420414732 87.70910799684894 -3.407682933632366 0 0 0
4720 1 -0.2340926279147304 88.95378939784895 0.3247670663676345 0 0 0
4721 1 -0.2340926279147304 91.44265522184897 0.3247670663676345 0 0 0
4722 1 -1.995178420414732 90.19822230984896 1.568912089767634 0 0 0
4723 1 -1.995178420414732 90.19822230984896 -0.919392886832366 0 0 0
4724 1 -0.2340926279147304 91.44265522184897 2.813057113167634 0 0 0
4725 1 -0.2340926279147304 93.93176953484895 2.813057113167634 0 0 0
4726 1 -1.995178420414732 92.68733662284895 4.057217066367635 0 0 0
4727 1 -1.995178420414732 92.68733662284895 1.568912089767634 0 0 0
4728 1 -0.2340926279147304 93.93176953484895 5.301362089767634 0 0 0
4729 1 -1.995139676914729 95.17645093584896 6.545507113167634 0 0 0
4730 1 -1.995139676914729 95.17645093584896 4.057217066367635 0 0 0
4731 1 -1.995178420414732 87.70910799684894 -5.895987910232366 0 0 0
4732 1 -0.2340926279147304 88.95378939784895 -4.651842886832366 0 0 0
4733 1 -0.2340926279147304 91.44265522184897 -4.651842886832366 0 0 0
4734 1 -1.995178420414732 90.19822230984896 -3.407682933632366 0 0 0
4735 1 -1.995178420414732 90.19822230984896 -5.895987910232366 0 0 0
4736 1 -0.2340926279147304 91.44265522184897 -2.163537910232366 0 0 0
4737 1 -0.2340926279147304 93.93176953484895 -2.163537910232366 0 0 0
4738 1 -1.995178420414732 92.68733662284895 -0.919392886832366 0 0 0
4739 1 -1.995178420414732 92.68733662284895 -3.407682933632366 0 0 0
4740 1 -0.2340926279147304 93.93176953484895 0.3247670663676345 0 0 0
4741 1 -1.995139676914729 95.17645093584896 1.568912089767634 0 0 0
4742 1 -1.995139676914729 95.17645093584896 -0.919392886832366 0 0 0
4743 1 -1.995178420414732 92.68733662284895 -5.895987910232366 0 0 0
4744 1 -0.2340926279147304 93.93176953484895 -4.651842886832366 0 0 0
4745 1 -1.995139676914729 95.17645093584896 -3.407682933632366 0 0 0
4746 1 -1.995139676914729 95.17645093584896 -5.895987910232366 0 0 0
4747 1 -3.756264212914729 83.97556077184895 -7.140135919592366 0 0 1
4748 1 -5.517311261914728 82.73112785984897 6.545507113167634 0 0 0
4749 1 -3.756264212914729 83.97556077184895 2.813057113167634 0 0 0
4750 1 -5.517311261914728 82.73112785984897 4.057217066367635 0 0 0
4751 1 -5.517311261914728 82.73112785984897 1.568912089767634 0 0 0
4752 1 -3.756264212914729 83.97556077184895 5.301362089767634 0 0 0
4753 1 -3.75622546941473 86.46467508484893 5.301362089767634 0 0 0
4754 1 -5.517311261914728 85.22024217284896 6.545507113167634 0 0 0
4755 1 -5.517311261914728 85.22024217284896 4.057217066367635 0 0 0
4756 1 -3.75622546941473 86.46467508484893 -7.140135919592366 0 0 1
4757 1 -3.75622546941473 88.95378939784895 -7.140135919592366 0 0 1
4758 1 -5.517311261914728 87.70910799684894 6.545507113167634 0 0 0
4759 1 -3.756264212914729 83.97556077184895 -2.163537910232366 0 0 0
4760 1 -5.517311261914728 82.73112785984897 -0.919392886832366 0 0 0
4761 1 -5.517311261914728 82.73112785984897 -3.407682933632366 0 0 0
4762 1 -3.756264212914729 83.97556077184895 0.3247670663676345 0 0 0
4763 1 -3.75622546941473 86.46467508484893 0.3247670663676345 0 0 0
4764 1 -5.517311261914728 85.22024217284896 1.568912089767634 0 0 0
4765 1 -5.517311261914728 85.22024217284896 -0.919392886832366 0 0 0
4766 1 -3.75622546941473 86.46467508484893 2.813057113167634 0 0 0
4767 1 -3.75622546941473 88.95378939784895 2.813057113167634 0 0 0
4768 1 -5.517311261914728 87.70910799684894 4.057217066367635 0 0 0
4769 1 -5.517311261914728 87.70910799684894 1.568912089767634 0 0 0
4770 1 -3.75622546941473 88.95378939784895 5.301362089767634 0 0 0
4771 1 -3.75622546941473 91.44265522184897 5.301362089767634 0 0 0
4772 1 -5.517311261914728 90.19822230984896 6.545507113167634 0 0 0
4773 1 -5.517311261914728 90.19822230984896 4.057217066367635 0 0 0
4774 1 -3.75622546941473 91.44265522184897 -7.140135919592366 0 0 1
4775 1 -3.75622546941473 93.93176953484895 -7.140135919592366 0 0 1
4776 1 -5.517311261914728 92.68733662284895 6.545507113167634 0 0 0
4777 1 -5.517311261914728 82.73112785984897 -5.895987910232366 0 0 0
4778 1 -3.756264212914729 83.97556077184895 -4.651842886832366 0 0 0
4779 1 -3.75622546941473 86.46467508484893 -4.651842886832366 0 0 0
4780 1 -5.517311261914728 85.22024217284896 -3.407682933632366 0 0 0
4781 1 -5.517311261914728 85.22024217284896 -5.895987910232366 0 0 0
4782 1 -3.75622546941473 86.46467508484893 -2.163537910232366 0 0 0
4783 1 -3.75622546941473 88.95378939784895 -2.163537910232366 0 0 0
4784 1 -5.517311261914728 87.70910799684894 -0.919392886832366 0 0 0
4785 1 -5.517311261914728 87.70910799684894 -3.407682933632366 0 0 0
4786 1 -3.75622546941473 88.95378939784895 0.3247670663676345 0 0 0
4787 1 -3.75622546941473 91.44265522184897 0.3247670663676345 0 0 0
4788 1 -5.517311261914728 90.19822230984896 1.568912089767634 0 0 0
4789 1 -5.517311261914728 90.19822230984896 -0.919392886832366 0 0 0
4790 1 -3.75622546941473 91.44265522184897 2.813057113167634 0 0 0
4791 1 -3.75622546941473 93.93176953484895 2.813057113167634 0 0 0
4792 1 -5.517311261914728 92.68733662284895 4.057217066367635 0 0 0
4793 1 -5.517311261914728 92.68733662284895 1.568912089767634 0 0 0
4794 1 -3.75622546941473 93.93176953484895 5.301362089767634 0 0 0
4795 1 -5.51727251841473 95.17645093584896 6.545507113167634 0 0 0
4796 1 -5.51727251841473 95.17645093584896 4.057217066367635 0 0 0
4797 1 -5.517311261914728 87.70910799684894 -5.895987910232366 0 0 0
4798 1 -3.75622546941473 88.95378939784895 -4.651842886832366 0 0 0
4799 1 -3.75622546941473 91.44265522184897 -4.651842886832366 0 0 0
4800 1 -5.517311261914728 90.19822230984896 -3.407682933632366 0 0 0
4801 1 -5.517311261914728 90.19822230984896 -5.895987910232366 0 0 0
4802 1 -3.75622546941473 91.44265522184897 -2.163537910232366 0 0 0
4803 1 -3.75622546941473 93.93176953484895 -2.163537910232366 0 0 0
4804 1 -5.517311261914728 92.68733662284895 -0.919392886832366 0 0 0
4805 1 -5.517311261914728 92.68733662284895 -3.407682933632366 0 0 0
4806 1 -3.75622546941473 93.93176953484895 0.3247670663676345 0 0 0
4807 1 -5.51727251841473 95.17645093584896 1.568912089767634 0 0 0
4808 1 -5.51727251841473 95.17645093584896 -0.919392886832366 0 0 0
4809 1 -5.517311261914728 92.68733662284895 -5.895987910232366 0 0 0
4810 1 -3.75622546941473 93.93176953484895 -4.651842886832366 0 0 0
4811 1 -5.51727251841473 95.17645093584896 -3.407682933632366 0 0 0
4812 1 -5.51727251841473 95.17645093584896 -5.895987910232366 0 0 0
4813 1 -7.278397054414729 83.97556077184895 -7.140135919592366 0 0 1
4814 1 -9.039444103414729 82.73112785984897 6.545507113167634 0 0 0
4815 1 -7.278397054414729 83.97556077184895 2.813057113167634 0 0 0
4816 1 -9.039444103414729 82.73112785984897 4.057217066367635 0 0 0
4817 1 -9.039444103414729 82.73112785984897 1.568912089767634 0 0 0
4818 1 -7.278397054414729 83.97556077184895 5.301362089767634 0 0 0
4819 1 -7.278397054414729 86.46467508484893 5.301362089767634 0 0 0
4820 1 -9.039444103414729 85.22024217284896 6.545507113167634 0 0 0
4821 1 -9.039444103414729 85.22024217284896 4.057217066367635 0 0 0
4822 1 -7.278397054414729 86.46467508484893 -7.140135919592366 0 0 1
4823 1 -7.278358310914729 88.95378939784895 -7.140135919592366 0 0 1
4824 1 -9.039444103414729 87.70910799684894 6.545507113167634 0 0 0
4825 1 -7.278397054414729 83.97556077184895 -2.163537910232366 0 0 0
4826 1 -9.039444103414729 82.73112785984897 -0.919392886832366 0 0 0
4827 1 -9.039444103414729 82.73112785984897 -3.407682933632366 0 0 0
4828 1 -7.278397054414729 83.97556077184895 0.3247670663676345 0 0 0
4829 1 -7.278397054414729 86.46467508484893 0.3247670663676345 0 0 0
4830 1 -9.039444103414729 85.22024217284896 1.568912089767634 0 0 0
4831 1 -9.039444103414729 85.22024217284896 -0.919392886832366 0 0 0
4832 1 -7.278397054414729 86.46467508484893 2.813057113167634 0 0 0
4833 1 -7.278358310914729 88.95378939784895 2.813057113167634 0 0 0
4834 1 -9.039444103414729 87.70910799684894 4.057217066367635 0 0 0
4835 1 -9.039444103414729 87.70910799684894 1.568912089767634 0 0 0
4836 1 -7.278358310914729 88.95378939784895 5.301362089767634 0 0 0
4837 1 -7.278358310914729 91.44265522184897 5.301362089767634 0 0 0
4838 1 -9.039444103414729 90.19822230984896 6.545507113167634 0 0 0
4839 1 -9.039444103414729 90.19822230984896 4.057217066367635 0 0 0
4840 1 -7.278358310914729 91.44265522184897 -7.140135919592366 0 0 1
4841 1 -7.278358310914729 93.93176953484895 -7.140135919592366 0 0 1
4842 1 -9.039444103414729 92.68733662284895 6.545507113167634 0 0 0
4843 1 -9.039444103414729 82.73112785984897 -5.895987910232366 0 0 0
4844 1 -7.278397054414729 83.97556077184895 -4.651842886832366 0 0 0
4845 1 -7.278397054414729 86.46467508484893 -4.651842886832366 0 0 0
4846 1 -9.039444103414729 85.22024217284896 -3.407682933632366 0 0 0
4847 1 -9.039444103414729 85.22024217284896 -5.895987910232366 0 0 0
4848 1 -7.278397054414729 86.46467508484893 -2.163537910232366 0 0 0
4849 1 -7.278358310914729 88.95378939784895 -2.163537910232366 0 0 0
4850 1 -9.039444103414729 87.70910799684894 -0.919392886832366 0 0 0
4851 1 -9.039444103414729 87.70910799684894 -3.407682933632366 0 0 0
4852 1 -7.278358310914729 88.95378939784895 0.3247670663676345 0 0 0
4853 1 -7.278358310914729 91.44265522184897 0.3247670663676345 0 0 0
4854 1 -9.039444103414729 90.19822230984896 1.568912089767634 0 0 0
4855 1 -9.039444103414729 90.19822230984896 -0.919392886832366 0 0 0
4856 1 -7.278358310914729 91.44265522184897 2.813057113167634 0 0 0
4857 1 -7.278358310914729 93.93176953484895 2.813057113167634 0 0 0
4858 1 -9.039444103414729 92.68733662284895 4.057217066367635 0 0 0
4859 1 -9.039444103414729 92.68733662284895 1.568912089767634 0 0 0
4860 1 -7.278358310914729 93.93176953484895 5.301362089767634 0 0 0
4861 1 -9.039444103414729 95.17645093584896 6.545507113167634 0 0 0
4862 1 -9.039444103414729 95.17645093584896 4.057217066367635 0 0 0
4863 1 -9.039444103414729 87.70910799684894 -5.895987910232366 0 0 0
4864 1 -7.278358310914729 88.95378939784895 -4.651842886832366 0 0 0
4865 1 -7.278358310914729 91.44265522184897 -4.651842886832366 0 0 0
4866 1 -9.039444103414729 90.19822230984896 -3.407682933632366 0 0 0
4867 1 -9.039444103414729 90.19822230984896 -5.895987910232366 0 0 0
4868 1 -7.278358310914729 91.44265522184897 -2.163537910232366 0 0 0
4869 1 -7.278358310914729 93.93176953484895 -2.163537910232366 0 0 0
4870 1 -9.039444103414729 92.68733662284895 -0.919392886832366 0 0 0
4871 1 -9.039444103414729 92.68733662284895 -3.407682933632366 0 0 0
4872 1 -7.278358310914729 93.93176953484895 0.3247670663676345 0 0 0
4873 1 -9.039444103414729 95.17645093584896 1.568912089767634 0 0 0
4874 1 -9.039444103414729 95.17645093584896 -0.919392886832366 0 0 0
4875 1 -9.039444103414729 92.68733662284895 -5.895987910232366 0 0 0
4876 1 -7.278358310914729 93.93176953484895 -4.651842886832366 0 0 0
4877 1 -9.039444103414729 95.17645093584896 -3.407682933632366 0 0 0
4878 1 -9.039444103414729 95.17645093584896 -5.895987910232366 0 0 0
4879 1 -10.80052989591473 83.97556077184895 -7.140135919592366 0 0 1
4880 1 -12.56157694491473 82.73112785984897 6.545507113167634 0 0 0
4881 1 -10.80052989591473 83.97556077184895 2.813057113167634 0 0 0
4882 1 -12.56157694491473 82.73112785984897 4.057217066367635 0 0 0
4883 1 -12.56157694491473 82.73112785984897 1.568912089767634 0 0 0
4884 1 -10.80052989591473 83.97556077184895 5.301362089767634 0 0 0
4885 1 -10.80052989591473 86.46467508484893 5.301362089767634 0 0 0
4886 1 -12.56157694491473 85.22024217284896 6.545507113167634 0 0 0
4887 1 -12.56157694491473 85.22024217284896 4.057217066367635 0 0 0
4888 1 -10.80052989591473 86.46467508484893 -7.140135919592366 0 0 1
4889 1 -10.80049115241473 88.95378939784895 -7.140135919592366 0 0 1
4890 1 -12.56157694491473 87.70910799684894 6.545507113167634 0 0 0
4891 1 -10.80052989591473 83.97556077184895 -2.163537910232366 0 0 0
4892 1 -12.56157694491473 82.73112785984897 -0.919392886832366 0 0 0
4893 1 -12.56157694491473 82.73112785984897 -3.407682933632366 0 0 0
4894 1 -10.80052989591473 83.97556077184895 0.3247670663676345 0 0 0
4895 1 -10.80052989591473 86.46467508484893 0.3247670663676345 0 0 0
4896 1 -12.56157694491473 85.22024217284896 1.568912089767634 0 0 0
4897 1 -12.56157694491473 85.22024217284896 -0.919392886832366 0 0 0
4898 1 -10.80052989591473 86.46467508484893 2.813057113167634 0 0 0
4899 1 -10.80049115241473 88.95378939784895 2.813057113167634 0 0 0
4900 1 -12.56157694491473 87.70910799684894 4.057217066367635 0 0 0
4901 1 -12.56157694491473 87.70910799684894 1.568912089767634 0 0 0
4902 1 -10.80049115241473 88.95378939784895 5.301362089767634 0 0 0
4903 1 -10.80049115241473 91.44265522184897 5.301362089767634 0 0 0
4904 1 -12.56157694491473 90.19822230984896 6.545507113167634 0 0 0
4905 1 -12.56157694491473 90.19822230984896 4.057217066367635 0 0 0
4906 1 -10.80049115241473 91.44265522184897 -7.140135919592366 0 0 1
4907 1 -10.80049115241473 93.93176953484895 -7.140135919592366 0 0 1
4908 1 -12.56157694491473 92.68733662284895 6.545507113167634 0 0 0
4909 1 -12.56157694491473 82.73112785984897 -5.895987910232366 0 0 0
4910 1 -10.80052989591473 83.97556077184895 -4.651842886832366 0 0 0
4911 1 -10.80052989591473 86.46467508484893 -4.651842886832366 0 0 0
4912 1 -12.56157694491473 85.22024217284896 -3.407682933632366 0 0 0
4913 1 -12.56157694491473 85.22024217284896 -5.895987910232366 0 0 0
4914 1 -10.80052989591473 86.46467508484893 -2.163537910232366 0 0 0
4915 1 -10.80049115241473 88.95378939784895 -2.163537910232366 0 0 0
4916 1 -12.56157694491473 87.70910799684894 -0.919392886832366 0 0 0
4917 1 -12.56157694491473 87.70910799684894 -3.407682933632366 0 0 0
4918 1 -10.80049115241473 88.95378939784895 0.3247670663676345 0 0 0
4919 1 -10.80049115241473 91.44265522184897 0.3247670663676345 0 0 0
4920 1 -12.56157694491473 90.19822230984896 1.568912089767634 0 0 0
4921 1 -12.56157694491473 90.19822230984896 -0.919392886832366 0 0 0
4922 1 -10.80049115241473 91.44265522184897 2.813057113167634 0 0 0
4923 1 -10.80049115241473 93.93176953484895 2.813057113167634 0 0 0
4924 1 -12.56157694491473 92.68733662284895 4.057217066367635 0 0 0
4925 1 -12.56157694491473 92.68733662284895 1.568912089767634 0 0 0
4926 1 -10.80049115241473 93.93176953484895 5.301362089767634 0 0 0
4927 1 -12.56157694491473 95.17645093584896 6.545507113167634 0 0 0
4928 1 -12.56157694491473 95.17645093584896 4.057217066367635 0 0 0
4929 1 -12.56157694491473 87.70910799684894 -5.895987910232366 0 0 0
4930 1 -10.80049115241473 88.95378939784895 -4.651842886832366 0 0 0
4931 1 -10.80049115241473 91.44265522184897 -4.651842886832366 0 0 0
4932 1 -12.56157694491473 90.19822230984896 -3.407682933632366 0 0 0
4933 1 -12.56157694491473 90.19822230984896 -5.895987910232366 0 0 0
4934 1 -10.80049115241473 91.44265522184897 -2.163537910232366 0 0 0
4935 1 -10.80049115241473 93.93176953484895 -2.163537910232366 0 0 0
4936 1 -12.56157694491473 92.68733662284895 -0.919392886832366 0 0 0
4937 1 -12.56157694491473 92.68733662284895 -3.407682933632366 0 0 0
4938 1 -10.80049115241473 93.93176953484895 0.3247670663676345 0 0 0
4939 1 -12.56157694491473 95.17645093584896 1.568912089767634 0 0 0
4940 1 -12.56157694491473 95.17645093584896 -0.919392886832366 0 0 0
4941 1 -12.56157694491473 92.68733662284895 -5.895987910232366 0 0 0
4942 1 -10.80049115241473 93.93176953484895 -4.651842886832366 0 0 0
4943 1 -12.56157694491473 95.17645093584896 -3.407682933632366 0 0 0
4944 1 -12.56157694491473 95.17645093584896 -5.895987910232366 0 0 0
4945 1 -14.32266273741473 83.97556077184895 -7.140135919592366 0 0 1
4946 1 -14.32266273741473 83.97556077184895 2.813057113167634 0 0 0
4947 1 -14.32266273741473 83.97556077184895 5.301362089767634 0 0 0
4948 1 -14.32266273741473 86.46467508484893 5.301362089767634 0 0 0
4949 1 -14.32266273741473 86.46467508484893 -7.140135919592366 0 0 1
4950 1 -14.32266273741473 88.95378939784895 -7.140135919592366 0 0 1
4951 1 -14.32266273741473 83.97556077184895 -2.163537910232366 0 0 0
4952 1 -14.32266273741473 83.97556077184895 0.3247670663676345 0 0 0
4953 1 -14.32266273741473 86.46467508484893 0.3247670663676345 0 0 0
4954 1 -14.32266273741473 86.46467508484893 2.813057113167634 0 0 0
4955 1 -14.32266273741473 88.95378939784895 2.813057113167634 0 0 0
4956 1 -14.32266273741473 88.95378939784895 5.301362089767634 0 0 0
4957 1 -14.32262399391473 91.44265522184897 5.301362089767634 0 0 0
4958 1 -14.32262399391473 91.44265522184897 -7.140135919592366 0 0 1
4959 1 -14.32262399391473 93.93176953484895 -7.140135919592366 0 0 1
4960 1 -14.32266273741473 83.97556077184895 -4.651842886832366 0 0 0
4961 1 -14.32266273741473 86.46467508484893 -4.651842886832366 0 0 0
4962 1 -14.32266273741473 86.46467508484893 -2.163537910232366 0 0 0
4963 1 -14.32266273741473 88.95378939784895 -2.163537910232366 0 0 0
4964 1 -14.32266273741473 88.95378939784895 0.3247670663676345 0 0 0
4965 1 -14.32262399391473 91.44265522184897 0.3247670663676345 0 0 0
4966 1 -14.32262399391473 91.44265522184897 2.813057113167634 0 0 0
4967 1 -14.32262399391473 93.93176953484895 2.813057113167634 0 0 0
4968 1 -14.32262399391473 93.93176953484895 5.301362089767634 0 0 0
4969 1 -14.32266273741473 88.95378939784895 -4.651842886832366 0 0 0
4970 1 -14.32262399391473 91.44265522184897 -4.651842886832366 0 0 0
4971 1 -14.32262399391473 91.44265522184897 -2.163537910232366 0 0 0
4972 1 -14.32262399391473 93.93176953484895 -2.163537910232366 0 0 0
4973 1 -14.32262399391473 93.93176953484895 0.3247670663676345 0 0 0
4974 1 -14.32262399391473 93.93176953484895 -4.651842886832366 0 0 0
4975 1 1.526993164585271 97.66606222684895 6.545507113167634 0 0 0
4976 1 1.526993164585271 97.66606222684895 4.057217066367635 0 0 0
4977 1 1.526993164585271 97.66606222684895 1.568912089767634 0 0 0
4978 1 1.526993164585271 100.1569159628489 6.545507113167634 0 0 0
4979 1 1.526993164585271 100.1569159628489 4.057217066367635 0 0 0
4980 1 1.526993164585271 102.6505030778489 6.545507113167634 0 0 0
4981 1 1.526993164585271 97.66606222684895 -0.919392886832366 0 0 0
4982 1 1.526993164585271 97.66606222684895 -3.407682933632366 0 0 0
4983 1 1.526993164585271 100.1569159628489 1.568912089767634 0 0 0
4984 1 1.526993164585271 100.1569159628489 -0.919392886832366 0 0 0
4985 1 1.526993164585271 102.6505030778489 4.057217066367635 0 0 0
4986 1 1.526993164585271 102.6505030778489 1.568912089767634 0 0 0
4987 1 1.526993164585271 97.66606222684895 -5.895987910232366 0 0 0
4988 1 1.526993164585271 100.1569159628489 -3.407682933632366 0 0 0
4989 1 1.526993164585271 100.1569159628489 -5.895987910232366 0 0 0
4990 1 1.526993164585271 102.6505030778489 -0.919392886832366 0 0 0
4991 1 1.526993164585271 102.6505030778489 -3.407682933632366 0 0 0
4992 1 1.526993164585271 102.6505030778489 -5.895987910232366 0 0 0
4993 1 -0.2340926279147304 96.42063535884897 5.301362089767634 0 0 0
4994 1 -0.2340926279147304 96.42063535884897 -7.140135919592366 0 0 1
4995 1 -0.2340926279147304 98.90825873784895 -7.140135919592366 0 0 1
4996 1 -1.995139676914729 97.66606222684895 6.545507113167634 0 0 0
4997 1 -0.2340926279147304 96.42063535884897 0.3247670663676345 0 0 0
4998 1 -0.2340926279147304 96.42063535884897 2.813057113167634 0 0 0
4999 1 -0.2340926279147304 98.90825873784895 2.813057113167634 0 0 0
5000 1 -1.995139676914729 97.66606222684895 4.057217066367635 0 0 0
5001 1 -1.995139676914729 97.66606222684895 1.568912089767634 0 0 0
5002 1 -0.2340926279147304 98.90825873784895 5.301362089767634 0 0 0
5003 1 -0.2340538844147311 101.390912336849 5.301362089767634 0 0 0
5004 1 -1.995139676914729 100.1569159628489 6.545507113167634 0 0 0
5005 1 -1.995139676914729 100.1569159628489 4.057217066367635 0 0 0
5006 1 -0.2340538844147311 101.390912336849 -7.140135919592366 0 0 1
5007 1 -0.2340538844147311 103.874311402849 -7.140135919592366 0 0 1
5008 1 -1.995139676914729 102.6505030778489 6.545507113167634 0 0 0
5009 1 -0.2340926279147304 96.42063535884897 -4.651842886832366 0 0 0
5010 1 -0.2340926279147304 96.42063535884897 -2.163537910232366 0 0 0
5011 1 -0.2340926279147304 98.90825873784895 -2.163537910232366 0 0 0
5012 1 -1.995139676914729 97.66606222684895 -0.919392886832366 0 0 0
5013 1 -1.995139676914729 97.66606222684895 -3.407682933632366 0 0 0
5014 1 -0.2340926279147304 98.90825873784895 0.3247670663676345 0 0 0
5015 1 -0.2340538844147311 101.390912336849 0.3247670663676345 0 0 0
5016 1 -1.995139676914729 100.1569159628489 1.568912089767634 0 0 0
5017 1 -1.995139676914729 100.1569159628489 -0.919392886832366 0 0 0
5018 1 -0.2340538844147311 101.390912336849 2.813057113167634 0 0 0
5019 1 -0.2340538844147311 103.874311402849 2.813057113167634 0 0 0
5020 1 -1.995139676914729 102.6505030778489 4.057217066367635 0 0 0
5021 1 -1.995139676914729 102.6505030778489 1.568912089767634 0 0 0
5022 1 -0.2340538844147311 103.874311402849 5.301362089767634 0 0 0
5023 1 -1.995139676914729 97.66606222684895 -5.895987910232366 0 0 0
5024 1 -0.2340926279147304 98.90825873784895 -4.651842886832366 0 0 0
5025 1 -0.2340538844147311 101.390912336849 -4.651842886832366 0 0 0
5026 1 -1.995139676914729 100.1569159628489 -3.407682933632366 0 0 0
5027 1 -1.995139676914729 100.1569159628489 -5.895987910232366 0 0 0
5028 1 -0.2340538844147311 101.390912336849 -2.163537910232366 0 0 0
5029 1 -0.2340538844147311 103.874311402849 -2.163537910232366 0 0 0
5030 1 -1.995139676914729 102.6505030778489 -0.919392886832366 0 0 0
5031 1 -1.995139676914729 102.6505030778489 -3.407682933632366 0 0 0
5032 1 -0.2340538844147311 103.874311402849 0.3247670663676345 0 0 0
5033 1 -1.995139676914729 102.6505030778489 -5.895987910232366 0 0 0
5034 1 -0.2340538844147311 103.874311402849 -4.651842886832366 0 0 0
5035 1 -3.75622546941473 96.42063535884897 5.301362089767634 0 0 0
5036 1 -3.75622546941473 96.42063535884897 -7.140135919592366 0 0 1
5037 1 -3.75622546941473 98.90825873784895 -7.140135919592366 0 0 1
5038 1 -5.51727251841473 97.66606222684895 6.545507113167634 0 0 0
5039 1 -3.75622546941473 96.42063535884897 0.3247670663676345 0 0 0
5040 1 -3.75622546941473 96.42063535884897 2.813057113167634 0 0 0
5041 1 -3.75622546941473 98.90825873784895 2.813057113167634 0 0 0
5042 1 -5.51727251841473 97.66606222684895 4.057217066367635 0 0 0
5043 1 -5.51727251841473 97.66606222684895 1.568912089767634 0 0 0
5044 1 -3.75622546941473 98.90825873784895 5.301362089767634 0 0 0
5045 1 -3.756186725914729 101.390912336849 5.301362089767634 0 0 0
5046 1 -5.51727251841473 100.1569159628489 6.545507113167634 0 0 0
5047 1 -5.51727251841473 100.1569159628489 4.057217066367635 0 0 0
5048 1 -3.756186725914729 101.390912336849 -7.140135919592366 0 0 1
5049 1 -3.756186725914729 103.874311402849 -7.140135919592366 0 0 1
5050 1 -5.51727251841473 102.6505030778489 6.545507113167634 0 0 0
5051 1 -3.75622546941473 96.42063535884897 -4.651842886832366 0 0 0
5052 1 -3.75622546941473 96.42063535884897 -2.163537910232366 0 0 0
5053 1 -3.75622546941473 98.90825873784895 -2.163537910232366 0 0 0
5054 1 -5.51727251841473 97.66606222684895 -0.919392886832366 0 0 0
5055 1 -5.51727251841473 97.66606222684895 -3.407682933632366 0 0 0
5056 1 -3.75622546941473 98.90825873784895 0.3247670663676345 0 0 0
5057 1 -3.756186725914729 101.390912336849 0.3247670663676345 0 0 0
5058 1 -5.51727251841473 100.1569159628489 1.568912089767634 0 0 0
5059 1 -5.51727251841473 100.1569159628489 -0.919392886832366 0 0 0
5060 1 -3.756186725914729 101.390912336849 2.813057113167634 0 0 0
5061 1 -3.756186725914729 103.874311402849 2.813057113167634 0 0 0
5062 1 -5.51727251841473 102.6505030778489 4.057217066367635 0 0 0
5063 1 -5.51727251841473 102.6505030778489 1.568912089767634 0 0 0
5064 1 -3.756186725914729 103.874311402849 5.301362089767634 0 0 0
5065 1 -5.51727251841473 97.66606222684895 -5.895987910232366 0 0 0
5066 1 -3.75622546941473 98.90825873784895 -4.651842886832366 0 0 0
5067 1 -3.756186725914729 101.390912336849 -4.651842886832366 0 0 0
5068 1 -5.51727251841473 100.1569159628489 -3.407682933632366 0 0 0
5069 1 -5.51727251841473 100.1569159628489 -5.895987910232366 0 0 0
5070 1 -3.756186725914729 101.390912336849 -2.163537910232366 0 0 0
5071 1 -3.756186725914729 103.874311402849 -2.163537910232366 0 0 0
5072 1 -5.51727251841473 102.6505030778489 -0.919392886832366 0 0 0
5073 1 -5.51727251841473 102.6505030778489 -3.407682933632366 0 0 0
5074 1 -3.756186725914729 103.874311402849 0.3247670663676345 0 0 0
5075 1 -5.51727251841473 102.6505030778489 -5.895987910232366 0 0 0
5076 1 -3.756186725914729 103.874311402849 -4.651842886832366 0 0 0
5077 1 -7.278358310914729 96.42063535884897 5.301362089767634 0 0 0
5078 1 -7.278358310914729 96.42063535884897 -7.140135919592366 0 0 1
5079 1 -7.278358310914729 98.90825873784895 -7.140135919592366 0 0 1
5080 1 -9.039405359914729 97.66606222684895 6.545507113167634 0 0 0
5081 1 -7.278358310914729 96.42063535884897 0.3247670663676345 0 0 0
5082 1 -7.278358310914729 96.42063535884897 2.813057113167634 0 0 0
5083 1 -7.278358310914729 98.90825873784895 2.813057113167634 0 0 0
5084 1 -9.039405359914729 97.66606222684895 4.057217066367635 0 0 0
5085 1 -9.039405359914729 97.66606222684895 1.568912089767634 0 0 0
5086 1 -7.278358310914729 98.90825873784895 5.301362089767634 0 0 0
5087 1 -7.278358310914729 101.390912336849 5.301362089767634 0 0 0
5088 1 -9.039405359914729 100.1569159628489 6.545507113167634 0 0 0
5089 1 -9.039405359914729 100.1569159628489 4.057217066367635 0 0 0
5090 1 -7.278358310914729 101.390912336849 -7.140135919592366 0 0 1
5091 1 -7.278358310914729 103.874311402849 -7.140135919592366 0 0 1
5092 1 -9.039405359914729 102.6505030778489 6.545507113167634 0 0 0
5093 1 -7.278358310914729 96.42063535884897 -4.651842886832366 0 0 0
5094 1 -7.278358310914729 96.42063535884897 -2.163537910232366 0 0 0
5095 1 -7.278358310914729 98.90825873784895 -2.163537910232366 0 0 0
5096 1 -9.039405359914729 97.66606222684895 -0.919392886832366 0 0 0
5097 1 -9.039405359914729 97.66606222684895 -3.407682933632366 0 0 0
5098 1 -7.278358310914729 98.90825873784895 0.3247670663676345 0 0 0
5099 1 -7.278358310914729 101.390912336849 0.3247670663676345 0 0 0
5100 1 -9.039405359914729 100.1569159628489 1.568912089767634 0 0 0
5101 1 -9.039405359914729 100.1569159628489 -0.919392886832366 0 0 0
5102 1 -7.278358310914729 101.390912336849 2.813057113167634 0 0 0
5103 1 -7.278358310914729 103.874311402849 2.813057113167634 0 0 0
5104 1 -9.039405359914729 102.6505030778489 4.057217066367635 0 0 0
5105 1 -9.039405359914729 102.6505030778489 1.568912089767634 0 0 0
5106 1 -7.278358310914729 103.874311402849 5.301362089767634 0 0 0
5107 1 -9.039405359914729 97.66606222684895 -5.895987910232366 0 0 0
5108 1 -7.278358310914729 98.90825873784895 -4.651842886832366 0 0 0
5109 1 -7.278358310914729 101.390912336849 -4.651842886832366 0 0 0
5110 1 -9.039405359914729 100.1569159628489 -3.407682933632366 0 0 0
5111 1 -9.039405359914729 100.1569159628489 -5.895987910232366 0 0 0
5112 1 -7.278358310914729 101.390912336849 -2.163537910232366 0 0 0
5113 1 -7.278358310914729 103.874311402849 -2.163537910232366 0 0 0
5114 1 -9.039405359914729 102.6505030778489 -0.919392886832366 0 0 0
5115 1 -9.039405359914729 102.6505030778489 -3.407682933632366 0 0 0
5116 1 -7.278358310914729 103.874311402849 0.3247670663676345 0 0 0
5117 1 -9.039405359914729 102.6505030778489 -5.895987910232366 0 0 0
5118 1 -7.278358310914729 103.874311402849 -4.651842886832366 0 0 0
5119 1 -10.80049115241473 96.42063535884897 5.301362089767634 0 0 0
5120 1 -10.80049115241473 96.42063535884897 -7.140135919592366 0 0 1
5121 1 -10.80049115241473 98.90825873784895 -7.140135919592366 0 0 1
5122 1 -12.56153820141473 97.66606222684895 6.545507113167634 0 0 0
5123 1 -10.80049115241473 96.42063535884897 0.3247670663676345 0 0 0
5124 1 -10.80049115241473 96.42063535884897 2.813057113167634 0 0 0
5125 1 -10.80049115241473 98.90825873784895 2.813057113167634 0 0 0
5126 1 -12.56153820141473 97.66606222684895 4.057217066367635 0 0 0
5127 1 -12.56153820141473 97.66606222684895 1.568912089767634 0 0 0
5128 1 -10.80049115241473 98.90825873784895 5.301362089767634 0 0 0
5129 1 -10.80049115241473 101.390912336849 5.301362089767634 0 0 0
5130 1 -12.56153820141473 100.1569159628489 6.545507113167634 0 0 0
5131 1 -12.56153820141473 100.1569159628489 4.057217066367635 0 0 0
5132 1 -10.80049115241473 101.390912336849 -7.140135919592366 0 0 1
5133 1 -10.80049115241473 103.874311402849 -7.140135919592366 0 0 1
5134 1 -12.56153820141473 102.6505030778489 6.545507113167634 0 0 0
5135 1 -10.80049115241473 96.42063535884897 -4.651842886832366 0 0 0
5136 1 -10.80049115241473 96.42063535884897 -2.163537910232366 0 0 0
5137 1 -10.80049115241473 98.90825873784895 -2.163537910232366 0 0 0
5138 1 -12.56153820141473 97.66606222684895 -0.919392886832366 0 0 0
5139 1 -12.56153820141473 97.66606222684895 -3.407682933632366 0 0 0
5140 1 -10.80049115241473 98.90825873784895 0.3247670663676345 0 0 0
5141 1 -10.80049115241473 101.390912336849 0.3247670663676345 0 0 0
5142 1 -12.56153820141473 100.1569159628489 1.568912089767634 0 0 0
5143 1 -12.56153820141473 100.1569159628489 -0.919392886832366 0 0 0
5144 1 -10.80049115241473 101.390912336849 2.813057113167634 0 0 0
5145 1 -10.80049115241473 103.874311402849 2.813057113167634 0 0 0
5146 1 -12.56153820141473 102.6505030778489 4.057217066367635 0 0 0
5147 1 -12.56153820141473 102.6505030778489 1.568912089767634 0 0 0
5148 1 -10.80049115241473 103.874311402849 5.301362089767634 0 0 0
5149 1 -12.56153820141473 97.66606222684895 -5.895987910232366 0 0 0
5150 1 -10.80049115241473 98.90825873784895 -4.651842886832366 0 0 0
5151 1 -10.80049115241473 101.390912336849 -4.651842886832366 0 0 0
5152 1 -12.56153820141473 100.1569159628489 -3.407682933632366 0 0 0
5153 1 -12.56153820141473 100.1569159628489 -5.895987910232366 0 0 0
5154 1 -10.80049115241473 101.390912336849 -2.163537910232366 0 0 0
5155 1 -10.80049115241473 103.874311402849 -2.163537910232366 0 0 0
5156 1 -12.56153820141473 102.6505030778489 -0.919392886832366 0 0 0
5157 1 -12.56153820141473 102.6505030778489 -3.407682933632366 0 0 0
5158 1 -10.80049115241473 103.874311402849 0.3247670663676345 0 0 0
5159 1 -12.56153820141473 102.6505030778489 -5.895987910232366 0 0 0
5160 1 -10.80049115241473 103.874311402849 -4.651842886832366 0 0 0
5161 1 -14.32262399391473 96.42063535884897 5.301362089767634 0 0 0
5162 1 -14.32262399391473 96.42063535884897 -7.140135919592366 0 0 1
5163 1 -14.32262399391473 98.90825873784895 -7.140135919592366 0 0 1
5164 1 -14.32262399391473 96.42063535884897 0.3247670663676345 0 0 0
5165 1 -14.32262399391473 96.42063535884897 2.813057113167634 0 0 0
5166 1 -14.32262399391473 98.90825873784895 2.813057113167634 0 0 0
5167 1 -14.32262399391473 98.90825873784895 5.301362089767634 0 0 0
5168 1 -14.32262399391473 101.390912336849 5.301362089767634 0 0 0
5169 1 -14.32262399391473 101.390912336849 -7.140135919592366 0 0 1
5170 1 -14.32262399391473 103.874311402849 -7.140135919592366 0 0 1
5171 1 -14.32262399391473 96.42063535884897 -4.651842886832366 0 0 0
5172 1 -14.32262399391473 96.42063535884897 -2.163537910232366 0 0 0
5173 1 -14.32262399391473 98.90825873784895 -2.163537910232366 0 0 0
5174 1 -14.32262399391473 98.90825873784895 0.3247670663676345 0 0 0
5175 1 -14.32262399391473 101.390912336849 0.3247670663676345 0 0 0
5176 1 -14.32262399391473 101.390912336849 2.813057113167634 0 0 0
5177 1 -14.32262399391473 103.874311402849 2.813057113167634 0 0 0
5178 1 -14.32262399391473 103.874311402849 5.301362089767634 0 0 0
5179 1 -14.32262399391473 98.90825873784895 -4.651842886832366 0 0 0
5180 1 -14.32262399391473 101.390912336849 -4.651842886832366 0 0 0
5181 1 -14.32262399391473 101.390912336849 -2.163537910232366 0 0 0
5182 1 -14.32262399391473 103.874311402849 -2.163537910232366 0 0 0
5183 1 -14.32262399391473 103.874311402849 0.3247670663676345 0 0 0
5184 1 -14.32262399391473 103.874311402849 -4.651842886832366 0 0 0
5185 1 19.32238638008527 -103.034079968951 5.892223854567636 0 0 0
5186 1 19.32238638008527 -103.034079968951 3.403933807767634 0 0 0
5187 1 19.32238638008527 -103.034079968951 0.9156288311676359 0 0 0
5188 1 19.32238638008527 -103.034079968951 -1.572676145432366 0 0 0
5189 1 19.32238638008527 -103.034079968951 -4.060966192232366 0 0 0
5190 1 19.32238638008527 -103.034079968951 -6.549272661812366 0 0 0
5191 1 17.16995249408527 -103.034104817851 7.136383807767634 0 0 0
5192 1 15.01755735158527 -103.034104817851 5.892223854567636 0 0 0
5193 1 17.16995249408527 -103.034104817851 2.159773854567636 0 0 0
5194 1 15.01755735158527 -103.034104817851 3.403933807767634 0 0 0
5195 1 15.01755735158527 -103.034104817851 0.9156288311676359 0 0 0
5196 1 17.16995249408527 -103.034104817851 4.648078831167636 0 0 0
5197 1 18.60629026958527 -100.9930410207511 4.648078831167636 0 0 0
5198 1 16.45385638358527 -100.9930410207511 5.892223854567636 0 0 0
5199 1 16.45385638358527 -100.9930410207511 3.403933807767634 0 0 0
5200 1 18.60629026958527 -100.9930410207511 7.136383807767634 0 0 0
5201 1 17.89007792858527 -98.95876097335105 5.892223854567636 0 0 0
5202 1 17.16995249408527 -103.034104817851 -2.816821168832366 0 0 0
5203 1 15.01755735158527 -103.034104817851 -1.572676145432366 0 0 0
5204 1 15.01755735158527 -103.034104817851 -4.060966192232366 0 0 0
5205 1 17.16995249408527 -103.034104817851 -0.3285161922323656 0 0 0
5206 1 18.60629026958527 -100.9930410207511 -0.3285161922323656 0 0 0
5207 1 16.45385638358527 -100.9930410207511 0.9156288311676359 0 0 0
5208 1 16.45385638358527 -100.9930410207511 -1.572676145432366 0 0 0
5209 1 18.60629026958527 -100.9930410207511 2.159773854567636 0 0 0
5210 1 17.89007792858527 -98.95876097335105 3.403933807767634 0 0 0
5211 1 17.89007792858527 -98.95876097335105 0.9156288311676359 0 0 0
5212 1 19.32629947358527 -96.92592216215105 5.892223854567636 0 0 0
5213 1 19.32629947358527 -96.92592216215105 3.403933807767634 0 0 0
5214 1 15.01755735158527 -103.034104817851 -6.549272661812366 0 0 0
5215 1 17.16995249408527 -103.034104817851 -5.305126145432366 0 0 0
5216 1 18.60629026958527 -100.9930410207511 -5.305126145432366 0 0 0
5217 1 16.45385638358527 -100.9930410207511 -4.060966192232366 0 0 0
5218 1 16.45385638358527 -100.9930410207511 -6.549272661812366 0 0 0
5219 1 18.60629026958527 -100.9930410207511 -2.816821168832366 0 0 0
5220 1 17.89007792858527 -98.95876097335105 -1.572676145432366 0 0 0
5221 1 17.89007792858527 -98.95876097335105 -4.060966192232366 0 0 0
5222 1 19.32629947358527 -96.92592216215105 0.9156288311676359 0 0 0
5223 1 19.32629947358527 -96.92592216215105 -1.572676145432366 0 0 0
5224 1 17.89007792858527 -98.95876097335105 -6.549272661812366 0 0 0
5225 1 19.32629947358527 -96.92592216215105 -4.060966192232366 0 0 0
5226 1 19.32629947358527 -96.92592216215105 -6.549272661812366 0 0 0
5227 1 12.86512346558527 -103.034104817851 4.648078831167636 0 0 0
5228 1 10.71272832308527 -103.0341296667511 5.892223854567636 0 0 0
5229 1 10.71272832308527 -103.0341296667511 3.403933807767634 0 0 0
5230 1 12.86512346558527 -103.034104817851 7.136383807767634 0 0 0
5231 1 14.30146124108527 -100.993065869651 7.136383807767634 0 0 0
5232 1 12.14902735508527 -100.993065869651 5.892223854567636 0 0 0
5233 1 12.86512346558527 -103.034104817851 -0.3285161922323656 0 0 0
5234 1 10.71272832308527 -103.0341296667511 0.9156288311676359 0 0 0
5235 1 10.71272832308527 -103.0341296667511 -1.572676145432366 0 0 0
5236 1 12.86512346558527 -103.034104817851 2.159773854567636 0 0 0
5237 1 14.30146124108527 -100.993065869651 2.159773854567636 0 0 0
5238 1 12.14902735508527 -100.993065869651 3.403933807767634 0 0 0
5239 1 12.14902735508527 -100.993065869651 0.9156288311676359 0 0 0
5240 1 14.30146124108527 -100.993065869651 4.648078831167636 0 0 0
5241 1 15.73768278608527 -98.95878582225106 4.648078831167636 0 0 0
5242 1 13.58524890008527 -98.95878582225106 5.892223854567636 0 0 0
5243 1 13.58524890008527 -98.95878582225106 3.403933807767634 0 0 0
5244 1 15.73768278608527 -98.95878582225106 7.136383807767634 0 0 0
5245 1 17.17390433108527 -96.92592216215105 7.136383807767634 0 0 0
5246 1 15.02147044508527 -96.92592216215105 5.892223854567636 0 0 0
5247 1 12.86512346558527 -103.034104817851 -5.305126145432366 0 0 0
5248 1 10.71272832308527 -103.0341296667511 -4.060966192232366 0 0 0
5249 1 10.71272832308527 -103.0341296667511 -6.549272661812366 0 0 0
5250 1 12.86512346558527 -103.034104817851 -2.816821168832366 0 0 0
5251 1 14.30146124108527 -100.993065869651 -2.816821168832366 0 0 0
5252 1 12.14902735508527 -100.993065869651 -1.572676145432366 0 0 0
5253 1 12.14902735508527 -100.993065869651 -4.060966192232366 0 0 0
5254 1 14.30146124108527 -100.993065869651 -0.3285161922323656 0 0 0
5255 1 15.73768278608527 -98.95878582225106 -0.3285161922323656 0 0 0
5256 1 13.58524890008527 -98.95878582225106 0.9156288311676359 0 0 0
5257 1 13.58524890008527 -98.95878582225106 -1.572676145432366 0 0 0
5258 1 15.73768278608527 -98.95878582225106 2.159773854567636 0 0 0
5259 1 17.17390433108527 -96.92592216215105 2.159773854567636 0 0 0
5260 1 15.02147044508527 -96.92592216215105 3.403933807767634 0 0 0
5261 1 15.02147044508527 -96.92592216215105 0.9156288311676359 0 0 0
5262 1 17.17390433108527 -96.92592216215105 4.648078831167636 0 0 0
5263 1 12.14902735508527 -100.993065869651 -6.549272661812366 0 0 0
5264 1 14.30146124108527 -100.993065869651 -5.305126145432366 0 0 0
5265 1 15.73768278608527 -98.95878582225106 -5.305126145432366 0 0 0
5266 1 13.58524890008527 -98.95878582225106 -4.060966192232366 0 0 0
5267 1 13.58524890008527 -98.95878582225106 -6.549272661812366 0 0 0
5268 1 15.73768278608527 -98.95878582225106 -2.816821168832366 0 0 0
5269 1 17.17390433108527 -96.92592216215105 -2.816821168832366 0 0 0
5270 1 15.02147044508527 -96.92592216215105 -1.572676145432366 0 0 0
5271 1 15.02147044508527 -96.92592216215105 -4.060966192232366 0 0 0
5272 1 17.17390433108527 -96.92592216215105 -0.3285161922323656 0 0 0
5273 1 15.02147044508527 -96.92592216215105 -6.549272661812366 0 0 0
5274 1 17.17390433108527 -96.92592216215105 -5.305126145432366 0 0 0
5275 1 8.560294437085272 -103.0341296667511 7.136383807767634 0 0 0
5276 1 6.40789929458527 -103.0341296667511 5.892223854567636 0 0 0
5277 1 8.560294437085272 -103.0341296667511 2.159773854567636 0 0 0
5278 1 6.40789929458527 -103.0341296667511 3.403933807767634 0 0 0
5279 1 6.40789929458527 -103.0341296667511 0.9156288311676359 0 0 0
5280 1 8.560294437085272 -103.0341296667511 4.648078831167636 0 0 0
5281 1 9.996632212585268 -100.993065869651 4.648078831167636 0 0 0
5282 1 7.844198326585271 -100.9930907185511 5.892223854567636 0 0 0
5283 1 7.844198326585271 -100.9930907185511 3.403933807767634 0 0 0
5284 1 9.996632212585268 -100.993065869651 7.136383807767634 0 0 0
5285 1 11.43285375758527 -98.95878582225106 7.136383807767634 0 0 0
5286 1 9.280419871585273 -98.95881067115106 5.892223854567636 0 0 0
5287 1 8.560294437085272 -103.0341296667511 -2.816821168832366 0 0 0
5288 1 6.40789929458527 -103.0341296667511 -1.572676145432366 0 0 0
5289 1 6.40789929458527 -103.0341296667511 -4.060966192232366 0 0 0
5290 1 8.560294437085272 -103.0341296667511 -0.3285161922323656 0 0 0
5291 1 9.996632212585268 -100.993065869651 -0.3285161922323656 0 0 0
5292 1 7.844198326585271 -100.9930907185511 0.9156288311676359 0 0 0
5293 1 7.844198326585271 -100.9930907185511 -1.572676145432366 0 0 0
5294 1 9.996632212585268 -100.993065869651 2.159773854567636 0 0 0
5295 1 11.43285375758527 -98.95878582225106 2.159773854567636 0 0 0
5296 1 9.280419871585273 -98.95881067115106 3.403933807767634 0 0 0
5297 1 9.280419871585273 -98.95881067115106 0.9156288311676359 0 0 0
5298 1 11.43285375758527 -98.95878582225106 4.648078831167636 0 0 0
5299 1 12.86907530258527 -96.92617065115105 4.648078831167636 0 0 0
5300 1 10.71664141658527 -96.92617065115105 5.892223854567636 0 0 0
5301 1 10.71664141658527 -96.92617065115105 3.403933807767634 0 0 0
5302 1 12.86907530258527 -96.92617065115105 7.136383807767634 0 0 0
5303 1 6.40789929458527 -103.0341296667511 -6.549272661812366 0 0 0
5304 1 8.560294437085272 -103.0341296667511 -5.305126145432366 0 0 0
5305 1 9.996632212585268 -100.993065869651 -5.305126145432366 0 0 0
5306 1 7.844198326585271 -100.9930907185511 -4.060966192232366 0 0 0
5307 1 7.844198326585271 -100.9930907185511 -6.549272661812366 0 0 0
5308 1 9.996632212585268 -100.993065869651 -2.816821168832366 0 0 0
5309 1 11.43285375758527 -98.95878582225106 -2.816821168832366 0 0 0
5310 1 9.280419871585273 -98.95881067115106 -1.572676145432366 0 0 0
5311 1 9.280419871585273 -98.95881067115106 -4.060966192232366 0 0 0
5312 1 11.43285375758527 -98.95878582225106 -0.3285161922323656 0 0 0
5313 1 12.86907530258527 -96.92617065115105 -0.3285161922323656 0 0 0
5314 1 10.71664141658527 -96.92617065115105 0.9156288311676359 0 0 0
5315 1 10.71664141658527 -96.92617065115105 -1.572676145432366 0 0 0
5316 1 12.86907530258527 -96.92617065115105 2.159773854567636 0 0 0
5317 1 9.280419871585273 -98.95881067115106 -6.549272661812366 0 0 0
5318 1 11.43285375758527 -98.95878582225106 -5.305126145432366 0 0 0
5319 1 12.86907530258527 -96.92617065115105 -5.305126145432366 0 0 0
5320 1 10.71664141658527 -96.92617065115105 -4.060966192232366 0 0 0
5321 1 10.71664141658527 -96.92617065115105 -6.549272661812366 0 0 0
5322 1 12.86907530258527 -96.92617065115105 -2.816821168832366 0 0 0
5323 1 4.25546540858527 -103.0341545156511 4.648078831167636 0 0 0
5324 1 2.103031522585272 -103.0341545156511 5.892223854567636 0 0 0
5325 1 2.103031522585272 -103.0341545156511 3.403933807767634 0 0 0
5326 1 4.25546540858527 -103.0341545156511 7.136383807767634 0 0 0
5327 1 5.69180318408527 -100.9930907185511 7.136383807767634 0 0 0
5328 1 3.539369298085273 -100.9930907185511 5.892223854567636 0 0 0
5329 1 4.25546540858527 -103.0341545156511 -0.3285161922323656 0 0 0
5330 1 2.103031522585272 -103.0341545156511 0.9156288311676359 0 0 0
5331 1 2.103031522585272 -103.0341545156511 -1.572676145432366 0 0 0
5332 1 4.25546540858527 -103.0341545156511 2.159773854567636 0 0 0
5333 1 5.69180318408527 -100.9930907185511 2.159773854567636 0 0 0
5334 1 3.539369298085273 -100.9930907185511 3.403933807767634 0 0 0
5335 1 3.539369298085273 -100.9930907185511 0.9156288311676359 0 0 0
5336 1 5.69180318408527 -100.9930907185511 4.648078831167636 0 0 0
5337 1 7.128024729085272 -98.95881067115106 4.648078831167636 0 0 0
5338 1 4.975590843085268 -98.95881067115106 5.892223854567636 0 0 0
5339 1 4.975590843085268 -98.95881067115106 3.403933807767634 0 0 0
5340 1 7.128024729085272 -98.95881067115106 7.136383807767634 0 0 0
5341 1 8.564246274085267 -96.92617065115105 7.136383807767634 0 0 0
5342 1 6.41181238808527 -96.92617065115105 5.892223854567636 0 0 0
5343 1 4.25546540858527 -103.0341545156511 -5.305126145432366 0 0 0
5344 1 2.103031522585272 -103.0341545156511 -4.060966192232366 0 0 0
5345 1 2.103031522585272 -103.0341545156511 -6.549272661812366 0 0 0
5346 1 4.25546540858527 -103.0341545156511 -2.816821168832366 0 0 0
5347 1 5.69180318408527 -100.9930907185511 -2.816821168832366 0 0 0
5348 1 3.539369298085273 -100.9930907185511 -1.572676145432366 0 0 0
5349 1 3.539369298085273 -100.9930907185511 -4.060966192232366 0 0 0
5350 1 5.69180318408527 -100.9930907185511 -0.3285161922323656 0 0 0
5351 1 7.128024729085272 -98.95881067115106 -0.3285161922323656 0 0 0
5352 1 4.975590843085268 -98.95881067115106 0.9156288311676359 0 0 0
5353 1 4.975590843085268 -98.95881067115106 -1.572676145432366 0 0 0
5354 1 7.128024729085272 -98.95881067115106 2.159773854567636 0 0 0
5355 1 8.564246274085267 -96.92617065115105 2.159773854567636 0 0 0
5356 1 6.41181238808527 -96.92617065115105 3.403933807767634 0 0 0
5357 1 6.41181238808527 -96.92617065115105 0.9156288311676359 0 0 0
5358 1 8.564246274085267 -96.92617065115105 4.648078831167636 0 0 0
5359 1 3.539369298085273 -100.9930907185511 -6.549272661812366 0 0 0
5360 1 5.69180318408527 -100.9930907185511 -5.305126145432366 0 0 0
5361 1 7.128024729085272 -98.95881067115106 -5.305126145432366 0 0 0
5362 1 4.975590843085268 -98.95881067115106 -4.060966192232366 0 0 0
5363 1 4.975590843085268 -98.95881067115106 -6.549272661812366 0 0 0
5364 1 7.128024729085272 -98.95881067115106 -2.816821168832366 0 0 0
5365 1 8.564246274085267 -96.92617065115105 -2.816821168832366 0 0 0
5366 1 6.41181238808527 -96.92617065115105 -1.572676145432366 0 0 0
5367 1 6.41181238808527 -96.92617065115105 -4.060966192232366 0 0 0
5368 1 8.564246274085267 -96.92617065115105 -0.3285161922323656 0 0 0
5369 1 6.41181238808527 -96.92617065115105 -6.549272661812366 0 0 0
5370 1 8.564246274085267 -96.92617065115105 -5.305126145432366 0 0 0
5371 1 -0.04936361991472893 -103.0341296667511 7.136383807767634 0 0 0
5372 1 -0.04936361991472893 -103.0341296667511 2.159773854567636 0 0 0
5373 1 -0.04936361991472893 -103.0341296667511 4.648078831167636 0 0 0
5374 1 1.386935412085272 -100.9930907185511 4.648078831167636 0 0 0
5375 1 1.386935412085272 -100.9930907185511 7.136383807767634 0 0 0
5376 1 2.82319570058527 -98.95881067115106 7.136383807767634 0 0 0
5377 1 0.6707618145852727 -98.95881067115106 5.892223854567636 0 0 0
5378 1 -0.04936361991472893 -103.0341296667511 -2.816821168832366 0 0 0
5379 1 -0.04936361991472893 -103.0341296667511 -0.3285161922323656 0 0 0
5380 1 1.386935412085272 -100.9930907185511 -0.3285161922323656 0 0 0
5381 1 1.386935412085272 -100.9930907185511 2.159773854567636 0 0 0
5382 1 2.82319570058527 -98.95881067115106 2.159773854567636 0 0 0
5383 1 0.6707618145852727 -98.95881067115106 3.403933807767634 0 0 0
5384 1 0.6707618145852727 -98.95881067115106 0.9156288311676359 0 0 0
5385 1 2.82319570058527 -98.95881067115106 4.648078831167636 0 0 0
5386 1 4.259417245585272 -96.92617065115105 4.648078831167636 0 0 0
5387 1 2.106983359585268 -96.92617065115105 5.892223854567636 0 0 0
5388 1 2.106983359585268 -96.92617065115105 3.403933807767634 0 0 0
5389 1 4.259417245585272 -96.92617065115105 7.136383807767634 0 0 0
5390 1 -0.04936361991472893 -103.0341296667511 -5.305126145432366 0 0 0
5391 1 1.386935412085272 -100.9930907185511 -5.305126145432366 0 0 0
5392 1 1.386935412085272 -100.9930907185511 -2.816821168832366 0 0 0
5393 1 2.82319570058527 -98.95881067115106 -2.816821168832366 0 0 0
5394 1 0.6707618145852727 -98.95881067115106 -1.572676145432366 0 0 0
5395 1 0.6707618145852727 -98.95881067115106 -4.060966192232366 0 0 0
5396 1 2.82319570058527 -98.95881067115106 -0.3285161922323656 0 0 0
5397 1 4.259417245585272 -96.92617065115105 -0.3285161922323656 0 0 0
5398 1 2.106983359585268 -96.92617065115105 0.9156288311676359 0 0 0
5399 1 2.106983359585268 -96.92617065115105 -1.572676145432366 0 0 0
5400 1 4.259417245585272 -96.92617065115105 2.159773854567636 0 0 0
5401 1 0.6707618145852727 -98.95881067115106 -6.549272661812366 0 0 0
5402 1 2.82319570058527 -98.95881067115106 -5.305126145432366 0 0 0
5403 1 4.259417245585272 -96.92617065115105 -5.305126145432366 0 0 0
5404 1 2.106983359585268 -96.92617065115105 -4.060966192232366 0 0 0
5405 1 2.106983359585268 -96.92617065115105 -6.549272661812366 0 0 0
5406 1 4.259417245585272 -96.92617065115105 -2.816821168832366 0 0 0
5407 1 -0.04541178291473003 -96.92617065115105 7.136383807767634 0 0 0
5408 1 -0.04541178291473003 -96.92617065115105 2.159773854567636 0 0 0
5409 1 -0.04541178291473003 -96.92617065115105 4.648078831167636 0 0 0
5410 1 -0.04541178291473003 -96.92617065115105 -2.816821168832366 0 0 0
5411 1 -0.04541178291473003 -96.92617065115105 -0.3285161922323656 0 0 0
5412 1 -0.04541178291473003 -96.92617065115105 -5.305126145432366 0 0 0
5413 1 18.61012587608527 -94.89228818615105 4.648078831167636 0 0 0
5414 1 16.45769199008527 -94.89228818615105 5.892223854567636 0 0 0
5415 1 16.45769199008527 -94.89228818615105 3.403933807767634 0 0 0
5416 1 18.61012587608527 -94.89228818615105 7.136383807767634 0 0 0
5417 1 17.89391353508527 -92.85865421015106 5.892223854567636 0 0 0
5418 1 18.61012587608527 -94.89228818615105 -0.3285161922323656 0 0 0
5419 1 16.45769199008527 -94.89228818615105 0.9156288311676359 0 0 0
5420 1 16.45769199008527 -94.89228818615105 -1.572676145432366 0 0 0
5421 1 18.61012587608527 -94.89228818615105 2.159773854567636 0 0 0
5422 1 17.89391353508527 -92.85865421015106 3.403933807767634 0 0 0
5423 1 17.89391353508527 -92.85865421015106 0.9156288311676359 0 0 0
5424 1 19.33013508008527 -90.82502023415105 5.892223854567636 0 0 0
5425 1 19.33013508008527 -90.82502023415105 3.403933807767634 0 0 0
5426 1 18.61012587608527 -94.89228818615105 -5.305126145432366 0 0 0
5427 1 16.45769199008527 -94.89228818615105 -4.060966192232366 0 0 0
5428 1 16.45769199008527 -94.89228818615105 -6.549272661812366 0 0 0
5429 1 18.61012587608527 -94.89228818615105 -2.816821168832366 0 0 0
5430 1 17.89391353508527 -92.85865421015106 -1.572676145432366 0 0 0
5431 1 17.89391353508527 -92.85865421015106 -4.060966192232366 0 0 0
5432 1 19.33013508008527 -90.82502023415105 0.9156288311676359 0 0 0
5433 1 19.33013508008527 -90.82502023415105 -1.572676145432366 0 0 0
5434 1 17.89391353508527 -92.85865421015106 -6.549272661812366 0 0 0
5435 1 19.33013508008527 -90.82502023415105 -4.060966192232366 0 0 0
5436 1 19.33013508008527 -90.82502023415105 -6.549272661812366 0 0 0
5437 1 14.30529684758527 -94.89228818615105 7.136383807767634 0 0 0
5438 1 12.15286296158527 -94.89228818615105 5.892223854567636 0 0 0
5439 1 14.30529684758527 -94.89228818615105 2.159773854567636 0 0 0
5440 1 12.15286296158527 -94.89228818615105 3.403933807767634 0 0 0
5441 1 12.15286296158527 -94.89228818615105 0.9156288311676359 0 0 0
5442 1 14.30529684758527 -94.89228818615105 4.648078831167636 0 0 0
5443 1 15.74151839258527 -92.85865421015106 4.648078831167636 0 0 0
5444 1 13.58908450658527 -92.85865421015106 5.892223854567636 0 0 0
5445 1 13.58908450658527 -92.85865421015106 3.403933807767634 0 0 0
5446 1 15.74151839258527 -92.85865421015106 7.136383807767634 0 0 0
5447 1 17.17773993758527 -90.82502023415105 7.136383807767634 0 0 0
5448 1 15.02530605158527 -90.82502023415105 5.892223854567636 0 0 0
5449 1 14.30529684758527 -94.89228818615105 -2.816821168832366 0 0 0
5450 1 12.15286296158527 -94.89228818615105 -1.572676145432366 0 0 0
5451 1 12.15286296158527 -94.89228818615105 -4.060966192232366 0 0 0
5452 1 14.30529684758527 -94.89228818615105 -0.3285161922323656 0 0 0
5453 1 15.74151839258527 -92.85865421015106 -0.3285161922323656 0 0 0
5454 1 13.58908450658527 -92.85865421015106 0.9156288311676359 0 0 0
5455 1 13.58908450658527 -92.85865421015106 -1.572676145432366 0 0 0
5456 1 15.74151839258527 -92.85865421015106 2.159773854567636 0 0 0
5457 1 17.17773993758527 -90.82502023415105 2.159773854567636 0 0 0
5458 1 15.02530605158527 -90.82502023415105 3.403933807767634 0 0 0
5459 1 15.02530605158527 -90.82502023415105 0.9156288311676359 0 0 0
5460 1 17.17773993758527 -90.82502023415105 4.648078831167636 0 0 0
5461 1 18.61396148258527 -88.79138625815105 4.648078831167636 0 0 0
5462 1 16.46152759658527 -88.79138625815105 5.892223854567636 0 0 0
5463 1 16.46152759658527 -88.79138625815105 3.403933807767634 0 0 0
5464 1 18.61396148258527 -88.79138625815105 7.136383807767634 0 0 0
5465 1 17.89774914158527 -86.75775228215105 5.892223854567636 0 0 0
5466 1 12.15286296158527 -94.89228818615105 -6.549272661812366 0 0 0
5467 1 14.30529684758527 -94.89228818615105 -5.305126145432366 0 0 0
5468 1 15.74151839258527 -92.85865421015106 -5.305126145432366 0 0 0
5469 1 13.58908450658527 -92.85865421015106 -4.060966192232366 0 0 0
5470 1 13.58908450658527 -92.85865421015106 -6.549272661812366 0 0 0
5471 1 15.74151839258527 -92.85865421015106 -2.816821168832366 0 0 0
5472 1 17.17773993758527 -90.82502023415105 -2.816821168832366 0 0 0
5473 1 15.02530605158527 -90.82502023415105 -1.572676145432366 0 0 0
5474 1 15.02530605158527 -90.82502023415105 -4.060966192232366 0 0 0
5475 1 17.17773993758527 -90.82502023415105 -0.3285161922323656 0 0 0
5476 1 18.61396148258527 -88.79138625815105 -0.3285161922323656 0 0 0
5477 1 16.46152759658527 -88.79138625815105 0.9156288311676359 0 0 0
5478 1 16.46152759658527 -88.79138625815105 -1.572676145432366 0 0 0
5479 1 18.61396148258527 -88.79138625815105 2.159773854567636 0 0 0
5480 1 17.89774914158527 -86.75775228215105 3.403933807767634 0 0 0
5481 1 17.89774914158527 -86.75775228215105 0.9156288311676359 0 0 0
5482 1 19.33397068658527 -84.72411830615104 5.892223854567636 0 0 0
5483 1 19.33397068658527 -84.72411830615104 3.403933807767634 0 0 0
5484 1 15.02530605158527 -90.82502023415105 -6.549272661812366 0 0 0
5485 1 17.17773993758527 -90.82502023415105 -5.305126145432366 0 0 0
5486 1 18.61396148258527 -88.79138625815105 -5.305126145432366 0 0 0
5487 1 16.46152759658527 -88.79138625815105 -4.060966192232366 0 0 0
5488 1 16.46152759658527 -88.79138625815105 -6.549272661812366 0 0 0
5489 1 18.61396148258527 -88.79138625815105 -2.816821168832366 0 0 0
5490 1 17.89774914158527 -86.75775228215105 -1.572676145432366 0 0 0
5491 1 17.89774914158527 -86.75775228215105 -4.060966192232366 0 0 0
5492 1 19.33397068658527 -84.72411830615104 0.9156288311676359 0 0 0
5493 1 19.33397068658527 -84.72411830615104 -1.572676145432366 0 0 0
5494 1 17.89774914158527 -86.75775228215105 -6.549272661812366 0 0 0
5495 1 19.33397068658527 -84.72411830615104 -4.060966192232366 0 0 0
5496 1 19.33397068658527 -84.72411830615104 -6.549272661812366 0 0 0
5497 1 10.00046781908527 -94.89228818615105 4.648078831167636 0 0 0
5498 1 7.848033933085269 -94.89253667515105 5.892223854567636 0 0 0
5499 1 7.848033933085269 -94.89253667515105 3.403933807767634 0 0 0
5500 1 10.00046781908527 -94.89228818615105 7.136383807767634 0 0 0
5501 1 11.43668936408527 -92.85865421015106 7.136383807767634 0 0 0
5502 1 9.284255478085271 -92.85865421015106 5.892223854567636 0 0 0
5503 1 10.00046781908527 -94.89228818615105 -0.3285161922323656 0 0 0
5504 1 7.848033933085269 -94.89253667515105 0.9156288311676359 0 0 0
5505 1 7.848033933085269 -94.89253667515105 -1.572676145432366 0 0 0
5506 1 10.00046781908527 -94.89228818615105 2.159773854567636 0 0 0
5507 1 11.43668936408527 -92.85865421015106 2.159773854567636 0 0 0
5508 1 9.284255478085271 -92.85865421015106 3.403933807767634 0 0 0
5509 1 9.284255478085271 -92.85865421015106 0.9156288311676359 0 0 0
5510 1 11.43668936408527 -92.85865421015106 4.648078831167636 0 0 0
5511 1 12.87291090908527 -90.82502023415105 4.648078831167636 0 0 0
5512 1 10.72047702308527 -90.82502023415105 5.892223854567636 0 0 0
5513 1 10.72047702308527 -90.82502023415105 3.403933807767634 0 0 0
5514 1 12.87291090908527 -90.82502023415105 7.136383807767634 0 0 0
5515 1 14.30913245408527 -88.79138625815105 7.136383807767634 0 0 0
5516 1 12.15669856808527 -88.79138625815105 5.892223854567636 0 0 0
5517 1 10.00046781908527 -94.89228818615105 -5.305126145432366 0 0 0
5518 1 7.848033933085269 -94.89253667515105 -4.060966192232366 0 0 0
5519 1 7.848033933085269 -94.89253667515105 -6.549272661812366 0 0 0
5520 1 10.00046781908527 -94.89228818615105 -2.816821168832366 0 0 0
5521 1 11.43668936408527 -92.85865421015106 -2.816821168832366 0 0 0
5522 1 9.284255478085271 -92.85865421015106 -1.572676145432366 0 0 0
5523 1 9.284255478085271 -92.85865421015106 -4.060966192232366 0 0 0
5524 1 11.43668936408527 -92.85865421015106 -0.3285161922323656 0 0 0
5525 1 12.87291090908527 -90.82502023415105 -0.3285161922323656 0 0 0
5526 1 10.72047702308527 -90.82502023415105 0.9156288311676359 0 0 0
5527 1 10.72047702308527 -90.82502023415105 -1.572676145432366 0 0 0
5528 1 12.87291090908527 -90.82502023415105 2.159773854567636 0 0 0
5529 1 14.30913245408527 -88.79138625815105 2.159773854567636 0 0 0
5530 1 12.15669856808527 -88.79138625815105 3.403933807767634 0 0 0
5531 1 12.15669856808527 -88.79138625815105 0.9156288311676359 0 0 0
5532 1 14.30913245408527 -88.79138625815105 4.648078831167636 0 0 0
5533 1 15.74535399908527 -86.75775228215105 4.648078831167636 0 0 0
5534 1 13.59292011308527 -86.75775228215105 5.892223854567636 0 0 0
5535 1 13.59292011308527 -86.75775228215105 3.403933807767634 0 0 0
5536 1 15.74535399908527 -86.75775228215105 7.136383807767634 0 0 0
5537 1 17.18157554408527 -84.72411830615104 7.136383807767634 0 0 0
5538 1 15.02914165808527 -84.72411830615104 5.892223854567636 0 0 0
5539 1 9.284255478085271 -92.85865421015106 -6.549272661812366 0 0 0
5540 1 11.43668936408527 -92.85865421015106 -5.305126145432366 0 0 0
5541 1 12.87291090908527 -90.82502023415105 -5.305126145432366 0 0 0
5542 1 10.72047702308527 -90.82502023415105 -4.060966192232366 0 0 0
5543 1 10.72047702308527 -90.82502023415105 -6.549272661812366 0 0 0
5544 1 12.87291090908527 -90.82502023415105 -2.816821168832366 0 0 0
5545 1 14.30913245408527 -88.79138625815105 -2.816821168832366 0 0 0
5546 1 12.15669856808527 -88.79138625815105 -1.572676145432366 0 0 0
5547 1 12.15669856808527 -88.79138625815105 -4.060966192232366 0 0 0
5548 1 14.30913245408527 -88.79138625815105 -0.3285161922323656 0 0 0
5549 1 15.74535399908527 -86.75775228215105 -0.3285161922323656 0 0 0
5550 1 13.59292011308527 -86.75775228215105 0.9156288311676359 0 0 0
5551 1 13.59292011308527 -86.75775228215105 -1.572676145432366 0 0 0
5552 1 15.74535399908527 -86.75775228215105 2.159773854567636 0 0 0
5553 1 17.18157554408527 -84.72411830615104 2.159773854567636 0 0 0
5554 1 15.02914165808527 -84.72411830615104 3.403933807767634 0 0 0
5555 1 15.02914165808527 -84.72411830615104 0.9156288311676359 0 0 0
5556 1 17.18157554408527 -84.72411830615104 4.648078831167636 0 0 0
5557 1 18.61779708908527 -82.69048433015105 4.648078831167636 0 0 0
5558 1 16.46536320308527 -82.69048433015105 5.892223854567636 0 0 0
5559 1 16.46536320308527 -82.69048433015105 3.403933807767634 0 0 0
5560 1 18.61779708908527 -82.69048433015105 7.136383807767634 0 0 0
5561 1 12.15669856808527 -88.79138625815105 -6.549272661812366 0 0 0
5562 1 14.30913245408527 -88.79138625815105 -5.305126145432366 0 0 0
5563 1 15.74535399908527 -86.75775228215105 -5.305126145432366 0 0 0
5564 1 13.59292011308527 -86.75775228215105 -4.060966192232366 0 0 0
5565 1 13.59292011308527 -86.75775228215105 -6.549272661812366 0 0 0
5566 1 15.74535399908527 -86.75775228215105 -2.816821168832366 0 0 0
5567 1 17.18157554408527 -84.72411830615104 -2.816821168832366 0 0 0
5568 1 15.02914165808527 -84.72411830615104 -1.572676145432366 0 0 0
5569 1 15.02914165808527 -84.72411830615104 -4.060966192232366 0 0 0
5570 1 17.18157554408527 -84.72411830615104 -0.3285161922323656 0 0 0
5571 1 18.61779708908527 -82.69048433015105 -0.3285161922323656 0 0 0
5572 1 16.46536320308527 -82.69048433015105 0.9156288311676359 0 0 0
5573 1 16.46536320308527 -82.69048433015105 -1.572676145432366 0 0 0
5574 1 18.61779708908527 -82.69048433015105 2.159773854567636 0 0 0
5575 1 15.02914165808527 -84.72411830615104 -6.549272661812366 0 0 0
5576 1 17.18157554408527 -84.72411830615104 -5.305126145432366 0 0 0
5577 1 18.61779708908527 -82.69048433015105 -5.305126145432366 0 0 0
5578 1 16.46536320308527 -82.69048433015105 -4.060966192232366 0 0 0
5579 1 16.46536320308527 -82.69048433015105 -6.549274154792366 0 0 0
5580 1 18.61779708908527 -82.69048433015105 -2.816821168832366 0 0 0
5581 1 5.695638790585267 -94.89253667515105 7.136383807767634 0 0 0
5582 1 3.54320490458527 -94.89253667515105 5.892223854567636 0 0 0
5583 1 5.695638790585267 -94.89253667515105 2.159773854567636 0 0 0
5584 1 3.54320490458527 -94.89253667515105 3.403933807767634 0 0 0
5585 1 3.54320490458527 -94.89253667515105 0.9156288311676359 0 0 0
5586 1 5.695638790585267 -94.89253667515105 4.648078831167636 0 0 0
5587 1 7.131860335585269 -92.85865421015106 4.648078831167636 0 0 0
5588 1 4.979426449585272 -92.85865421015106 5.892223854567636 0 0 0
5589 1 4.979426449585272 -92.85865421015106 3.403933807767634 0 0 0
5590 1 7.131860335585269 -92.85865421015106 7.136383807767634 0 0 0
5591 1 8.568081880585272 -90.82502023415105 7.136383807767634 0 0 0
5592 1 6.415647994585271 -90.82502023415105 5.892223854567636 0 0 0
5593 1 5.695638790585267 -94.89253667515105 -2.816821168832366 0 0 0
5594 1 3.54320490458527 -94.89253667515105 -1.572676145432366 0 0 0
5595 1 3.54320490458527 -94.89253667515105 -4.060966192232366 0 0 0
5596 1 5.695638790585267 -94.89253667515105 -0.3285161922323656 0 0 0
5597 1 7.131860335585269 -92.85865421015106 -0.3285161922323656 0 0 0
5598 1 4.979426449585272 -92.85865421015106 0.9156288311676359 0 0 0
5599 1 4.979426449585272 -92.85865421015106 -1.572676145432366 0 0 0
5600 1 7.131860335585269 -92.85865421015106 2.159773854567636 0 0 0
5601 1 8.568081880585272 -90.82502023415105 2.159773854567636 0 0 0
5602 1 6.415647994585271 -90.82502023415105 3.403933807767634 0 0 0
5603 1 6.415647994585271 -90.82502023415105 0.9156288311676359 0 0 0
5604 1 8.568081880585272 -90.82502023415105 4.648078831167636 0 0 0
5605 1 10.00430342558527 -88.79138625815105 4.648078831167636 0 0 0
5606 1 7.851869539585273 -88.79138625815105 5.892223854567636 0 0 0
5607 1 7.851869539585273 -88.79138625815105 3.403933807767634 0 0 0
5608 1 10.00430342558527 -88.79138625815105 7.136383807767634 0 0 0
5609 1 11.44052497058527 -86.75775228215105 7.136383807767634 0 0 0
5610 1 9.288091084585268 -86.75775228215105 5.892223854567636 0 0 0
5611 1 3.54320490458527 -94.89253667515105 -6.549272661812366 0 0 0
5612 1 5.695638790585267 -94.89253667515105 -5.305126145432366 0 0 0
5613 1 7.131860335585269 -92.85865421015106 -5.305126145432366 0 0 0
5614 1 4.979426449585272 -92.85865421015106 -4.060966192232366 0 0 0
5615 1 4.979426449585272 -92.85865421015106 -6.549272661812366 0 0 0
5616 1 7.131860335585269 -92.85865421015106 -2.816821168832366 0 0 0
5617 1 8.568081880585272 -90.82502023415105 -2.816821168832366 0 0 0
5618 1 6.415647994585271 -90.82502023415105 -1.572676145432366 0 0 0
5619 1 6.415647994585271 -90.82502023415105 -4.060966192232366 0 0 0
5620 1 8.568081880585272 -90.82502023415105 -0.3285161922323656 0 0 0
5621 1 10.00430342558527 -88.79138625815105 -0.3285161922323656 0 0 0
5622 1 7.851869539585273 -88.79138625815105 0.9156288311676359 0 0 0
5623 1 7.851869539585273 -88.79138625815105 -1.572676145432366 0 0 0
5624 1 10.00430342558527 -88.79138625815105 2.159773854567636 0 0 0
5625 1 11.44052497058527 -86.75775228215105 2.159773854567636 0 0 0
5626 1 9.288091084585268 -86.75775228215105 3.403933807767634 0 0 0
5627 1 9.288091084585268 -86.75775228215105 0.9156288311676359 0 0 0
5628 1 11.44052497058527 -86.75775228215105 4.648078831167636 0 0 0
5629 1 12.87674651558527 -84.72411830615104 4.648078831167636 0 0 0
5630 1 10.72431262958527 -84.72411830615104 5.892223854567636 0 0 0
5631 1 10.72431262958527 -84.72411830615104 3.403933807767634 0 0 0
5632 1 12.87674651558527 -84.72411830615104 7.136383807767634 0 0 0
5633 1 14.31296806058527 -82.69048433015105 7.136383807767634 0 0 0
5634 1 12.16053417458527 -82.69048433015105 5.892223854567636 0 0 0
5635 1 6.415647994585271 -90.82502023415105 -6.549272661812366 0 0 0
5636 1 8.568081880585272 -90.82502023415105 -5.305126145432366 0 0 0
5637 1 10.00430342558527 -88.79138625815105 -5.305126145432366 0 0 0
5638 1 7.851869539585273 -88.79138625815105 -4.060966192232366 0 0 0
5639 1 7.851869539585273 -88.79138625815105 -6.549272661812366 0 0 0
5640 1 10.00430342558527 -88.79138625815105 -2.816821168832366 0 0 0
5641 1 11.44052497058527 -86.75775228215105 -2.816821168832366 0 0 0
5642 1 9.288091084585268 -86.75775228215105 -1.572676145432366 0 0 0
5643 1 9.288091084585268 -86.75775228215105 -4.060966192232366 0 0 0
5644 1 11.44052497058527 -86.75775228215105 -0.3285161922323656 0 0 0
5645 1 12.87674651558527 -84.72411830615104 -0.3285161922323656 0 0 0
5646 1 10.72431262958527 -84.72411830615104 0.9156288311676359 0 0 0
5647 1 10.72431262958527 -84.72411830615104 -1.572676145432366 0 0 0
5648 1 12.87674651558527 -84.72411830615104 2.159773854567636 0 0 0
5649 1 14.31296806058527 -82.69048433015105 2.159773854567636 0 0 0
5650 1 12.16053417458527 -82.69048433015105 3.403933807767634 0 0 0
5651 1 12.16053417458527 -82.69048433015105 0.9156288311676359 0 0 0
5652 1 14.31296806058527 -82.69048433015105 4.648078831167636 0 0 0
5653 1 9.288091084585268 -86.75775228215105 -6.549272661812366 0 0 0
5654 1 11.44052497058527 -86.75775228215105 -5.305126145432366 0 0 0
5655 1 12.87674651558527 -84.72411830615104 -5.305126145432366 0 0 0
5656 1 10.72431262958527 -84.72411830615104 -4.060966192232366 0 0 0
5657 1 10.72431262958527 -84.72411830615104 -6.549272661812366 0 0 0
5658 1 12.87674651558527 -84.72411830615104 -2.816821168832366 0 0 0
5659 1 14.31296806058527 -82.69048433015105 -2.816821168832366 0 0 0
5660 1 12.16053417458527 -82.69048433015105 -1.572676145432366 0 0 0
5661 1 12.16053417458527 -82.69048433015105 -4.060966192232366 0 0 0
5662 1 14.31296806058527 -82.69048433015105 -0.3285161922323656 0 0 0
5663 1 12.16053417458527 -82.69048433015105 -6.549274154792366 0 0 0
5664 1 14.31296806058527 -82.69048433015105 -5.305126145432366 0 0 0
5665 1 1.390809762085269 -94.89253667515105 4.648078831167636 0 0 0
5666 1 1.390809762085269 -94.89253667515105 7.136383807767634 0 0 0
5667 1 2.827031307085271 -92.85865421015106 7.136383807767634 0 0 0
5668 1 0.6745974210852701 -92.85865421015106 5.892223854567636 0 0 0
5669 1 1.390809762085269 -94.89253667515105 -0.3285161922323656 0 0 0
5670 1 1.390809762085269 -94.89253667515105 2.159773854567636 0 0 0
5671 1 2.827031307085271 -92.85865421015106 2.159773854567636 0 0 0
5672 1 0.6745974210852701 -92.85865421015106 3.403933807767634 0 0 0
5673 1 0.6745974210852701 -92.85865421015106 0.9156288311676359 0 0 0
5674 1 2.827031307085271 -92.85865421015106 4.648078831167636 0 0 0
5675 1 4.263252852085269 -90.82502023415105 4.648078831167636 0 0 0
5676 1 2.110818966085272 -90.82502023415105 5.892223854567636 0 0 0
5677 1 2.110818966085272 -90.82502023415105 3.403933807767634 0 0 0
5678 1 4.263252852085269 -90.82502023415105 7.136383807767634 0 0 0
5679 1 5.699474397085272 -88.79138625815105 7.136383807767634 0 0 0
5680 1 3.547040511085267 -88.79138625815105 5.892223854567636 0 0 0
5681 1 1.390809762085269 -94.89253667515105 -5.305126145432366 0 0 0
5682 1 1.390809762085269 -94.89253667515105 -2.816821168832366 0 0 0
5683 1 2.827031307085271 -92.85865421015106 -2.816821168832366 0 0 0
5684 1 0.6745974210852701 -92.85865421015106 -1.572676145432366 0 0 0
5685 1 0.6745974210852701 -92.85865421015106 -4.060966192232366 0 0 0
5686 1 2.827031307085271 -92.85865421015106 -0.3285161922323656 0 0 0
5687 1 4.263252852085269 -90.82502023415105 -0.3285161922323656 0 0 0
5688 1 2.110818966085272 -90.82502023415105 0.9156288311676359 0 0 0
5689 1 2.110818966085272 -90.82502023415105 -1.572676145432366 0 0 0
5690 1 4.263252852085269 -90.82502023415105 2.159773854567636 0 0 0
5691 1 5.699474397085272 -88.79138625815105 2.159773854567636 0 0 0
5692 1 3.547040511085267 -88.79138625815105 3.403933807767634 0 0 0
5693 1 3.547040511085267 -88.79138625815105 0.9156288311676359 0 0 0
5694 1 5.699474397085272 -88.79138625815105 4.648078831167636 0 0 0
5695 1 7.135695942085267 -86.75775228215105 4.648078831167636 0 0 0
5696 1 4.98326205608527 -86.75775228215105 5.892223854567636 0 0 0
5697 1 4.98326205608527 -86.75775228215105 3.403933807767634 0 0 0
5698 1 7.135695942085267 -86.75775228215105 7.136383807767634 0 0 0
5699 1 8.571917487085269 -84.72411830615104 7.136383807767634 0 0 0
5700 1 6.419483601085268 -84.72411830615104 5.892223854567636 0 0 0
5701 1 0.6745974210852701 -92.85865421015106 -6.549272661812366 0 0 0
5702 1 2.827031307085271 -92.85865421015106 -5.305126145432366 0 0 0
5703 1 4.263252852085269 -90.82502023415105 -5.305126145432366 0 0 0
5704 1 2.110818966085272 -90.82502023415105 -4.060966192232366 0 0 0
5705 1 2.110818966085272 -90.82502023415105 -6.549274154792366 0 0 0
5706 1 4.263252852085269 -90.82502023415105 -2.816821168832366 0 0 0
5707 1 5.699474397085272 -88.79138625815105 -2.816821168832366 0 0 0
5708 1 3.547040511085267 -88.79138625815105 -1.572676145432366 0 0 0
5709 1 3.547040511085267 -88.79138625815105 -4.060966192232366 0 0 0
5710 1 5.699474397085272 -88.79138625815105 -0.3285161922323656 0 0 0
5711 1 7.135695942085267 -86.75775228215105 -0.3285161922323656 0 0 0
5712 1 4.98326205608527 -86.75775228215105 0.9156288311676359 0 0 0
5713 1 4.98326205608527 -86.75775228215105 -1.572676145432366 0 0 0
5714 1 7.135695942085267 -86.75775228215105 2.159773854567636 0 0 0
5715 1 8.571917487085269 -84.72411830615104 2.159773854567636 0 0 0
5716 1 6.419483601085268 -84.72411830615104 3.403933807767634 0 0 0
5717 1 6.419483601085268 -84.72411830615104 0.9156288311676359 0 0 0
5718 1 8.571917487085269 -84.72411830615104 4.648078831167636 0 0 0
5719 1 10.00810028858527 -82.69048433015105 4.648078831167636 0 0 0
5720 1 7.85570514608527 -82.69048433015105 5.892223854567636 0 0 0
5721 1 7.85570514608527 -82.69048433015105 3.403933807767634 0 0 0
5722 1 10.00810028858527 -82.69048433015105 7.136383807767634 0 0 0
5723 1 3.547040511085267 -88.79138625815105 -6.549274154792366 0 0 0
5724 1 5.699474397085272 -88.79138625815105 -5.305126145432366 0 0 0
5725 1 7.135695942085267 -86.75775228215105 -5.305126145432366 0 0 0
5726 1 4.98326205608527 -86.75775228215105 -4.060966192232366 0 0 0
5727 1 4.98326205608527 -86.75775228215105 -6.549274154792366 0 0 0
5728 1 7.135695942085267 -86.75775228215105 -2.816821168832366 0 0 0
5729 1 8.571917487085269 -84.72411830615104 -2.816821168832366 0 0 0
5730 1 6.419483601085268 -84.72411830615104 -1.572676145432366 0 0 0
5731 1 6.419483601085268 -84.72411830615104 -4.060966192232366 0 0 0
5732 1 8.571917487085269 -84.72411830615104 -0.3285161922323656 0 0 0
5733 1 10.00810028858527 -82.69048433015105 -0.3285161922323656 0 0 0
5734 1 7.85570514608527 -82.69048433015105 0.9156288311676359 0 0 0
5735 1 7.85570514608527 -82.69048433015105 -1.572676145432366 0 0 0
5736 1 10.00810028858527 -82.69048433015105 2.159773854567636 0 0 0
5737 1 6.419483601085268 -84.72411830615104 -6.549274154792366 0 0 0
5738 1 8.571917487085269 -84.72411830615104 -5.305126145432366 0 0 0
5739 1 10.00810028858527 -82.69048433015105 -5.305126145432366 0 0 0
5740 1 7.85570514608527 -82.69048433015105 -4.060966192232366 0 0 0
5741 1 7.85570514608527 -82.69048433015105 -6.549272661812366 0 0 0
5742 1 10.00810028858527 -82.69048433015105 -2.816821168832366 0 0 0
5743 1 -0.04161491991473198 -90.82502023415105 7.136383807767634 0 0 0
5744 1 -0.04161491991473198 -90.82502023415105 2.159773854567636 0 0 0
5745 1 -0.04161491991473198 -90.82502023415105 4.648078831167636 0 0 0
5746 1 1.39460662508527 -88.79138625815105 4.648078831167636 0 0 0
5747 1 1.39460662508527 -88.79138625815105 7.136383807767634 0 0 0
5748 1 2.830828170085269 -86.75775228215105 7.136383807767634 0 0 0
5749 1 0.678433027585271 -86.75775228215105 5.892223854567636 0 0 0
5750 1 -0.04161491991473198 -90.82502023415105 -2.816821168832366 0 0 0
5751 1 -0.04161491991473198 -90.82502023415105 -0.3285161922323656 0 0 0
5752 1 1.39460662508527 -88.79138625815105 -0.3285161922323656 0 0 0
5753 1 1.39460662508527 -88.79138625815105 2.159773854567636 0 0 0
5754 1 2.830828170085269 -86.75775228215105 2.159773854567636 0 0 0
5755 1 0.678433027585271 -86.75775228215105 3.403933807767634 0 0 0
5756 1 0.678433027585271 -86.75775228215105 0.9156288311676359 0 0 0
5757 1 2.830828170085269 -86.75775228215105 4.648078831167636 0 0 0
5758 1 4.267049715085271 -84.72411830615104 4.648078831167636 0 0 0
5759 1 2.11465457258527 -84.72411830615104 5.892223854567636 0 0 0
5760 1 2.11465457258527 -84.72411830615104 3.403933807767634 0 0 0
5761 1 4.267049715085271 -84.72411830615104 7.136383807767634 0 0 0
5762 1 5.70327126008527 -82.69048433015105 7.136383807767634 0 0 0
5763 1 3.550876117585272 -82.69048433015105 5.892223854567636 0 0 0
5764 1 -0.04161491991473198 -90.82502023415105 -5.305126145432366 0 0 0
5765 1 1.39460662508527 -88.79138625815105 -5.305126145432366 0 0 0
5766 1 1.39460662508527 -88.79138625815105 -2.816821168832366 0 0 0
5767 1 2.830828170085269 -86.75775228215105 -2.816821168832366 0 0 0
5768 1 0.678433027585271 -86.75775228215105 -1.572676145432366 0 0 0
5769 1 0.678433027585271 -86.75775228215105 -4.060966192232366 0 0 0
5770 1 2.830828170085269 -86.75775228215105 -0.3285161922323656 0 0 0
5771 1 4.267049715085271 -84.72411830615104 -0.3285161922323656 0 0 0
5772 1 2.11465457258527 -84.72411830615104 0.9156288311676359 0 0 0
5773 1 2.11465457258527 -84.72411830615104 -1.572676145432366 0 0 0
5774 1 4.267049715085271 -84.72411830615104 2.159773854567636 0 0 0
5775 1 5.70327126008527 -82.69048433015105 2.159773854567636 0 0 0
5776 1 3.550876117585272 -82.69048433015105 3.403933807767634 0 0 0
5777 1 3.550876117585272 -82.69048433015105 0.9156288311676359 0 0 0
5778 1 5.70327126008527 -82.69048433015105 4.648078831167636 0 0 0
5779 1 0.678433027585271 -86.75775228215105 -6.549274154792366 0 0 0
5780 1 2.830828170085269 -86.75775228215105 -5.305126145432366 0 0 0
5781 1 4.267049715085271 -84.72411830615104 -5.305126145432366 0 0 0
5782 1 2.11465457258527 -84.72411830615104 -4.060966192232366 0 0 0
5783 1 2.11465457258527 -84.72411830615104 -6.549274154792366 0 0 0
5784 1 4.267049715085271 -84.72411830615104 -2.816821168832366 0 0 0
5785 1 5.70327126008527 -82.69048433015105 -2.816821168832366 0 0 0
5786 1 3.550876117585272 -82.69048433015105 -1.572676145432366 0 0 0
5787 1 3.550876117585272 -82.69048433015105 -4.060966192232366 0 0 0
5788 1 5.70327126008527 -82.69048433015105 -0.3285161922323656 0 0 0
5789 1 3.550876117585272 -82.69048433015105 -6.549274154792366 0 0 0
5790 1 5.70327126008527 -82.69048433015105 -5.305126145432366 0 0 0
5791 1 -0.03777931341473106 -84.72411830615104 7.136383807767634 0 0 0
5792 1 -0.03777931341473106 -84.72411830615104 2.159773854567636 0 0 0
5793 1 -0.03777931341473106 -84.72411830615104 4.648078831167636 0 0 0
5794 1 1.398442231585271 -82.69048433015105 4.648078831167636 0 0 0
5795 1 1.398442231585271 -82.69048433015105 7.136383807767634 0 0 0
5796 1 -0.03777931341473106 -84.72411830615104 -2.816821168832366 0 0 0
5797 1 -0.03777931341473106 -84.72411830615104 -0.3285161922323656 0 0 0
5798 1 1.398442231585271 -82.69048433015105 -0.3285161922323656 0 0 0
5799 1 1.398442231585271 -82.69048433015105 2.159773854567636 0 0 0
5800 1 -0.03777931341473106 -84.72411830615104 -5.305126145432366 0 0 0
5801 1 1.398442231585271 -82.69048433015105 -5.305126145432366 0 0 0
5802 1 1.398442231585271 -82.69048433015105 -2.816821168832366 0 0 0
5803 1 17.90158474808527 -80.65660186515106 5.892223854567636 0 0 0
5804 1 17.90158474808527 -80.65660186515106 3.403933807767634 0 0 0
5805 1 17.90158474808527 -80.65660186515106 0.9156288311676359 0 0 0
5806 1 19.33780629308527 -78.62296788915106 5.892223854567636 0 0 0
5807 1 19.33780629308527 -78.62296788915106 3.403933807767634 0 0 0
5808 1 17.90158474808527 -80.65660186515106 -1.572676145432366 0 0 0
5809 1 17.90158474808527 -80.65660186515106 -4.060966192232366 0 0 0
5810 1 19.33780629308527 -78.62296788915106 0.9156288311676359 0 0 0
5811 1 19.33780629308527 -78.62296788915106 -1.572676145432366 0 0 0
5812 1 17.90158474808527 -80.65660186515106 -6.549274154792366 0 0 0
5813 1 19.33780629308527 -78.62296788915106 -4.060966192232366 0 0 0
5814 1 19.33780629308527 -78.62296788915106 -6.549274154792366 0 0 0
5815 1 15.74918960558527 -80.65660186515106 4.648078831167636 0 0 0
5816 1 13.59675571958527 -80.65660186515106 5.892223854567636 0 0 0
5817 1 13.59675571958527 -80.65660186515106 3.403933807767634 0 0 0
5818 1 15.74918960558527 -80.65660186515106 7.136383807767634 0 0 0
5819 1 17.18541115058527 -78.62296788915106 7.136383807767634 0 0 0
5820 1 15.03297726458527 -78.62296788915106 5.892223854567636 0 0 0
5821 1 15.74918960558527 -80.65660186515106 -0.3285161922323656 0 0 0
5822 1 13.59675571958527 -80.65660186515106 0.9156288311676359 0 0 0
5823 1 13.59675571958527 -80.65660186515106 -1.572676145432366 0 0 0
5824 1 15.74918960558527 -80.65660186515106 2.159773854567636 0 0 0
5825 1 17.18541115058527 -78.62296788915106 2.159773854567636 0 0 0
5826 1 15.03297726458527 -78.62296788915106 3.403933807767634 0 0 0
5827 1 15.03297726458527 -78.62296788915106 0.9156288311676359 0 0 0
5828 1 17.18541115058527 -78.62296788915106 4.648078831167636 0 0 0
5829 1 18.62163269558527 -76.58933391315105 4.648078831167636 0 0 0
5830 1 16.46919880958527 -76.58933391315105 5.892223854567636 0 0 0
5831 1 16.46919880958527 -76.58933391315105 3.403933807767634 0 0 0
5832 1 18.62163269558527 -76.58933391315105 7.136383807767634 0 0 0
5833 1 17.90542035458527 -74.55569993715105 5.892223854567636 0 0 0
5834 1 15.74918960558527 -80.65660186515106 -5.305126145432366 0 0 0
5835 1 13.59675571958527 -80.65660186515106 -4.060966192232366 0 0 0
5836 1 13.59675571958527 -80.65660186515106 -6.549274154792366 0 0 0
5837 1 15.74918960558527 -80.65660186515106 -2.816821168832366 0 0 0
5838 1 17.18541115058527 -78.62296788915106 -2.816821168832366 0 0 0
5839 1 15.03297726458527 -78.62296788915106 -1.572676145432366 0 0 0
5840 1 15.03297726458527 -78.62296788915106 -4.060966192232366 0 0 0
5841 1 17.18541115058527 -78.62296788915106 -0.3285161922323656 0 0 0
5842 1 18.62163269558527 -76.58933391315105 -0.3285161922323656 0 0 0
5843 1 16.46919880958527 -76.58933391315105 0.9156288311676359 0 0 0
5844 1 16.46919880958527 -76.58933391315105 -1.572676145432366 0 0 0
5845 1 18.62163269558527 -76.58933391315105 2.159773854567636 0 0 0
5846 1 17.90542035458527 -74.55569993715105 3.403933807767634 0 0 0
5847 1 17.90542035458527 -74.55569993715105 0.9156288311676359 0 0 0
5848 1 19.34164189958527 -72.52206596115104 5.892223854567636 0 0 0
5849 1 19.34164189958527 -72.52206596115104 3.403933807767634 0 0 0
5850 1 15.03297726458527 -78.62296788915106 -6.549274154792366 0 0 0
5851 1 17.18541115058527 -78.62296788915106 -5.305126145432366 0 0 0
5852 1 18.62163269558527 -76.58933391315105 -5.305126145432366 0 0 0
5853 1 16.46919880958527 -76.58933391315105 -4.060966192232366 0 0 0
5854 1 16.46919880958527 -76.58933391315105 -6.549274154792366 0 0 0
5855 1 18.62163269558527 -76.58933391315105 -2.816821168832366 0 0 0
5856 1 17.90542035458527 -74.55569993715105 -1.572676145432366 0 0 0
5857 1 17.90542035458527 -74.55569993715105 -4.060966192232366 0 0 0
5858 1 19.34164189958527 -72.52206596115104 0.9156288311676359 0 0 0
5859 1 19.34164189958527 -72.52206596115104 -1.572676145432366 0 0 0
5860 1 17.90542035458527 -74.55569993715105 -6.549274154792366 0 0 0
5861 1 19.34164189958527 -72.52206596115104 -4.060966192232366 0 0 0
5862 1 19.34164189958527 -72.52206596115104 -6.549274154792366 0 0 0
5863 1 11.44432183358527 -80.65660186515106 7.136383807767634 0 0 0
5864 1 9.291926691085273 -80.65660186515106 5.892223854567636 0 0 0
5865 1 11.44432183358527 -80.65660186515106 2.159773854567636 0 0 0
5866 1 9.291926691085273 -80.65660186515106 3.403933807767634 0 0 0
5867 1 9.291926691085273 -80.65660186515106 0.9156288311676359 0 0 0
5868 1 11.44432183358527 -80.65660186515106 4.648078831167636 0 0 0
5869 1 12.88054337858527 -78.62296788915106 4.648078831167636 0 0 0
5870 1 10.72814823608527 -78.62296788915106 5.892223854567636 0 0 0
5871 1 10.72814823608527 -78.62296788915106 3.403933807767634 0 0 0
5872 1 12.88054337858527 -78.62296788915106 7.136383807767634 0 0 0
5873 1 14.31676492358527 -76.58933391315105 7.136383807767634 0 0 0
5874 1 12.16436978108527 -76.58933391315105 5.892223854567636 0 0 0
5875 1 11.44432183358527 -80.65660186515106 -2.816821168832366 0 0 0
5876 1 9.291926691085273 -80.65660186515106 -1.572676145432366 0 0 0
5877 1 9.291926691085273 -80.65660186515106 -4.060966192232366 0 0 0
5878 1 11.44432183358527 -80.65660186515106 -0.3285161922323656 0 0 0
5879 1 12.88054337858527 -78.62296788915106 -0.3285161922323656 0 0 0
5880 1 10.72814823608527 -78.62296788915106 0.9156288311676359 0 0 0
5881 1 10.72814823608527 -78.62296788915106 -1.572676145432366 0 0 0
5882 1 12.88054337858527 -78.62296788915106 2.159773854567636 0 0 0
5883 1 14.31676492358527 -76.58933391315105 2.159773854567636 0 0 0
5884 1 12.16436978108527 -76.58933391315105 3.403933807767634 0 0 0
5885 1 12.16436978108527 -76.58933391315105 0.9156288311676359 0 0 0
5886 1 14.31676492358527 -76.58933391315105 4.648078831167636 0 0 0
5887 1 15.75298646858527 -74.55569993715105 4.648078831167636 0 0 0
5888 1 13.60059132608527 -74.55569993715105 5.892223854567636 0 0 0
5889 1 13.60059132608527 -74.55569993715105 3.403933807767634 0 0 0
5890 1 15.75298646858527 -74.55569993715105 7.136383807767634 0 0 0
5891 1 17.18920801358527 -72.52206596115104 7.136383807767634 0 0 0
5892 1 15.03681287108527 -72.52206596115104 5.892223854567636 0 0 0
5893 1 9.291926691085273 -80.65660186515106 -6.549272661812366 0 0 0
5894 1 11.44432183358527 -80.65660186515106 -5.305126145432366 0 0 0
5895 1 12.88054337858527 -78.62296788915106 -5.305126145432366 0 0 0
5896 1 10.72814823608527 -78.62296788915106 -4.060966192232366 0 0 0
5897 1 10.72814823608527 -78.62296788915106 -6.549272661812366 0 0 0
5898 1 12.88054337858527 -78.62296788915106 -2.816821168832366 0 0 0
5899 1 14.31676492358527 -76.58933391315105 -2.816821168832366 0 0 0
5900 1 12.16436978108527 -76.58933391315105 -1.572676145432366 0 0 0
5901 1 12.16436978108527 -76.58933391315105 -4.060966192232366 0 0 0
5902 1 14.31676492358527 -76.58933391315105 -0.3285161922323656 0 0 0
5903 1 15.75298646858527 -74.55569993715105 -0.3285161922323656 0 0 0
5904 1 13.60059132608527 -74.55569993715105 0.9156288311676359 0 0 0
5905 1 13.60059132608527 -74.55569993715105 -1.572676145432366 0 0 0
5906 1 15.75298646858527 -74.55569993715105 2.159773854567636 0 0 0
5907 1 17.18920801358527 -72.52206596115104 2.159773854567636 0 0 0
5908 1 15.03681287108527 -72.52206596115104 3.403933807767634 0 0 0
5909 1 15.03681287108527 -72.52206596115104 0.9156288311676359 0 0 0
5910 1 17.18920801358527 -72.52206596115104 4.648078831167636 0 0 0
5911 1 18.62542955858527 -70.48843198515105 4.648078831167636 0 0 0
5912 1 16.47303441608527 -70.48843198515105 5.892223854567636 0 0 0
5913 1 16.47303441608527 -70.48843198515105 3.403933807767634 0 0 0
5914 1 18.62542955858527 -70.48843198515105 7.136383807767634 0 0 0
5915 1 17.90925596108527 -68.45479800915105 5.892223854567636 0 0 0
5916 1 12.16436978108527 -76.58933391315105 -6.549274154792366 0 0 0
5917 1 14.31676492358527 -76.58933391315105 -5.305126145432366 0 0 0
5918 1 15.75298646858527 -74.55569993715105 -5.305126145432366 0 0 0
5919 1 13.60059132608527 -74.55569993715105 -4.060966192232366 0 0 0
5920 1 13.60059132608527 -74.55569993715105 -6.549274154792366 0 0 0
5921 1 15.75298646858527 -74.55569993715105 -2.816821168832366 0 0 0
5922 1 17.18920801358527 -72.52206596115104 -2.816821168832366 0 0 0
5923 1 15.03681287108527 -72.52206596115104 -1.572676145432366 0 0 0
5924 1 15.03681287108527 -72.52206596115104 -4.060966192232366 0 0 0
5925 1 17.18920801358527 -72.52206596115104 -0.3285161922323656 0 0 0
5926 1 18.62542955858527 -70.48843198515105 -0.3285161922323656 0 0 0
5927 1 16.47303441608527 -70.48843198515105 0.9156288311676359 0 0 0
5928 1 16.47303441608527 -70.48843198515105 -1.572676145432366 0 0 0
5929 1 18.62542955858527 -70.48843198515105 2.159773854567636 0 0 0
5930 1 17.90925596108527 -68.45479800915105 3.403918877967635 0 0 0
5931 1 17.90925596108527 -68.45479800915105 0.9156288311676359 0 0 0
5932 1 15.03681287108527 -72.52206596115104 -6.549274154792366 0 0 0
5933 1 17.18920801358527 -72.52206596115104 -5.305126145432366 0 0 0
5934 1 18.62542955858527 -70.48843198515105 -5.305126145432366 0 0 0
5935 1 16.47303441608527 -70.48843198515105 -4.060966192232366 0 0 0
5936 1 16.47303441608527 -70.48843198515105 -6.549274154792366 0 0 0
5937 1 18.62542955858527 -70.48843198515105 -2.816821168832366 0 0 0
5938 1 17.90925596108527 -68.45479800915105 -1.572676145432366 0 0 0
5939 1 17.90925596108527 -68.45479800915105 -4.060981122032365 0 0 0
5940 1 17.90925596108527 -68.45479800915105 -6.549274154792366 0 0 0
5941 1 7.139492805085268 -80.65660186515106 4.648078831167636 0 0 0
5942 1 4.987097662585271 -80.65660186515106 5.892223854567636 0 0 0
5943 1 4.987097662585271 -80.65660186515106 3.403933807767634 0 0 0
5944 1 7.139492805085268 -80.65660186515106 7.136383807767634 0 0 0
5945 1 8.575714350085271 -78.62296788915106 7.136383807767634 0 0 0
5946 1 6.423319207585269 -78.62296788915106 5.892223854567636 0 0 0
5947 1 7.139492805085268 -80.65660186515106 -0.3285161922323656 0 0 0
5948 1 4.987097662585271 -80.65660186515106 0.9156288311676359 0 0 0
5949 1 4.987097662585271 -80.65660186515106 -1.572676145432366 0 0 0
5950 1 7.139492805085268 -80.65660186515106 2.159773854567636 0 0 0
5951 1 8.575714350085271 -78.62296788915106 2.159773854567636 0 0 0
5952 1 6.423319207585269 -78.62296788915106 3.403933807767634 0 0 0
5953 1 6.423319207585269 -78.62296788915106 0.9156288311676359 0 0 0
5954 1 8.575714350085271 -78.62296788915106 4.648078831167636 0 0 0
5955 1 10.01193589508527 -76.58933391315105 4.648078831167636 0 0 0
5956 1 7.859540752585268 -76.58933391315105 5.892223854567636 0 0 0
5957 1 7.859540752585268 -76.58933391315105 3.403933807767634 0 0 0
5958 1 10.01193589508527 -76.58933391315105 7.136383807767634 0 0 0
5959 1 11.44815744008527 -74.55569993715105 7.136383807767634 0 0 0
5960 1 9.29576229758527 -74.55569993715105 5.892223854567636 0 0 0
5961 1 7.139492805085268 -80.65660186515106 -5.305126145432366 0 0 0
5962 1 4.987097662585271 -80.65660186515106 -4.060966192232366 0 0 0
5963 1 4.987097662585271 -80.65660186515106 -6.549272661812366 0 0 0
5964 1 7.139492805085268 -80.65660186515106 -2.816821168832366 0 0 0
5965 1 8.575714350085271 -78.62296788915106 -2.816821168832366 0 0 0
5966 1 6.423319207585269 -78.62296788915106 -1.572676145432366 0 0 0
5967 1 6.423319207585269 -78.62296788915106 -4.060966192232366 0 0 0
5968 1 8.575714350085271 -78.62296788915106 -0.3285161922323656 0 0 0
5969 1 10.01193589508527 -76.58933391315105 -0.3285161922323656 0 0 0
5970 1 7.859540752585268 -76.58933391315105 0.9156288311676359 0 0 0
5971 1 7.859540752585268 -76.58933391315105 -1.572676145432366 0 0 0
5972 1 10.01193589508527 -76.58933391315105 2.159773854567636 0 0 0
5973 1 11.44815744008527 -74.55569993715105 2.159773854567636 0 0 0
5974 1 9.29576229758527 -74.55569993715105 3.403933807767634 0 0 0
5975 1 9.29576229758527 -74.55569993715105 0.9156288311676359 0 0 0
5976 1 11.44815744008527 -74.55569993715105 4.648078831167636 0 0 0
5977 1 12.88437898508527 -72.52206596115104 4.648078831167636 0 0 0
5978 1 10.73198384258527 -72.52206596115104 5.892223854567636 0 0 0
5979 1 10.73198384258527 -72.52206596115104 3.403933807767634 0 0 0
5980 1 12.88437898508527 -72.52206596115104 7.136383807767634 0 0 0
5981 1 14.32060053008527 -70.48843198515105 7.136383807767634 0 0 0
5982 1 12.16820538758527 -70.48843198515105 5.892223854567636 0 0 0
5983 1 6.423319207585269 -78.62296788915106 -6.549272661812366 0 0 0
5984 1 8.575714350085271 -78.62296788915106 -5.305126145432366 0 0 0
5985 1 10.01193589508527 -76.58933391315105 -5.305126145432366 0 0 0
5986 1 7.859540752585268 -76.58933391315105 -4.060966192232366 0 0 0
5987 1 7.859540752585268 -76.58933391315105 -6.549272661812366 0 0 0
5988 1 10.01193589508527 -76.58933391315105 -2.816821168832366 0 0 0
5989 1 11.44815744008527 -74.55569993715105 -2.816821168832366 0 0 0
5990 1 9.29576229758527 -74.55569993715105 -1.572676145432366 0 0 0
5991 1 9.29576229758527 -74.55569993715105 -4.060966192232366 0 0 0
5992 1 11.44815744008527 -74.55569993715105 -0.3285161922323656 0 0 0
5993 1 12.88437898508527 -72.52206596115104 -0.3285161922323656 0 0 0
5994 1 10.73198384258527 -72.52206596115104 0.9156288311676359 0 0 0
5995 1 10.73198384258527 -72.52206596115104 -1.572676145432366 0 0 0
5996 1 12.88437898508527 -72.52206596115104 2.159773854567636 0 0 0
5997 1 14.32060053008527 -70.48843198515105 2.159773854567636 0 0 0
5998 1 12.16820538758527 -70.48843198515105 3.403933807767634 0 0 0
5999 1 12.16820538758527 -70.48843198515105 0.9156288311676359 0 0 0
6000 1 14.32060053008527 -70.48843198515105 4.648078831167636 0 0 0
6001 1 15.75682207508526 -68.45479800915105 4.648078831167636 0 0 0
6002 1 13.60442693258527 -68.45479800915105 5.892223854567636 0 0 0
6003 1 13.60442693258527 -68.45479800915105 3.403933807767634 0 0 0
6004 1 15.75682207508526 -68.45479800915105 7.136383807767634 0 0 0
6005 1 9.29576229758527 -74.55569993715105 -6.549272661812366 0 0 0
6006 1 11.44815744008527 -74.55569993715105 -5.305126145432366 0 0 0
6007 1 12.88437898508527 -72.52206596115104 -5.305126145432366 0 0 0
6008 1 10.73198384258527 -72.52206596115104 -4.060966192232366 0 0 0
6009 1 10.73198384258527 -72.52206596115104 -6.549274154792366 0 0 0
6010 1 12.88437898508527 -72.52206596115104 -2.816821168832366 0 0 0
6011 1 14.32060053008527 -70.48843198515105 -2.816821168832366 0 0 0
6012 1 12.16820538758527 -70.48843198515105 -1.572676145432366 0 0 0
6013 1 12.16820538758527 -70.48843198515105 -4.060966192232366 0 0 0
6014 1 14.32060053008527 -70.48843198515105 -0.3285161922323656 0 0 0
6015 1 15.75682207508526 -68.45479800915105 -0.3285161922323656 0 0 0
6016 1 13.60442693258527 -68.45479800915105 0.9156288311676359 0 0 0
6017 1 13.60442693258527 -68.45479800915105 -1.572676145432366 0 0 0
6018 1 15.75682207508526 -68.45479800915105 2.159773854567636 0 0 0
6019 1 12.16820538758527 -70.48843198515105 -6.549274154792366 0 0 0
6020 1 14.32060053008527 -70.48843198515105 -5.305126145432366 0 0 0
6021 1 15.75682207508526 -68.45479800915105 -5.305126145432366 0 0 0
6022 1 13.60442693258527 -68.45479800915105 -4.060966192232366 0 0 0
6023 1 13.60442693258527 -68.45479800915105 -6.549274154792366 0 0 0
6024 1 15.75682207508526 -68.45479800915105 -2.816821168832366 0 0 0
6025 1 2.834663776585273 -80.65660186515106 7.136383807767634 0 0 0
6026 1 0.6822686340852719 -80.65660186515106 5.892223854567636 0 0 0
6027 1 2.834663776585273 -80.65660186515106 2.159773854567636 0 0 0
6028 1 0.6822686340852719 -80.65660186515106 3.403933807767634 0 0 0
6029 1 0.6822686340852719 -80.65660186515106 0.9156288311676359 0 0 0
6030 1 2.834663776585273 -80.65660186515106 4.648078831167636 0 0 0
6031 1 4.270885321585268 -78.62296788915106 4.648078831167636 0 0 0
6032 1 2.118490179085267 -78.62296788915106 5.892223854567636 0 0 0
6033 1 2.118490179085267 -78.62296788915106 3.403933807767634 0 0 0
6034 1 4.270885321585268 -78.62296788915106 7.136383807767634 0 0 0
6035 1 5.707106866585271 -76.58933391315105 7.136383807767634 0 0 0
6036 1 3.554711724085269 -76.58933391315105 5.892223854567636 0 0 0
6037 1 2.834663776585273 -80.65660186515106 -2.816821168832366 0 0 0
6038 1 0.6822686340852719 -80.65660186515106 -1.572676145432366 0 0 0
6039 1 0.6822686340852719 -80.65660186515106 -4.060966192232366 0 0 0
6040 1 2.834663776585273 -80.65660186515106 -0.3285161922323656 0 0 0
6041 1 4.270885321585268 -78.62296788915106 -0.3285161922323656 0 0 0
6042 1 2.118490179085267 -78.62296788915106 0.9156288311676359 0 0 0
6043 1 2.118490179085267 -78.62296788915106 -1.572676145432366 0 0 0
6044 1 4.270885321585268 -78.62296788915106 2.159773854567636 0 0 0
6045 1 5.707106866585271 -76.58933391315105 2.159773854567636 0 0 0
6046 1 3.554711724085269 -76.58933391315105 3.403933807767634 0 0 0
6047 1 3.554711724085269 -76.58933391315105 0.9156288311676359 0 0 0
6048 1 5.707106866585271 -76.58933391315105 4.648078831167636 0 0 0
6049 1 7.143328411585269 -74.55569993715105 4.648078831167636 0 0 0
6050 1 4.990933269085271 -74.55569993715105 5.892223854567636 0 0 0
6051 1 4.990933269085271 -74.55569993715105 3.403933807767634 0 0 0
6052 1 7.143328411585269 -74.55569993715105 7.136383807767634 0 0 0
6053 1 8.579549956585272 -72.52206596115104 7.136383807767634 0 0 0
6054 1 6.42715481408527 -72.52206596115104 5.892223854567636 0 0 0
6055 1 0.6822686340852719 -80.65660186515106 -6.549274154792366 0 0 0
6056 1 2.834663776585273 -80.65660186515106 -5.305126145432366 0 0 0
6057 1 4.270885321585268 -78.62296788915106 -5.305126145432366 0 0 0
6058 1 2.118490179085267 -78.62296788915106 -4.060966192232366 0 0 0
6059 1 2.118490179085267 -78.62296788915106 -6.549272661812366 0 0 0
6060 1 4.270885321585268 -78.62296788915106 -2.816821168832366 0 0 0
6061 1 5.707106866585271 -76.58933391315105 -2.816821168832366 0 0 0
6062 1 3.554711724085269 -76.58933391315105 -1.572676145432366 0 0 0
6063 1 3.554711724085269 -76.58933391315105 -4.060966192232366 0 0 0
6064 1 5.707106866585271 -76.58933391315105 -0.3285161922323656 0 0 0
6065 1 7.143328411585269 -74.55569993715105 -0.3285161922323656 0 0 0
6066 1 4.990933269085271 -74.55569993715105 0.9156288311676359 0 0 0
6067 1 4.990933269085271 -74.55569993715105 -1.572676145432366 0 0 0
6068 1 7.143328411585269 -74.55569993715105 2.159773854567636 0 0 0
6069 1 8.579549956585272 -72.52206596115104 2.159773854567636 0 0 0
6070 1 6.42715481408527 -72.52206596115104 3.403933807767634 0 0 0
6071 1 6.42715481408527 -72.52206596115104 0.9156288311676359 0 0 0
6072 1 8.579549956585272 -72.52206596115104 4.648078831167636 0 0 0
6073 1 10.01577150158527 -70.48843198515105 4.648078831167636 0 0 0
6074 1 7.863376359085272 -70.48843198515105 5.892223854567636 0 0 0
6075 1 7.863376359085272 -70.48843198515105 3.403933807767634 0 0 0
6076 1 10.01577150158527 -70.48843198515105 7.136383807767634 0 0 0
6077 1 11.45199304658527 -68.45479800915105 7.136383807767634 0 0 0
6078 1 9.299597904085267 -68.45479800915105 5.892223854567636 0 0 0
6079 1 3.554711724085269 -76.58933391315105 -6.549272661812366 0 0 0
6080 1 5.707106866585271 -76.58933391315105 -5.305126145432366 0 0 0
6081 1 7.143328411585269 -74.55569993715105 -5.305126145432366 0 0 0
6082 1 4.990933269085271 -74.55569993715105 -4.060966192232366 0 0 0
6083 1 4.990933269085271 -74.55569993715105 -6.549272661812366 0 0 0
6084 1 7.143328411585269 -74.55569993715105 -2.816821168832366 0 0 0
6085 1 8.579549956585272 -72.52206596115104 -2.816821168832366 0 0 0
6086 1 6.42715481408527 -72.52206596115104 -1.572676145432366 0 0 0
6087 1 6.42715481408527 -72.52206596115104 -4.060966192232366 0 0 0
6088 1 8.579549956585272 -72.52206596115104 -0.3285161922323656 0 0 0
6089 1 10.01577150158527 -70.48843198515105 -0.3285161922323656 0 0 0
6090 1 7.863376359085272 -70.48843198515105 0.9156288311676359 0 0 0
6091 1 7.863376359085272 -70.48843198515105 -1.572676145432366 0 0 0
6092 1 10.01577150158527 -70.48843198515105 2.159773854567636 0 0 0
6093 1 11.45199304658527 -68.45479800915105 2.159773854567636 0 0 0
6094 1 9.299597904085267 -68.45479800915105 3.403933807767634 0 0 0
6095 1 9.299597904085267 -68.45479800915105 0.9156288311676359 0 0 0
6096 1 11.45199304658527 -68.45479800915105 4.648078831167636 0 0 0
6097 1 6.42715481408527 -72.52206596115104 -6.549272661812366 0 0 0
6098 1 8.579549956585272 -72.52206596115104 -5.305126145432366 0 0 0
6099 1 10.01577150158527 -70.48843198515105 -5.305126145432366 0 0 0
6100 1 7.863376359085272 -70.48843198515105 -4.060966192232366 0 0 0
6101 1 7.863376359085272 -70.48843198515105 -6.549272661812366 0 0 0
6102 1 10.01577150158527 -70.48843198515105 -2.816821168832366 0 0 0
6103 1 11.45199304658527 -68.45479800915105 -2.816821168832366 0 0 0
6104 1 9.299597904085267 -68.45479800915105 -1.572676145432366 0 0 0
6105 1 9.299597904085267 -68.45479800915105 -4.060966192232366 0 0 0
6106 1 11.45199304658527 -68.45479800915105 -0.3285161922323656 0 0 0
6107 1 9.299597904085267 -68.45479800915105 -6.549274154792366 0 0 0
6108 1 11.45199304658527 -68.45479800915105 -5.305126145432366 0 0 0
6109 1 -0.03394370691473014 -78.62296788915106 7.136383807767634 0 0 0
6110 1 -0.03394370691473014 -78.62296788915106 2.159773854567636 0 0 0
6111 1 -0.03394370691473014 -78.62296788915106 4.648078831167636 0 0 0
6112 1 1.402277838085269 -76.58933391315105 4.648078831167636 0 0 0
6113 1 1.402277838085269 -76.58933391315105 7.136383807767634 0 0 0
6114 1 2.838499383085271 -74.55569993715105 7.136383807767634 0 0 0
6115 1 0.6861042405852693 -74.55569993715105 5.892223854567636 0 0 0
6116 1 -0.03394370691473014 -78.62296788915106 -2.816821168832366 0 0 0
6117 1 -0.03394370691473014 -78.62296788915106 -0.3285161922323656 0 0 0
6118 1 1.402277838085269 -76.58933391315105 -0.3285161922323656 0 0 0
6119 1 1.402277838085269 -76.58933391315105 2.159773854567636 0 0 0
6120 1 2.838499383085271 -74.55569993715105 2.159773854567636 0 0 0
6121 1 0.6861042405852693 -74.55569993715105 3.403933807767634 0 0 0
6122 1 0.6861042405852693 -74.55569993715105 0.9156288311676359 0 0 0
6123 1 2.838499383085271 -74.55569993715105 4.648078831167636 0 0 0
6124 1 4.274720928085273 -72.52206596115104 4.648078831167636 0 0 0
6125 1 2.122325785585272 -72.52206596115104 5.892223854567636 0 0 0
6126 1 2.122325785585272 -72.52206596115104 3.403933807767634 0 0 0
6127 1 4.274720928085273 -72.52206596115104 7.136383807767634 0 0 0
6128 1 5.710942473085268 -70.48843198515105 7.136383807767634 0 0 0
6129 1 3.55854733058527 -70.48843198515105 5.892223854567636 0 0 0
6130 1 -0.03394370691473014 -78.62296788915106 -5.305126145432366 0 0 0
6131 1 1.402277838085269 -76.58933391315105 -5.305126145432366 0 0 0
6132 1 1.402277838085269 -76.58933391315105 -2.816821168832366 0 0 0
6133 1 2.838499383085271 -74.55569993715105 -2.816821168832366 0 0 0
6134 1 0.6861042405852693 -74.55569993715105 -1.572676145432366 0 0 0
6135 1 0.6861042405852693 -74.55569993715105 -4.060966192232366 0 0 0
6136 1 2.838499383085271 -74.55569993715105 -0.3285161922323656 0 0 0
6137 1 4.274720928085273 -72.52206596115104 -0.3285161922323656 0 0 0
6138 1 2.122325785585272 -72.52206596115104 0.9156288311676359 0 0 0
6139 1 2.122325785585272 -72.52206596115104 -1.572676145432366 0 0 0
6140 1 4.274720928085273 -72.52206596115104 2.159773854567636 0 0 0
6141 1 5.710942473085268 -70.48843198515105 2.159773854567636 0 0 0
6142 1 3.55854733058527 -70.48843198515105 3.403933807767634 0 0 0
6143 1 3.55854733058527 -70.48843198515105 0.9156288311676359 0 0 0
6144 1 5.710942473085268 -70.48843198515105 4.648078831167636 0 0 0
6145 1 7.14716401808527 -68.45479800915105 4.648078831167636 0 0 0
6146 1 4.994768875585269 -68.45479800915105 5.892223854567636 0 0 0
6147 1 4.994768875585269 -68.45479800915105 3.403933807767634 0 0 0
6148 1 7.14716401808527 -68.45479800915105 7.136383807767634 0 0 0
6149 1 0.6861042405852693 -74.55569993715105 -6.549272661812366 0 0 0
6150 1 2.838499383085271 -74.55569993715105 -5.305126145432366 0 0 0
6151 1 4.274720928085273 -72.52206596115104 -5.305126145432366 0 0 0
6152 1 2.122325785585272 -72.52206596115104 -4.060966192232366 0 0 0
6153 1 2.122325785585272 -72.52206596115104 -6.549272661812366 0 0 0
6154 1 4.274720928085273 -72.52206596115104 -2.816821168832366 0 0 0
6155 1 5.710942473085268 -70.48843198515105 -2.816821168832366 0 0 0
6156 1 3.55854733058527 -70.48843198515105 -1.572676145432366 0 0 0
6157 1 3.55854733058527 -70.48843198515105 -4.060966192232366 0 0 0
6158 1 5.710942473085268 -70.48843198515105 -0.3285161922323656 0 0 0
6159 1 7.14716401808527 -68.45479800915105 -0.3285161922323656 0 0 0
6160 1 4.994768875585269 -68.45479800915105 0.9156288311676359 0 0 0
6161 1 4.994768875585269 -68.45479800915105 -1.572676145432366 0 0 0
6162 1 7.14716401808527 -68.45479800915105 2.159773854567636 0 0 0
6163 1 3.55854733058527 -70.48843198515105 -6.549272661812366 0 0 0
6164 1 5.710942473085268 -70.48843198515105 -5.305126145432366 0 0 0
6165 1 7.14716401808527 -68.45479800915105 -5.305126145432366 0 0 0
6166 1 4.994768875585269 -68.45479800915105 -4.060966192232366 0 0 0
6167 1 4.994768875585269 -68.45479800915105 -6.549272661812366 0 0 0
6168 1 7.14716401808527 -68.45479800915105 -2.816821168832366 0 0 0
6169 1 -0.03010810041472922 -72.52206596115104 7.136383807767634 0 0 0
6170 1 -0.03010810041472922 -72.52206596115104 2.159773854567636 0 0 0
6171 1 -0.03010810041472922 -72.52206596115104 4.648078831167636 0 0 0
6172 1 1.406113444585269 -70.48843198515105 4.648078831167636 0 0 0
6173 1 1.406113444585269 -70.48843198515105 7.136383807767634 0 0 0
6174 1 2.842334989585268 -68.45479800915105 7.136383807767634 0 0 0
6175 1 0.6899398470852738 -68.45479800915105 5.892223854567636 0 0 0
6176 1 -0.03010810041472922 -72.52206596115104 -2.816821168832366 0 0 0
6177 1 -0.03010810041472922 -72.52206596115104 -0.3285161922323656 0 0 0
6178 1 1.406113444585269 -70.48843198515105 -0.3285161922323656 0 0 0
6179 1 1.406113444585269 -70.48843198515105 2.159773854567636 0 0 0
6180 1 2.842334989585268 -68.45479800915105 2.159773854567636 0 0 0
6181 1 0.6899398470852738 -68.45479800915105 3.403933807767634 0 0 0
6182 1 0.6899398470852738 -68.45479800915105 0.9156288311676359 0 0 0
6183 1 2.842334989585268 -68.45479800915105 4.648078831167636 0 0 0
6184 1 -0.03010810041472922 -72.52206596115104 -5.305126145432366 0 0 0
6185 1 1.406113444585269 -70.48843198515105 -5.305126145432366 0 0 0
6186 1 1.406113444585269 -70.48843198515105 -2.816821168832366 0 0 0
6187 1 2.842334989585268 -68.45479800915105 -2.816821168832366 0 0 0
6188 1 0.6899398470852738 -68.45479800915105 -1.572676145432366 0 0 0
6189 1 0.6899398470852738 -68.45479800915105 -4.060966192232366 0 0 0
6190 1 2.842334989585268 -68.45479800915105 -0.3285161922323656 0 0 0
6191 1 0.6899398470852738 -68.45479800915105 -6.549272661812366 0 0 0
6192 1 2.842334989585268 -68.45479800915105 -5.305126145432366 0 0 0
6193 1 19.34547750608527 -66.42091554415106 5.892223854567636 0 0 0
6194 1 19.34547750608527 -66.42091554415106 3.403918877967635 0 0 0
6195 1 19.34547750608527 -66.42091554415106 0.9156288311676359 0 0 0
6196 1 19.34547750608527 -66.42091554415106 -1.572676145432366 0 0 0
6197 1 19.34547750608527 -66.42091554415106 -4.060981122032365 0 0 0
6198 1 19.34547750608527 -66.42091554415106 -6.549274154792366 0 0 0
6199 1 17.19304362008527 -66.42091554415106 7.136368877967636 0 0 0
6200 1 15.04064847758527 -66.42091554415106 5.892223854567636 0 0 0
6201 1 17.19304362008527 -66.42091554415106 2.159773854567636 0 0 0
6202 1 15.04064847758527 -66.42091554415106 3.403918877967635 0 0 0
6203 1 15.04064847758527 -66.42091554415106 0.9156288311676359 0 0 0
6204 1 17.19304362008527 -66.42091554415106 4.648078831167636 0 0 0
6205 1 18.62926516508527 -64.38728156815105 4.648078831167636 0 0 0
6206 1 16.47687002258527 -64.38728156815105 5.892223854567636 0 0 0
6207 1 16.47687002258527 -64.38728156815105 3.403918877967635 0 0 0
6208 1 18.62926516508527 -64.38728156815105 7.136368877967636 0 0 0
6209 1 17.91309156758527 -62.35364759215105 5.892223854567636 0 0 0
6210 1 17.19304362008527 -66.42091554415106 -2.816821168832366 0 0 0
6211 1 15.04064847758527 -66.42091554415106 -1.572676145432366 0 0 0
6212 1 15.04064847758527 -66.42091554415106 -4.060981122032365 0 0 0
6213 1 17.19304362008527 -66.42091554415106 -0.3285311220323663 0 0 0
6214 1 18.62926516508527 -64.38728156815105 -0.3285311220323663 0 0 0
6215 1 16.47687002258527 -64.38728156815105 0.9156288311676359 0 0 0
6216 1 16.47687002258527 -64.38728156815105 -1.572676145432366 0 0 0
6217 1 18.62926516508527 -64.38728156815105 2.159773854567636 0 0 0
6218 1 17.91309156758527 -62.35364759215105 3.403918877967635 0 0 0
6219 1 17.91309156758527 -62.35364759215105 0.9156288311676359 0 0 0
6220 1 19.34931311258527 -60.32001361615105 5.892223854567636 0 0 0
6221 1 19.34931311258527 -60.32001361615105 3.403918877967635 0 0 0
6222 1 15.04064847758527 -66.42091554415106 -6.549274154792366 0 0 0
6223 1 17.19304362008527 -66.42091554415106 -5.305126145432366 0 0 0
6224 1 18.62926516508527 -64.38728156815105 -5.305126145432366 0 0 0
6225 1 16.47687002258527 -64.38728156815105 -4.060981122032365 0 0 0
6226 1 16.47687002258527 -64.38728156815105 -6.549274154792366 0 0 0
6227 1 18.62926516508527 -64.38728156815105 -2.816821168832366 0 0 0
6228 1 17.91309156758527 -62.35364759215105 -1.572676145432366 0 0 0
6229 1 17.91309156758527 -62.35364759215105 -4.060981122032365 0 0 0
6230 1 19.34931311258527 -60.32001361615105 0.9156288311676359 0 0 0
6231 1 19.34931311258527 -60.32001361615105 -1.572676145432366 0 0 0
6232 1 17.91309156758527 -62.35364759215105 -6.549274154792366 0 0 0
6233 1 19.34931311258527 -60.32001361615105 -4.060981122032365 0 0 0
6234 1 19.34931311258527 -60.32001361615105 -6.549274154792366 0 0 0
6235 1 12.88821459158527 -66.42091554415106 4.648078831167636 0 0 0
6236 1 10.73581944908527 -66.42091554415106 5.892223854567636 0 0 0
6237 1 10.73581944908527 -66.42091554415106 3.403933807767634 0 0 0
6238 1 12.88821459158527 -66.42091554415106 7.136368877967636 0 0 0
6239 1 14.32443613658527 -64.38728156815105 7.136368877967636 0 0 0
6240 1 12.17204099408527 -64.38728156815105 5.892223854567636 0 0 0
6241 1 12.88821459158527 -66.42091554415106 -0.3285311220323663 0 0 0
6242 1 10.73581944908527 -66.42091554415106 0.9156288311676359 0 0 0
6243 1 10.73581944908527 -66.42091554415106 -1.572676145432366 0 0 0
6244 1 12.88821459158527 -66.42091554415106 2.159773854567636 0 0 0
6245 1 14.32443613658527 -64.38728156815105 2.159773854567636 0 0 0
6246 1 12.17204099408527 -64.38728156815105 3.403918877967635 0 0 0
6247 1 12.17204099408527 -64.38728156815105 0.9156288311676359 0 0 0
6248 1 14.32443613658527 -64.38728156815105 4.648078831167636 0 0 0
6249 1 15.76065768158527 -62.35364759215105 4.648078831167636 0 0 0
6250 1 13.60826253908527 -62.35364759215105 5.892223854567636 0 0 0
6251 1 13.60826253908527 -62.35364759215105 3.403918877967635 0 0 0
6252 1 15.76065768158527 -62.35364759215105 7.136368877967636 0 0 0
6253 1 17.19687922658527 -60.32001361615105 7.136368877967636 0 0 0
6254 1 15.04448408408527 -60.32001361615105 5.892223854567636 0 0 0
6255 1 12.88821459158527 -66.42091554415106 -5.305126145432366 0 0 0
6256 1 10.73581944908527 -66.42091554415106 -4.060966192232366 0 0 0
6257 1 10.73581944908527 -66.42091554415106 -6.549274154792366 0 0 0
6258 1 12.88821459158527 -66.42091554415106 -2.816821168832366 0 0 0
6259 1 14.32443613658527 -64.38728156815105 -2.816821168832366 0 0 0
6260 1 12.17204099408527 -64.38728156815105 -1.572676145432366 0 0 0
6261 1 12.17204099408527 -64.38728156815105 -4.060981122032365 0 0 0
6262 1 14.32443613658527 -64.38728156815105 -0.3285311220323663 0 0 0
6263 1 15.76065768158527 -62.35364759215105 -0.3285311220323663 0 0 0
6264 1 13.60826253908527 -62.35364759215105 0.9156288311676359 0 0 0
6265 1 13.60826253908527 -62.35364759215105 -1.572676145432366 0 0 0
6266 1 15.76065768158527 -62.35364759215105 2.159773854567636 0 0 0
6267 1 17.19687922658527 -60.32001361615105 2.159773854567636 0 0 0
6268 1 15.04448408408527 -60.32001361615105 3.403918877967635 0 0 0
6269 1 15.04448408408527 -60.32001361615105 0.9156288311676359 0 0 0
6270 1 17.19687922658527 -60.32001361615105 4.648078831167636 0 0 0
6271 1 18.63310077158527 -58.28637964015104 4.648078831167636 0 0 0
6272 1 16.48070562908527 -58.28637964015104 5.892223854567636 0 0 0
6273 1 16.48070562908527 -58.28637964015104 3.403918877967635 0 0 0
6274 1 18.63310077158527 -58.28637964015104 7.136368877967636 0 0 0
6275 1 17.91692717408527 -56.25274566415105 5.892223854567636 0 0 0
6276 1 12.17204099408527 -64.38728156815105 -6.549274154792366 0 0 0
6277 1 14.32443613658527 -64.38728156815105 -5.305126145432366 0 0 0
6278 1 15.76065768158527 -62.35364759215105 -5.305126145432366 0 0 0
6279 1 13.60826253908527 -62.35364759215105 -4.060981122032365 0 0 0
6280 1 13.60826253908527 -62.35364759215105 -6.549274154792366 0 0 0
6281 1 15.76065768158527 -62.35364759215105 -2.816821168832366 0 0 0
6282 1 17.19687922658527 -60.32001361615105 -2.816821168832366 0 0 0
6283 1 15.04448408408527 -60.32001361615105 -1.572676145432366 0 0 0
6284 1 15.04448408408527 -60.32001361615105 -4.060981122032365 0 0 0
6285 1 17.19687922658527 -60.32001361615105 -0.3285311220323663 0 0 0
6286 1 18.63310077158527 -58.28637964015104 -0.3285311220323663 0 0 0
6287 1 16.48070562908527 -58.28637964015104 0.9156288311676359 0 0 0
6288 1 16.48070562908527 -58.28637964015104 -1.572676145432366 0 0 0
6289 1 18.63310077158527 -58.28637964015104 2.159773854567636 0 0 0
6290 1 17.91692717408527 -56.25274566415105 3.403918877967635 0 0 0
6291 1 17.91692717408527 -56.25274566415105 0.9156288311676359 0 0 0
6292 1 19.35314871908527 -54.21886319915106 5.892223854567636 0 0 0
6293 1 19.35314871908527 -54.21886319915106 3.403918877967635 0 0 0
6294 1 15.04448408408527 -60.32001361615105 -6.549274154792366 0 0 0
6295 1 17.19687922658527 -60.32001361615105 -5.305126145432366 0 0 0
6296 1 18.63310077158527 -58.28637964015104 -5.305126145432366 0 0 0
6297 1 16.48070562908527 -58.28637964015104 -4.060981122032365 0 0 0
6298 1 16.48070562908527 -58.28637964015104 -6.549274154792366 0 0 0
6299 1 18.63310077158527 -58.28637964015104 -2.816821168832366 0 0 0
6300 1 17.91692717408527 -56.25274566415105 -1.572676145432366 0 0 0
6301 1 17.91692717408527 -56.25274566415105 -4.060981122032365 0 0 0
6302 1 19.35314871908527 -54.21886319915106 0.9156288311676359 0 0 0
6303 1 19.35314871908527 -54.21886319915106 -1.572676145432366 0 0 0
6304 1 17.91692717408527 -56.25274566415105 -6.549274154792366 0 0 0
6305 1 19.35314871908527 -54.21886319915106 -4.060981122032365 0 0 0
6306 1 19.35314871908527 -54.21886319915106 -6.549274154792366 0 0 0
6307 1 8.583385563085269 -66.42091554415106 7.136383807767634 0 0 0
6308 1 6.430990420585271 -66.42091554415106 5.892223854567636 0 0 0
6309 1 8.583385563085269 -66.42091554415106 2.159773854567636 0 0 0
6310 1 6.430990420585271 -66.42091554415106 3.403933807767634 0 0 0
6311 1 6.430990420585271 -66.42091554415106 0.9156288311676359 0 0 0
6312 1 8.583385563085269 -66.42091554415106 4.648078831167636 0 0 0
6313 1 10.01960710808527 -64.38728156815105 4.648078831167636 0 0 0
6314 1 7.86721196558527 -64.38728156815105 5.892223854567636 0 0 0
6315 1 7.86721196558527 -64.38728156815105 3.403933807767634 0 0 0
6316 1 10.01960710808527 -64.38728156815105 7.136383807767634 0 0 0
6317 1 11.45582865308527 -62.35364759215105 7.136368877967636 0 0 0
6318 1 9.303433510585272 -62.35364759215105 5.892223854567636 0 0 0
6319 1 8.583385563085269 -66.42091554415106 -2.816821168832366 0 0 0
6320 1 6.430990420585271 -66.42091554415106 -1.572676145432366 0 0 0
6321 1 6.430990420585271 -66.42091554415106 -4.060966192232366 0 0 0
6322 1 8.583385563085269 -66.42091554415106 -0.3285161922323656 0 0 0
6323 1 10.01960710808527 -64.38728156815105 -0.3285161922323656 0 0 0
6324 1 7.86721196558527 -64.38728156815105 0.9156288311676359 0 0 0
6325 1 7.86721196558527 -64.38728156815105 -1.572676145432366 0 0 0
6326 1 10.01960710808527 -64.38728156815105 2.159773854567636 0 0 0
6327 1 11.45582865308527 -62.35364759215105 2.159773854567636 0 0 0
6328 1 9.303433510585272 -62.35364759215105 3.403918877967635 0 0 0
6329 1 9.303433510585272 -62.35364759215105 0.9156288311676359 0 0 0
6330 1 11.45582865308527 -62.35364759215105 4.648078831167636 0 0 0
6331 1 12.89205019808527 -60.32001361615105 4.648078831167636 0 0 0
6332 1 10.73965505558527 -60.32001361615105 5.892223854567636 0 0 0
6333 1 10.73965505558527 -60.32001361615105 3.403918877967635 0 0 0
6334 1 12.89205019808527 -60.32001361615105 7.136368877967636 0 0 0
6335 1 14.32827174308527 -58.28637964015104 7.136368877967636 0 0 0
6336 1 12.17587660058527 -58.28637964015104 5.892223854567636 0 0 0
6337 1 6.430990420585271 -66.42091554415106 -6.549272661812366 0 0 0
6338 1 8.583385563085269 -66.42091554415106 -5.305126145432366 0 0 0
6339 1 10.01960710808527 -64.38728156815105 -5.305126145432366 0 0 0
6340 1 7.86721196558527 -64.38728156815105 -4.060966192232366 0 0 0
6341 1 7.86721196558527 -64.38728156815105 -6.549274154792366 0 0 0
6342 1 10.01960710808527 -64.38728156815105 -2.816821168832366 0 0 0
6343 1 11.45582865308527 -62.35364759215105 -2.816821168832366 0 0 0
6344 1 9.303433510585272 -62.35364759215105 -1.572676145432366 0 0 0
6345 1 9.303433510585272 -62.35364759215105 -4.060981122032365 0 0 0
6346 1 11.45582865308527 -62.35364759215105 -0.3285311220323663 0 0 0
6347 1 12.89205019808527 -60.32001361615105 -0.3285311220323663 0 0 0
6348 1 10.73965505558527 -60.32001361615105 0.9156288311676359 0 0 0
6349 1 10.73965505558527 -60.32001361615105 -1.572676145432366 0 0 0
6350 1 12.89205019808527 -60.32001361615105 2.159773854567636 0 0 0
6351 1 14.32827174308527 -58.28637964015104 2.159773854567636 0 0 0
6352 1 12.17587660058527 -58.28637964015104 3.403918877967635 0 0 0
6353 1 12.17587660058527 -58.28637964015104 0.9156288311676359 0 0 0
6354 1 14.32827174308527 -58.28637964015104 4.648078831167636 0 0 0
6355 1 15.76449328808527 -56.25274566415105 4.648078831167636 0 0 0
6356 1 13.61209814558527 -56.25274566415105 5.892223854567636 0 0 0
6357 1 13.61209814558527 -56.25274566415105 3.403918877967635 0 0 0
6358 1 15.76449328808527 -56.25274566415105 7.136368877967636 0 0 0
6359 1 17.20071483308527 -54.21886319915106 7.136368877967636 0 0 0
6360 1 15.04828094708527 -54.21886319915106 5.892223854567636 0 0 0
6361 1 9.303433510585272 -62.35364759215105 -6.549274154792366 0 0 0
6362 1 11.45582865308527 -62.35364759215105 -5.305126145432366 0 0 0
6363 1 12.89205019808527 -60.32001361615105 -5.305126145432366 0 0 0
6364 1 10.73965505558527 -60.32001361615105 -4.060981122032365 0 0 0
6365 1 10.73965505558527 -60.32001361615105 -6.549274154792366 0 0 0
6366 1 12.89205019808527 -60.32001361615105 -2.816821168832366 0 0 0
6367 1 14.32827174308527 -58.28637964015104 -2.816821168832366 0 0 0
6368 1 12.17587660058527 -58.28637964015104 -1.572676145432366 0 0 0
6369 1 12.17587660058527 -58.28637964015104 -4.060981122032365 0 0 0
6370 1 14.32827174308527 -58.28637964015104 -0.3285311220323663 0 0 0
6371 1 15.76449328808527 -56.25274566415105 -0.3285311220323663 0 0 0
6372 1 13.61209814558527 -56.25274566415105 0.9156288311676359 0 0 0
6373 1 13.61209814558527 -56.25274566415105 -1.572676145432366 0 0 0
6374 1 15.76449328808527 -56.25274566415105 2.159773854567636 0 0 0
6375 1 17.20071483308527 -54.21886319915106 2.159773854567636 0 0 0
6376 1 15.04828094708527 -54.21886319915106 3.403918877967635 0 0 0
6377 1 15.04828094708527 -54.21886319915106 0.9156288311676359 0 0 0
6378 1 17.20071483308527 -54.21886319915106 4.648078831167636 0 0 0
6379 1 12.17587660058527 -58.28637964015104 -6.549274154792366 0 0 0
6380 1 14.32827174308527 -58.28637964015104 -5.305126145432366 0 0 0
6381 1 15.76449328808527 -56.25274566415105 -5.305126145432366 0 0 0
6382 1 13.61209814558527 -56.25274566415105 -4.060981122032365 0 0 0
6383 1 13.61209814558527 -56.25274566415105 -6.549275647772366 0 0 0
6384 1 15.76449328808527 -56.25274566415105 -2.816821168832366 0 0 0
6385 1 17.20071483308527 -54.21886319915106 -2.816821168832366 0 0 0
6386 1 15.04828094708527 -54.21886319915106 -1.572676145432366 0 0 0
6387 1 15.04828094708527 -54.21886319915106 -4.060981122032365 0 0 0
6388 1 17.20071483308527 -54.21886319915106 -0.3285311220323663 0 0 0
6389 1 15.04828094708527 -54.21886319915106 -6.549275647772366 0 0 0
6390 1 17.20071483308527 -54.21886319915106 -5.305126145432366 0 0 0
6391 1 4.27855653458527 -66.42091554415106 4.648078831167636 0 0 0
6392 1 2.126161392085269 -66.42091554415106 5.892223854567636 0 0 0
6393 1 2.126161392085269 -66.42091554415106 3.403933807767634 0 0 0
6394 1 4.27855653458527 -66.42091554415106 7.136383807767634 0 0 0
6395 1 5.714778079585273 -64.38728156815105 7.136383807767634 0 0 0
6396 1 3.562382937085271 -64.38728156815105 5.892223854567636 0 0 0
6397 1 4.27855653458527 -66.42091554415106 -0.3285161922323656 0 0 0
6398 1 2.126161392085269 -66.42091554415106 0.9156288311676359 0 0 0
6399 1 2.126161392085269 -66.42091554415106 -1.572676145432366 0 0 0
6400 1 4.27855653458527 -66.42091554415106 2.159773854567636 0 0 0
6401 1 5.714778079585273 -64.38728156815105 2.159773854567636 0 0 0
6402 1 3.562382937085271 -64.38728156815105 3.403933807767634 0 0 0
6403 1 3.562382937085271 -64.38728156815105 0.9156288311676359 0 0 0
6404 1 5.714778079585273 -64.38728156815105 4.648078831167636 0 0 0
6405 1 7.150999624585271 -62.35364759215105 4.648078831167636 0 0 0
6406 1 4.99860448208527 -62.35364759215105 5.892223854567636 0 0 0
6407 1 4.99860448208527 -62.35364759215105 3.403933807767634 0 0 0
6408 1 7.150999624585271 -62.35364759215105 7.136383807767634 0 0 0
6409 1 8.58722116958527 -60.32001361615105 7.136368877967636 0 0 0
6410 1 6.434826027085272 -60.32001361615105 5.892223854567636 0 0 0
6411 1 4.27855653458527 -66.42091554415106 -5.305126145432366 0 0 0
6412 1 2.126161392085269 -66.42091554415106 -4.060966192232366 0 0 0
6413 1 2.126161392085269 -66.42091554415106 -6.549272661812366 0 0 0
6414 1 4.27855653458527 -66.42091554415106 -2.816821168832366 0 0 0
6415 1 5.714778079585273 -64.38728156815105 -2.816821168832366 0 0 0
6416 1 3.562382937085271 -64.38728156815105 -1.572676145432366 0 0 0
6417 1 3.562382937085271 -64.38728156815105 -4.060966192232366 0 0 0
6418 1 5.714778079585273 -64.38728156815105 -0.3285161922323656 0 0 0
6419 1 7.150999624585271 -62.35364759215105 -0.3285161922323656 0 0 0
6420 1 4.99860448208527 -62.35364759215105 0.9156288311676359 0 0 0
6421 1 4.99860448208527 -62.35364759215105 -1.572676145432366 0 0 0
6422 1 7.150999624585271 -62.35364759215105 2.159773854567636 0 0 0
6423 1 8.58722116958527 -60.32001361615105 2.159773854567636 0 0 0
6424 1 6.434826027085272 -60.32001361615105 3.403918877967635 0 0 0
6425 1 6.434826027085272 -60.32001361615105 0.9156288311676359 0 0 0
6426 1 8.58722116958527 -60.32001361615105 4.648078831167636 0 0 0
6427 1 10.02344271458527 -58.28637964015104 4.648078831167636 0 0 0
6428 1 7.871047572085267 -58.28637964015104 5.892223854567636 0 0 0
6429 1 7.871047572085267 -58.28637964015104 3.403918877967635 0 0 0
6430 1 10.02344271458527 -58.28637964015104 7.136368877967636 0 0 0
6431 1 11.45966425958527 -56.25274566415105 7.136368877967636 0 0 0
6432 1 9.307269117085269 -56.25274566415105 5.892223854567636 0 0 0
6433 1 3.562382937085271 -64.38728156815105 -6.549272661812366 0 0 0
6434 1 5.714778079585273 -64.38728156815105 -5.305126145432366 0 0 0
6435 1 7.150999624585271 -62.35364759215105 -5.305126145432366 0 0 0
6436 1 4.99860448208527 -62.35364759215105 -4.060966192232366 0 0 0
6437 1 4.99860448208527 -62.35364759215105 -6.549272661812366 0 0 0
6438 1 7.150999624585271 -62.35364759215105 -2.816821168832366 0 0 0
6439 1 8.58722116958527 -60.32001361615105 -2.816821168832366 0 0 0
6440 1 6.434826027085272 -60.32001361615105 -1.572676145432366 0 0 0
6441 1 6.434826027085272 -60.32001361615105 -4.060981122032365 0 0 0
6442 1 8.58722116958527 -60.32001361615105 -0.3285311220323663 0 0 0
6443 1 10.02344271458527 -58.28637964015104 -0.3285311220323663 0 0 0
6444 1 7.871047572085267 -58.28637964015104 0.9156288311676359 0 0 0
6445 1 7.871047572085267 -58.28637964015104 -1.572676145432366 0 0 0
6446 1 10.02344271458527 -58.28637964015104 2.159773854567636 0 0 0
6447 1 11.45966425958527 -56.25274566415105 2.159773854567636 0 0 0
6448 1 9.307269117085269 -56.25274566415105 3.403918877967635 0 0 0
6449 1 9.307269117085269 -56.25274566415105 0.9156288311676359 0 0 0
6450 1 11.45966425958527 -56.25274566415105 4.648078831167636 0 0 0
6451 1 12.89588580458527 -54.21886319915106 4.648078831167636 0 0 0
6452 1 10.74349066208527 -54.21886319915106 5.892223854567636 0 0 0
6453 1 10.74349066208527 -54.21886319915106 3.403918877967635 0 0 0
6454 1 12.89588580458527 -54.21886319915106 7.136368877967636 0 0 0
6455 1 6.434826027085272 -60.32001361615105 -6.549274154792366 0 0 0
6456 1 8.58722116958527 -60.32001361615105 -5.305126145432366 0 0 0
6457 1 10.02344271458527 -58.28637964015104 -5.305126145432366 0 0 0
6458 1 7.871047572085267 -58.28637964015104 -4.060981122032365 0 0 0
6459 1 7.871047572085267 -58.28637964015104 -6.549274154792366 0 0 0
6460 1 10.02344271458527 -58.28637964015104 -2.816821168832366 0 0 0
6461 1 11.45966425958527 -56.25274566415105 -2.816821168832366 0 0 0
6462 1 9.307269117085269 -56.25274566415105 -1.572676145432366 0 0 0
6463 1 9.307269117085269 -56.25274566415105 -4.060981122032365 0 0 0
6464 1 11.45966425958527 -56.25274566415105 -0.3285311220323663 0 0 0
6465 1 12.89588580458527 -54.21886319915106 -0.3285311220323663 0 0 0
6466 1 10.74349066208527 -54.21886319915106 0.9156288311676359 0 0 0
6467 1 10.74349066208527 -54.21886319915106 -1.572676145432366 0 0 0
6468 1 12.89588580458527 -54.21886319915106 2.159773854567636 0 0 0
6469 1 9.307269117085269 -56.25274566415105 -6.549275647772366 0 0 0
6470 1 11.45966425958527 -56.25274566415105 -5.305126145432366 0 0 0
6471 1 12.89588580458527 -54.21886319915106 -5.305126145432366 0 0 0
6472 1 10.74349066208527 -54.21886319915106 -4.060981122032365 0 0 0
6473 1 10.74349066208527 -54.21886319915106 -6.549275647772366 0 0 0
6474 1 12.89588580458527 -54.21886319915106 -2.816821168832366 0 0 0
6475 1 -0.0262724939147283 -66.42091554415106 7.136383807767634 0 0 0
6476 1 1.40994905108527 -64.38728156815105 4.648078831167636 0 0 0
6477 1 1.40994905108527 -64.38728156815105 7.136383807767634 0 0 0
6478 1 2.846170596085273 -62.35364759215105 7.136383807767634 0 0 0
6479 1 0.6937754535852712 -62.35364759215105 5.892223854567636 0 0 0
6480 1 -0.0262724939147283 -66.42091554415106 -0.3285161922323656 0 0 0
6481 1 1.40994905108527 -64.38728156815105 -0.3285161922323656 0 0 0
6482 1 1.40994905108527 -64.38728156815105 2.159773854567636 0 0 0
6483 1 2.846170596085273 -62.35364759215105 2.159773854567636 0 0 0
6484 1 0.6937754535852712 -62.35364759215105 3.403933807767634 0 0 0
6485 1 0.6937754535852712 -62.35364759215105 0.9156288311676359 0 0 0
6486 1 2.846170596085273 -62.35364759215105 4.648078831167636 0 0 0
6487 1 4.282392141085268 -60.32001361615105 4.648078831167636 0 0 0
6488 1 2.129996998585273 -60.32001361615105 5.892223854567636 0 0 0
6489 1 2.129996998585273 -60.32001361615105 3.403933807767634 0 0 0
6490 1 4.282392141085268 -60.32001361615105 7.136383807767634 0 0 0
6491 1 5.71861368608527 -58.28637964015104 7.136368877967636 0 0 0
6492 1 3.566218543585268 -58.28637964015104 5.892223854567636 0 0 0
6493 1 1.40994905108527 -64.38728156815105 -5.305126145432366 0 0 0
6494 1 1.40994905108527 -64.38728156815105 -2.816821168832366 0 0 0
6495 1 2.846170596085273 -62.35364759215105 -2.816821168832366 0 0 0
6496 1 0.6937754535852712 -62.35364759215105 -1.572676145432366 0 0 0
6497 1 0.6937754535852712 -62.35364759215105 -4.060966192232366 0 0 0
6498 1 2.846170596085273 -62.35364759215105 -0.3285161922323656 0 0 0
6499 1 4.282392141085268 -60.32001361615105 -0.3285161922323656 0 0 0
6500 1 2.129996998585273 -60.32001361615105 0.9156288311676359 0 0 0
6501 1 2.129996998585273 -60.32001361615105 -1.572676145432366 0 0 0
6502 1 4.282392141085268 -60.32001361615105 2.159773854567636 0 0 0
6503 1 5.71861368608527 -58.28637964015104 2.159773854567636 0 0 0
6504 1 3.566218543585268 -58.28637964015104 3.403933807767634 0 0 0
6505 1 3.566218543585268 -58.28637964015104 0.9156288311676359 0 0 0
6506 1 5.71861368608527 -58.28637964015104 4.648078831167636 0 0 0
6507 1 7.154835231085269 -56.25274566415105 4.648078831167636 0 0 0
6508 1 5.002440088585271 -56.25274566415105 5.892223854567636 0 0 0
6509 1 5.002440088585271 -56.25274566415105 3.403918877967635 0 0 0
6510 1 7.154835231085269 -56.25274566415105 7.136368877967636 0 0 0
6511 1 8.591056776085271 -54.21886319915106 7.136368877967636 0 0 0
6512 1 6.438661633585269 -54.21886319915106 5.892223854567636 0 0 0
6513 1 0.6937754535852712 -62.35364759215105 -6.549272661812366 0 0 0
6514 1 2.846170596085273 -62.35364759215105 -5.305126145432366 0 0 0
6515 1 4.282392141085268 -60.32001361615105 -5.305126145432366 0 0 0
6516 1 2.129996998585273 -60.32001361615105 -4.060966192232366 0 0 0
6517 1 2.129996998585273 -60.32001361615105 -6.549272661812366 0 0 0
6518 1 4.282392141085268 -60.32001361615105 -2.816821168832366 0 0 0
6519 1 5.71861368608527 -58.28637964015104 -2.816821168832366 0 0 0
6520 1 3.566218543585268 -58.28637964015104 -1.572676145432366 0 0 0
6521 1 3.566218543585268 -58.28637964015104 -4.060966192232366 0 0 0
6522 1 5.71861368608527 -58.28637964015104 -0.3285311220323663 0 0 0
6523 1 7.154835231085269 -56.25274566415105 -0.3285311220323663 0 0 0
6524 1 5.002440088585271 -56.25274566415105 0.9156288311676359 0 0 0
6525 1 5.002440088585271 -56.25274566415105 -1.572676145432366 0 0 0
6526 1 7.154835231085269 -56.25274566415105 2.159773854567636 0 0 0
6527 1 8.591056776085271 -54.21886319915106 2.159773854567636 0 0 0
6528 1 6.438661633585269 -54.21886319915106 3.403918877967635 0 0 0
6529 1 6.438661633585269 -54.21886319915106 0.9156288311676359 0 0 0
6530 1 8.591056776085271 -54.21886319915106 4.648078831167636 0 0 0
6531 1 3.566218543585268 -58.28637964015104 -6.549272661812366 0 0 0
6532 1 5.71861368608527 -58.28637964015104 -5.305126145432366 0 0 0
6533 1 7.154835231085269 -56.25274566415105 -5.305126145432366 0 0 0
6534 1 5.002440088585271 -56.25274566415105 -4.060981122032365 0 0 0
6535 1 5.002440088585271 -56.25274566415105 -6.549274154792366 0 0 0
6536 1 7.154835231085269 -56.25274566415105 -2.816821168832366 0 0 0
6537 1 8.591056776085271 -54.21886319915106 -2.816821168832366 0 0 0
6538 1 6.438661633585269 -54.21886319915106 -1.572676145432366 0 0 0
6539 1 6.438661633585269 -54.21886319915106 -4.060981122032365 0 0 0
6540 1 8.591056776085271 -54.21886319915106 -0.3285311220323663 0 0 0
6541 1 6.438661633585269 -54.21886319915106 -6.549275647772366 0 0 0
6542 1 8.591056776085271 -54.21886319915106 -5.305126145432366 0 0 0
6543 1 -0.02243688741473093 -60.32001361615105 7.136383807767634 0 0 0
6544 1 -0.02243688741473093 -60.32001361615105 2.159773854567636 0 0 0
6545 1 -0.02243688741473093 -60.32001361615105 4.648078831167636 0 0 0
6546 1 1.413784657585271 -58.28637964015104 4.648078831167636 0 0 0
6547 1 1.413784657585271 -58.28637964015104 7.136383807767634 0 0 0
6548 1 2.85000620258527 -56.25274566415105 7.136383807767634 0 0 0
6549 1 0.6976110600852685 -56.25274566415105 5.892223854567636 0 0 0
6550 1 -0.02243688741473093 -60.32001361615105 -2.816821168832366 0 0 0
6551 1 -0.02243688741473093 -60.32001361615105 -0.3285161922323656 0 0 0
6552 1 1.413784657585271 -58.28637964015104 -0.3285161922323656 0 0 0
6553 1 1.413784657585271 -58.28637964015104 2.159773854567636 0 0 0
6554 1 2.85000620258527 -56.25274566415105 2.159773854567636 0 0 0
6555 1 0.6976110600852685 -56.25274566415105 3.403933807767634 0 0 0
6556 1 0.6976110600852685 -56.25274566415105 0.9156288311676359 0 0 0
6557 1 2.85000620258527 -56.25274566415105 4.648078831167636 0 0 0
6558 1 4.286227747585272 -54.21911168815105 4.648078831167636 0 0 0
6559 1 2.133832605085271 -54.21911168815105 5.892223854567636 0 0 0
6560 1 2.133832605085271 -54.21911168815105 3.403918877967635 0 0 0
6561 1 4.286227747585272 -54.21911168815105 7.136368877967636 0 0 0
6562 1 -0.02243688741473093 -60.32001361615105 -5.305126145432366 0 0 0
6563 1 1.413784657585271 -58.28637964015104 -5.305126145432366 0 0 0
6564 1 1.413784657585271 -58.28637964015104 -2.816821168832366 0 0 0
6565 1 2.85000620258527 -56.25274566415105 -2.816821168832366 0 0 0
6566 1 0.6976110600852685 -56.25274566415105 -1.572676145432366 0 0 0
6567 1 0.6976110600852685 -56.25274566415105 -4.060966192232366 0 0 0
6568 1 2.85000620258527 -56.25274566415105 -0.3285161922323656 0 0 0
6569 1 4.286227747585272 -54.21911168815105 -0.3285311220323663 0 0 0
6570 1 2.133832605085271 -54.21911168815105 0.9156288311676359 0 0 0
6571 1 2.133832605085271 -54.21911168815105 -1.572676145432366 0 0 0
6572 1 4.286227747585272 -54.21911168815105 2.159773854567636 0 0 0
6573 1 0.6976110600852685 -56.25274566415105 -6.549272661812366 0 0 0
6574 1 2.85000620258527 -56.25274566415105 -5.305126145432366 0 0 0
6575 1 4.286227747585272 -54.21911168815105 -5.305126145432366 0 0 0
6576 1 2.133832605085271 -54.21911168815105 -4.060981122032365 0 0 0
6577 1 2.133832605085271 -54.21911168815105 -6.549274154792366 0 0 0
6578 1 4.286227747585272 -54.21911168815105 -2.816821168832366 0 0 0
6579 1 -0.01860128091473001 -54.21911168815105 2.159773854567636 0 0 0
6580 1 -0.01860128091473001 -54.21911168815105 -2.816821168832366 0 0 0
6581 1 -0.01860128091473001 -54.21911168815105 -0.3285161922323656 0 0 0
6582 1 18.63693637808527 -52.18522922315105 4.648078831167636 0 0 0
6583 1 16.48450249208527 -52.18522922315105 5.892223854567636 0 0 0
6584 1 16.48450249208527 -52.18522922315105 3.403918877967635 0 0 0
6585 1 18.63693637808527 -52.18522922315105 7.136368877967636 0 0 0
6586 1 17.92072403708527 -50.15159524715105 5.892223854567636 0 0 0
6587 1 18.63693637808527 -52.18522922315105 -0.3285311220323663 0 0 0
6588 1 16.48450249208527 -52.18522922315105 0.9156288311676359 0 0 0
6589 1 16.48450249208527 -52.18522922315105 -1.572676145432366 0 0 0
6590 1 18.63693637808527 -52.18522922315105 2.159773854567636 0 0 0
6591 1 17.92072403708527 -50.15159524715105 3.403918877967635 0 0 0
6592 1 17.92072403708527 -50.15159524715105 0.9156288311676359 0 0 0
6593 1 19.35694558208527 -48.11796127115105 5.892223854567636 0 0 0
6594 1 19.35694558208527 -48.11796127115105 3.403933807767634 0 0 0
6595 1 18.63693637808527 -52.18522922315105 -5.305126145432366 0 0 0
6596 1 16.48450249208527 -52.18522922315105 -4.060981122032365 0 0 0
6597 1 16.48450249208527 -52.18522922315105 -6.549275647772366 0 0 0
6598 1 18.63693637808527 -52.18522922315105 -2.816821168832366 0 0 0
6599 1 17.92072403708527 -50.15159524715105 -1.572676145432366 0 0 0
6600 1 17.92072403708527 -50.15159524715105 -4.060981122032365 0 0 0
6601 1 19.35694558208527 -48.11796127115105 0.9156288311676359 0 0 0
6602 1 19.35694558208527 -48.11796127115105 -1.572676145432366 0 0 0
6603 1 17.92072403708527 -50.15159524715105 -6.549274154792366 0 0 0
6604 1 19.35694558208527 -48.11796127115105 -4.060966192232366 0 0 0
6605 1 19.35694558208527 -48.11796127115105 -6.549271168832366 0 0 0
6606 1 14.33210734958527 -52.18522922315105 7.136368877967636 0 0 0
6607 1 12.17967346358527 -52.18522922315105 5.892223854567636 0 0 0
6608 1 14.33210734958527 -52.18522922315105 2.159773854567636 0 0 0
6609 1 12.17967346358527 -52.18522922315105 3.403918877967635 0 0 0
6610 1 12.17967346358527 -52.18522922315105 0.9156288311676359 0 0 0
6611 1 14.33210734958527 -52.18522922315105 4.648078831167636 0 0 0
6612 1 15.76832889458527 -50.15159524715105 4.648078831167636 0 0 0
6613 1 13.61589500858527 -50.15159524715105 5.892223854567636 0 0 0
6614 1 13.61589500858527 -50.15159524715105 3.403918877967635 0 0 0
6615 1 15.76832889458527 -50.15159524715105 7.136368877967636 0 0 0
6616 1 17.20455043958527 -48.11796127115105 7.136368877967636 0 0 0
6617 1 15.05211655358527 -48.11796127115105 5.892223854567636 0 0 0
6618 1 14.33210734958527 -52.18522922315105 -2.816821168832366 0 0 0
6619 1 12.17967346358527 -52.18522922315105 -1.572676145432366 0 0 0
6620 1 12.17967346358527 -52.18522922315105 -4.060981122032365 0 0 0
6621 1 14.33210734958527 -52.18522922315105 -0.3285311220323663 0 0 0
6622 1 15.76832889458527 -50.15159524715105 -0.3285311220323663 0 0 0
6623 1 13.61589500858527 -50.15159524715105 0.9156288311676359 0 0 0
6624 1 13.61589500858527 -50.15159524715105 -1.572676145432366 0 0 0
6625 1 15.76832889458527 -50.15159524715105 2.159773854567636 0 0 0
6626 1 17.20455043958527 -48.11796127115105 2.159773854567636 0 0 0
6627 1 15.05211655358527 -48.11796127115105 3.403918877967635 0 0 0
6628 1 15.05211655358527 -48.11796127115105 0.9156288311676359 0 0 0
6629 1 17.20455043958527 -48.11796127115105 4.648078831167636 0 0 0
6630 1 18.64077198458527 -46.08432729515104 4.648078831167636 0 0 0
6631 1 16.48833809858527 -46.08432729515104 5.892223854567636 0 0 0
6632 1 16.48833809858527 -46.08432729515104 3.403933807767634 0 0 0
6633 1 18.64077198458527 -46.08432729515104 7.136383807767634 0 0 0
6634 1 17.92455964358527 -44.05069331915105 5.892238784367633 0 0 0
6635 1 12.17967346358527 -52.18522922315105 -6.549277140752365 0 0 0
6636 1 14.33210734958527 -52.18522922315105 -5.305126145432366 0 0 0
6637 1 15.76832889458527 -50.15159524715105 -5.305126145432366 0 0 0
6638 1 13.61589500858527 -50.15159524715105 -4.060981122032365 0 0 0
6639 1 13.61589500858527 -50.15159524715105 -6.549277140752365 0 0 0
6640 1 15.76832889458527 -50.15159524715105 -2.816821168832366 0 0 0
6641 1 17.20455043958527 -48.11796127115105 -2.816821168832366 0 0 0
6642 1 15.05211655358527 -48.11796127115105 -1.572676145432366 0 0 0
6643 1 15.05211655358527 -48.11796127115105 -4.060981122032365 0 0 0
6644 1 17.20455043958527 -48.11796127115105 -0.3285311220323663 0 0 0
6645 1 18.64077198458527 -46.08432729515104 -0.3285161922323656 0 0 0
6646 1 16.48833809858527 -46.08432729515104 0.9156288311676359 0 0 0
6647 1 16.48833809858527 -46.08432729515104 -1.572676145432366 0 0 0
6648 1 18.64077198458527 -46.08432729515104 2.159773854567636 0 0 0
6649 1 17.92455964358527 -44.05069331915105 3.403933807767634 0 0 0
6650 1 17.92455964358527 -44.05069331915105 0.9156288311676359 0 0 0
6651 1 19.36078118858527 -42.01681085415105 5.892238784367633 0 0 0
6652 1 19.36078118858527 -42.01681085415105 3.403948737567633 0 0 0
6653 1 15.05211655358527 -48.11796127115105 -6.549275647772366 0 0 0
6654 1 17.20455043958527 -48.11796127115105 -5.305126145432366 0 0 0
6655 1 18.64077198458527 -46.08432729515104 -5.305126145432366 0 0 0
6656 1 16.48833809858527 -46.08432729515104 -4.060966192232366 0 0 0
6657 1 16.48833809858527 -46.08432729515104 -6.549274154792366 0 0 0
6658 1 18.64077198458527 -46.08432729515104 -2.816821168832366 0 0 0
6659 1 17.92455964358527 -44.05069331915105 -1.572661215632365 0 0 0
6660 1 17.92455964358527 -44.05069331915105 -4.060966192232366 0 0 0
6661 1 19.36078118858527 -42.01681085415105 0.9156437609676331 0 0 0
6662 1 19.36078118858527 -42.01681085415105 -1.572661215632365 0 0 0
6663 1 17.92455964358527 -44.05069331915105 -6.549268182872366 0 0 0
6664 1 19.36078118858527 -42.01681085415105 -4.060951262432366 0 0 0
6665 1 19.36078118858527 -42.01681085415105 -6.549257732012366 0 0 0
6666 1 10.02727832108527 -52.18522922315105 4.648078831167636 0 0 0
6667 1 7.874883178585272 -52.18522922315105 5.892223854567636 0 0 0
6668 1 7.874883178585272 -52.18522922315105 3.403918877967635 0 0 0
6669 1 10.02727832108527 -52.18522922315105 7.136368877967636 0 0 0
6670 1 11.46349986608527 -50.15159524715105 7.136368877967636 0 0 0
6671 1 9.311065980085271 -50.15159524715105 5.892223854567636 0 0 0
6672 1 10.02727832108527 -52.18522922315105 -0.3285311220323663 0 0 0
6673 1 7.874883178585272 -52.18522922315105 0.9156288311676359 0 0 0
6674 1 7.874883178585272 -52.18522922315105 -1.572676145432366 0 0 0
6675 1 10.02727832108527 -52.18522922315105 2.159773854567636 0 0 0
6676 1 11.46349986608527 -50.15159524715105 2.159773854567636 0 0 0
6677 1 9.311065980085271 -50.15159524715105 3.403918877967635 0 0 0
6678 1 9.311065980085271 -50.15159524715105 0.9156288311676359 0 0 0
6679 1 11.46349986608527 -50.15159524715105 4.648078831167636 0 0 0
6680 1 12.89972141108527 -48.11796127115105 4.648078831167636 0 0 0
6681 1 10.74728752508527 -48.11796127115105 5.892223854567636 0 0 0
6682 1 10.74728752508527 -48.11796127115105 3.403918877967635 0 0 0
6683 1 12.89972141108527 -48.11796127115105 7.136368877967636 0 0 0
6684 1 14.33594295608527 -46.08432729515104 7.136368877967636 0 0 0
6685 1 12.18350907008527 -46.08432729515104 5.892223854567636 0 0 0
6686 1 10.02727832108527 -52.18522922315105 -5.305126145432366 0 0 0
6687 1 7.874883178585272 -52.18522922315105 -4.060981122032365 0 0 0
6688 1 7.874883178585272 -52.18522922315105 -6.549277140752365 0 0 0
6689 1 10.02727832108527 -52.18522922315105 -2.816821168832366 0 0 0
6690 1 11.46349986608527 -50.15159524715105 -2.816821168832366 0 0 0
6691 1 9.311065980085271 -50.15159524715105 -1.572676145432366 0 0 0
6692 1 9.311065980085271 -50.15159524715105 -4.060981122032365 0 0 0
6693 1 11.46349986608527 -50.15159524715105 -0.3285311220323663 0 0 0
6694 1 12.89972141108527 -48.11796127115105 -0.3285311220323663 0 0 0
6695 1 10.74728752508527 -48.11796127115105 0.9156139013676352 0 0 0
6696 1 10.74728752508527 -48.11796127115105 -1.572676145432366 0 0 0
6697 1 12.89972141108527 -48.11796127115105 2.159773854567636 0 0 0
6698 1 14.33594295608527 -46.08432729515104 2.159773854567636 0 0 0
6699 1 12.18350907008527 -46.08432729515104 3.403918877967635 0 0 0
6700 1 12.18350907008527 -46.08432729515104 0.9156139013676352 0 0 0
6701 1 14.33594295608527 -46.08432729515104 4.648078831167636 0 0 0
6702 1 15.77212575758527 -44.05044483015105 4.648078831167636 0 0 0
6703 1 13.61973061508527 -44.05044483015105 5.892223854567636 0 0 0
6704 1 13.61973061508527 -44.05044483015105 3.403918877967635 0 0 0
6705 1 15.77212575758527 -44.05044483015105 7.136383807767634 0 0 0
6706 1 17.20834730258527 -42.01681085415105 7.136383807767634 0 0 0
6707 1 15.05595216008527 -42.01681085415105 5.892223854567636 0 0 0
6708 1 9.311065980085271 -50.15159524715105 -6.549278633732365 0 0 0
6709 1 11.46349986608527 -50.15159524715105 -5.305126145432366 0 0 0
6710 1 12.89972141108527 -48.11796127115105 -5.305126145432366 0 0 0
6711 1 10.74728752508527 -48.11796127115105 -4.060981122032365 0 0 0
6712 1 10.74728752508527 -48.11796127115105 -6.549280126712365 0 0 0
6713 1 12.89972141108527 -48.11796127115105 -2.816821168832366 0 0 0
6714 1 14.33594295608527 -46.08432729515104 -2.816821168832366 0 0 0
6715 1 12.18350907008527 -46.08432729515104 -1.572676145432366 0 0 0
6716 1 12.18350907008527 -46.08432729515104 -4.060981122032365 0 0 0
6717 1 14.33594295608527 -46.08432729515104 -0.3285311220323663 0 0 0
6718 1 15.77212575758527 -44.05044483015105 -0.3285161922323656 0 0 0
6719 1 13.61973061508527 -44.05044483015105 0.9156288311676359 0 0 0
6720 1 13.61973061508527 -44.05044483015105 -1.572676145432366 0 0 0
6721 1 15.77212575758527 -44.05044483015105 2.159773854567636 0 0 0
6722 1 17.20834730258527 -42.01681085415105 2.159788784367633 0 0 0
6723 1 15.05595216008527 -42.01681085415105 3.403933807767634 0 0 0
6724 1 15.05595216008527 -42.01681085415105 0.9156288311676359 0 0 0
6725 1 17.20834730258527 -42.01681085415105 4.648078831167636 0 0 0
6726 1 12.18350907008527 -46.08432729515104 -6.549280126712365 0 0 0
6727 1 14.33594295608527 -46.08432729515104 -5.305126145432366 0 0 0
6728 1 15.77212575758527 -44.05044483015105 -5.305126145432366 0 0 0
6729 1 13.61973061508527 -44.05044483015105 -4.060981122032365 0 0 0
6730 1 13.61973061508527 -44.05044483015105 -6.549277140752365 0 0 0
6731 1 15.77212575758527 -44.05044483015105 -2.816821168832366 0 0 0
6732 1 17.20834730258527 -42.01681085415105 -2.816821168832366 0 0 0
6733 1 15.05595216008527 -42.01681085415105 -1.572676145432366 0 0 0
6734 1 15.05595216008527 -42.01681085415105 -4.060966192232366 0 0 0
6735 1 17.20834730258527 -42.01681085415105 -0.3285161922323656 0 0 0
6736 1 15.05595216008527 -42.01681085415105 -6.549271168832366 0 0 0
6737 1 17.20834730258527 -42.01681085415105 -5.305111215632365 0 0 0
6738 1 5.722449292585267 -52.18522922315105 7.136368877967636 0 0 0
6739 1 3.570054150085269 -52.18522922315105 5.892223854567636 0 0 0
6740 1 5.722449292585267 -52.18522922315105 2.159773854567636 0 0 0
6741 1 3.570054150085269 -52.18522922315105 3.403918877967635 0 0 0
6742 1 3.570054150085269 -52.18522922315105 0.9156288311676359 0 0 0
6743 1 5.722449292585267 -52.18522922315105 4.648078831167636 0 0 0
6744 1 7.158670837585269 -50.15159524715105 4.648078831167636 0 0 0
6745 1 5.006275695085272 -50.15159524715105 5.892223854567636 0 0 0
6746 1 5.006275695085272 -50.15159524715105 3.403918877967635 0 0 0
6747 1 7.158670837585269 -50.15159524715105 7.136368877967636 0 0 0
6748 1 8.594892382585268 -48.11796127115105 7.136368877967636 0 0 0
6749 1 6.44249724008527 -48.11796127115105 5.892223854567636 0 0 0
6750 1 5.722449292585267 -52.18522922315105 -2.816821168832366 0 0 0
6751 1 3.570054150085269 -52.18522922315105 -1.572676145432366 0 0 0
6752 1 3.570054150085269 -52.18522922315105 -4.060981122032365 0 0 0
6753 1 5.722449292585267 -52.18522922315105 -0.3285311220323663 0 0 0
6754 1 7.158670837585269 -50.15159524715105 -0.3285311220323663 0 0 0
6755 1 5.006275695085272 -50.15159524715105 0.9156288311676359 0 0 0
6756 1 5.006275695085272 -50.15159524715105 -1.572676145432366 0 0 0
6757 1 7.158670837585269 -50.15159524715105 2.159773854567636 0 0 0
6758 1 8.594892382585268 -48.11796127115105 2.159773854567636 0 0 0
6759 1 6.44249724008527 -48.11796127115105 3.403918877967635 0 0 0
6760 1 6.44249724008527 -48.11796127115105 0.9156139013676352 0 0 0
6761 1 8.594892382585268 -48.11796127115105 4.648063901367635 0 0 0
6762 1 10.03111392758527 -46.08432729515104 4.648063901367635 0 0 0
6763 1 7.87868004158527 -46.08432729515104 5.892208924767635 0 0 0
6764 1 7.87868004158527 -46.08432729515104 3.403918877967635 0 0 0
6765 1 10.03111392758527 -46.08432729515104 7.136368877967636 0 0 0
6766 1 11.46733547258527 -44.05069331915105 7.136368877967636 0 0 0
6767 1 9.314901586585268 -44.05069331915105 5.892208924767635 0 0 0
6768 1 3.570054150085269 -52.18522922315105 -6.549275647772366 0 0 0
6769 1 5.722449292585267 -52.18522922315105 -5.305126145432366 0 0 0
6770 1 7.158670837585269 -50.15159524715105 -5.305126145432366 0 0 0
6771 1 5.006275695085272 -50.15159524715105 -4.060981122032365 0 0 0
6772 1 5.006275695085272 -50.15159524715105 -6.549277140752365 0 0 0
6773 1 7.158670837585269 -50.15159524715105 -2.816821168832366 0 0 0
6774 1 8.594892382585268 -48.11796127115105 -2.816836098632366 0 0 0
6775 1 6.44249724008527 -48.11796127115105 -1.572676145432366 0 0 0
6776 1 6.44249724008527 -48.11796127115105 -4.060981122032365 0 0 0
6777 1 8.594892382585268 -48.11796127115105 -0.3285311220323663 0 0 0
6778 1 10.03111392758527 -46.08432729515104 -0.3285311220323663 0 0 0
6779 1 7.87868004158527 -46.08432729515104 0.9156139013676352 0 0 0
6780 1 7.87868004158527 -46.08432729515104 -1.572691075232366 0 0 0
6781 1 10.03111392758527 -46.08432729515104 2.159773854567636 0 0 0
6782 1 11.46733547258527 -44.05069331915105 2.159773854567636 0 0 0
6783 1 9.314901586585268 -44.05069331915105 3.403918877967635 0 0 0
6784 1 9.314901586585268 -44.05069331915105 0.9156139013676352 0 0 0
6785 1 11.46733547258527 -44.05069331915105 4.648063901367635 0 0 0
6786 1 12.90355701758527 -42.01681085415105 4.648078831167636 0 0 0
6787 1 10.75112313158527 -42.01681085415105 5.892208924767635 0 0 0
6788 1 10.75112313158527 -42.01681085415105 3.403918877967635 0 0 0
6789 1 12.90355701758527 -42.01681085415105 7.136368877967636 0 0 0
6790 1 6.44249724008527 -48.11796127115105 -6.549280126712365 0 0 0
6791 1 8.594892382585268 -48.11796127115105 -5.305126145432366 0 0 0
6792 1 10.03111392758527 -46.08432729515104 -5.305126145432366 0 0 0
6793 1 7.87868004158527 -46.08432729515104 -4.060981122032365 0 0 0
6794 1 7.87868004158527 -46.08432729515104 -6.549283112672366 0 0 0
6795 1 10.03111392758527 -46.08432729515104 -2.816836098632366 0 0 0
6796 1 11.46733547258527 -44.05069331915105 -2.816836098632366 0 0 0
6797 1 9.314901586585268 -44.05069331915105 -1.572691075232366 0 0 0
6798 1 9.314901586585268 -44.05069331915105 -4.060981122032365 0 0 0
6799 1 11.46733547258527 -44.05069331915105 -0.3285311220323663 0 0 0
6800 1 12.90355701758527 -42.01681085415105 -0.3285311220323663 0 0 0
6801 1 10.75112313158527 -42.01681085415105 0.9156139013676352 0 0 0
6802 1 10.75112313158527 -42.01681085415105 -1.572691075232366 0 0 0
6803 1 12.90355701758527 -42.01681085415105 2.159773854567636 0 0 0
6804 1 9.314901586585268 -44.05069331915105 -6.549286098632366 0 0 0
6805 1 11.46733547258527 -44.05069331915105 -5.305126145432366 0 0 0
6806 1 12.90355701758527 -42.01681085415105 -5.305126145432366 0 0 0
6807 1 10.75112313158527 -42.01681085415105 -4.060981122032365 0 0 0
6808 1 10.75112313158527 -42.01681085415105 -6.549284605652366 0 0 0
6809 1 12.90355701758527 -42.01681085415105 -2.816821168832366 0 0 0
6810 1 1.417620264085272 -52.18522922315105 4.648078831167636 0 0 0
6811 1 1.417620264085272 -52.18522922315105 7.136368877967636 0 0 0
6812 1 2.853841809085267 -50.15159524715105 7.136368877967636 0 0 0
6813 1 0.701446666585273 -50.15159524715105 5.892223854567636 0 0 0
6814 1 1.417620264085272 -52.18522922315105 -0.3285311220323663 0 0 0
6815 1 1.417620264085272 -52.18522922315105 2.159773854567636 0 0 0
6816 1 2.853841809085267 -50.15159524715105 2.159773854567636 0 0 0
6817 1 0.701446666585273 -50.15159524715105 3.403918877967635 0 0 0
6818 1 0.701446666585273 -50.15159524715105 0.9156288311676359 0 0 0
6819 1 2.853841809085267 -50.15159524715105 4.648078831167636 0 0 0
6820 1 4.29006335408527 -48.11796127115105 4.648063901367635 0 0 0
6821 1 2.137668211585268 -48.11796127115105 5.892223854567636 0 0 0
6822 1 2.137668211585268 -48.11796127115105 3.403918877967635 0 0 0
6823 1 4.29006335408527 -48.11796127115105 7.136368877967636 0 0 0
6824 1 5.726284899085272 -46.08432729515104 7.136368877967636 0 0 0
6825 1 3.57388975658527 -46.08432729515104 5.892223854567636 0 0 0
6826 1 1.417620264085272 -52.18522922315105 -5.305126145432366 0 0 0
6827 1 1.417620264085272 -52.18522922315105 -2.816821168832366 0 0 0
6828 1 2.853841809085267 -50.15159524715105 -2.816821168832366 0 0 0
6829 1 0.701446666585273 -50.15159524715105 -1.572676145432366 0 0 0
6830 1 0.701446666585273 -50.15159524715105 -4.060981122032365 0 0 0
6831 1 2.853841809085267 -50.15159524715105 -0.3285311220323663 0 0 0
6832 1 4.29006335408527 -48.11796127115105 -0.3285311220323663 0 0 0
6833 1 2.137668211585268 -48.11796127115105 0.9156288311676359 0 0 0
6834 1 2.137668211585268 -48.11796127115105 -1.572676145432366 0 0 0
6835 1 4.29006335408527 -48.11796127115105 2.159773854567636 0 0 0
6836 1 5.726284899085272 -46.08432729515104 2.159758924767635 0 0 0
6837 1 3.57388975658527 -46.08432729515104 3.403918877967635 0 0 0
6838 1 3.57388975658527 -46.08432729515104 0.9156139013676352 0 0 0
6839 1 5.726284899085272 -46.08432729515104 4.648063901367635 0 0 0
6840 1 7.16250644408527 -44.05069331915105 4.648063901367635 0 0 0
6841 1 5.010111301585269 -44.05069331915105 5.892208924767635 0 0 0
6842 1 5.010111301585269 -44.05069331915105 3.403918877967635 0 0 0
6843 1 7.16250644408527 -44.05069331915105 7.136368877967636 0 0 0
6844 1 8.598727989085273 -42.01681085415105 7.136353948167635 0 0 0
6845 1 6.446332846585271 -42.01705934315105 5.892208924767635 0 0 0
6846 1 0.701446666585273 -50.15159524715105 -6.549274154792366 0 0 0
6847 1 2.853841809085267 -50.15159524715105 -5.305126145432366 0 0 0
6848 1 4.29006335408527 -48.11796127115105 -5.305126145432366 0 0 0
6849 1 2.137668211585268 -48.11796127115105 -4.060981122032365 0 0 0
6850 1 2.137668211585268 -48.11796127115105 -6.549277140752365 0 0 0
6851 1 4.29006335408527 -48.11796127115105 -2.816836098632366 0 0 0
6852 1 5.726284899085272 -46.08432729515104 -2.816836098632366 0 0 0
6853 1 3.57388975658527 -46.08432729515104 -1.572676145432366 0 0 0
6854 1 3.57388975658527 -46.08432729515104 -4.060981122032365 0 0 0
6855 1 5.726284899085272 -46.08432729515104 -0.3285311220323663 0 0 0
6856 1 7.16250644408527 -44.05069331915105 -0.3285311220323663 0 0 0
6857 1 5.010111301585269 -44.05069331915105 0.9156139013676352 0 0 0
6858 1 5.010111301585269 -44.05069331915105 -1.572691075232366 0 0 0
6859 1 7.16250644408527 -44.05069331915105 2.159758924767635 0 0 0
6860 1 8.598727989085273 -42.01681085415105 2.159758924767635 0 0 0
6861 1 6.446332846585271 -42.01705934315105 3.403903948167635 0 0 0
6862 1 6.446332846585271 -42.01705934315105 0.9156139013676352 0 0 0
6863 1 8.598727989085273 -42.01681085415105 4.648063901367635 0 0 0
6864 1 3.57388975658527 -46.08432729515104 -6.549281619692366 0 0 0
6865 1 5.726284899085272 -46.08432729515104 -5.305141075232365 0 0 0
6866 1 7.16250644408527 -44.05069331915105 -5.305141075232365 0 0 0
6867 1 5.010111301585269 -44.05069331915105 -4.060981122032365 0 0 0
6868 1 5.010111301585269 -44.05069331915105 -6.549287591612366 0 0 0
6869 1 7.16250644408527 -44.05069331915105 -2.816836098632366 0 0 0
6870 1 8.598727989085273 -42.01681085415105 -2.816836098632366 0 0 0
6871 1 6.446332846585271 -42.01705934315105 -1.572691075232366 0 0 0
6872 1 6.446332846585271 -42.01705934315105 -4.060996051832365 0 0 0
6873 1 8.598727989085273 -42.01681085415105 -0.3285460518323653 0 0 0
6874 1 6.446332846585271 -42.01705934315105 -6.549293563532366 0 0 0
6875 1 8.598727989085273 -42.01681085415105 -5.305141075232365 0 0 0
6876 1 -0.01476567441472909 -48.11796127115105 7.136368877967636 0 0 0
6877 1 -0.01476567441472909 -48.11796127115105 2.159773854567636 0 0 0
6878 1 -0.01476567441472909 -48.11796127115105 4.648078831167636 0 0 0
6879 1 1.42145587058527 -46.08432729515104 4.648063901367635 0 0 0
6880 1 1.42145587058527 -46.08432729515104 7.136368877967636 0 0 0
6881 1 2.857677415585272 -44.05069331915105 7.136368877967636 0 0 0
6882 1 0.7052822730852704 -44.05069331915105 5.892223854567636 0 0 0
6883 1 -0.01476567441472909 -48.11796127115105 -2.816821168832366 0 0 0
6884 1 -0.01476567441472909 -48.11796127115105 -0.3285311220323663 0 0 0
6885 1 1.42145587058527 -46.08432729515104 -0.3285311220323663 0 0 0
6886 1 1.42145587058527 -46.08432729515104 2.159773854567636 0 0 0
6887 1 2.857677415585272 -44.05069331915105 2.159758924767635 0 0 0
6888 1 0.7052822730852704 -44.05069331915105 3.403918877967635 0 0 0
6889 1 0.7052822730852704 -44.05069331915105 0.9156139013676352 0 0 0
6890 1 2.857677415585272 -44.05069331915105 4.648063901367635 0 0 0
6891 1 4.293898960585267 -42.01705934315105 4.648048971567635 0 0 0
6892 1 2.141503818085273 -42.01705934315105 5.892208924767635 0 0 0
6893 1 2.141503818085273 -42.01705934315105 3.403903948167635 0 0 0
6894 1 4.293898960585267 -42.01705934315105 7.136353948167635 0 0 0
6895 1 -0.01476567441472909 -48.11796127115105 -5.305126145432366 0 0 0
6896 1 1.42145587058527 -46.08432729515104 -5.305126145432366 0 0 0
6897 1 1.42145587058527 -46.08432729515104 -2.816836098632366 0 0 0
6898 1 2.857677415585272 -44.05069331915105 -2.816836098632366 0 0 0
6899 1 0.7052822730852704 -44.05069331915105 -1.572676145432366 0 0 0
6900 1 0.7052822730852704 -44.05069331915105 -4.060981122032365 0 0 0
6901 1 2.857677415585272 -44.05069331915105 -0.3285311220323663 0 0 0
6902 1 4.293898960585267 -42.01705934315105 -0.3285460518323653 0 0 0
6903 1 2.141503818085273 -42.01705934315105 0.9156139013676352 0 0 0
6904 1 2.141503818085273 -42.01705934315105 -1.572691075232366 0 0 0
6905 1 4.293898960585267 -42.01705934315105 2.159758924767635 0 0 0
6906 1 0.7052822730852704 -44.05069331915105 -6.549283112672366 0 0 0
6907 1 2.857677415585272 -44.05069331915105 -5.305141075232365 0 0 0
6908 1 4.293898960585267 -42.01705934315105 -5.305141075232365 0 0 0
6909 1 2.141503818085273 -42.01705934315105 -4.060996051832365 0 0 0
6910 1 2.141503818085273 -42.01705934315105 -6.549292070552366 0 0 0
6911 1 4.293898960585267 -42.01705934315105 -2.816851028432366 0 0 0
6912 1 -0.01093006791472817 -42.01705934315105 7.136368877967636 0 0 0
6913 1 -0.01093006791472817 -42.01705934315105 2.159758924767635 0 0 0
6914 1 -0.01093006791472817 -42.01705934315105 4.648063901367635 0 0 0
6915 1 -0.01093006791472817 -42.01705934315105 -2.816836098632366 0 0 0
6916 1 -0.01093006791472817 -42.01705934315105 -0.3285311220323663 0 0 0
6917 1 -0.01093006791472817 -42.01705934315105 -5.305141075232365 0 0 0
6918 1 18.64456884758527 -39.98317687815104 4.648093760967633 0 0 0
6919 1 16.49217370508527 -39.98317687815104 5.892238784367633 0 0 0
6920 1 16.49217370508527 -39.98317687815104 3.403933807767634 0 0 0
6921 1 18.64456884758527 -39.98317687815104 7.136398737567633 0 0 0
6922 1 17.92835650658527 -37.94954290215105 5.892253714167634 0 0 0
6923 1 18.64456884758527 -39.98317687815104 -0.3285012624323658 0 0 0
6924 1 16.49217370508527 -39.98317687815104 0.9156437609676331 0 0 0
6925 1 16.49217370508527 -39.98317687815104 -1.572661215632365 0 0 0
6926 1 18.64456884758527 -39.98317687815104 2.159803714167634 0 0 0
6927 1 17.92835650658527 -37.94954290215105 3.403963667367634 0 0 0
6928 1 17.92835650658527 -37.94954290215105 0.9156586907676338 0 0 0
6929 1 -19.37891330861423 -35.91590892615105 5.892283573767635 1 0 0
6930 1 -19.37891330861423 -35.91590892615105 3.403978597167635 1 0 0
6931 1 18.64456884758527 -39.98317687815104 -5.305096285832366 0 0 0
6932 1 16.49217370508527 -39.98317687815104 -4.060966192232366 0 0 0
6933 1 16.49217370508527 -39.98317687815104 -6.549259224992365 0 0 0
6934 1 18.64456884758527 -39.98317687815104 -2.816806239032365 0 0 0
6935 1 17.92835650658527 -37.94954290215105 -1.572646285832366 0 0 0
6936 1 17.92835650658527 -37.94954290215105 -4.060936332632366 0 0 0
6937 1 -19.37891330861423 -35.91590892615105 0.9156885503676353 1 0 0
6938 1 -19.37891330861423 -35.91590892615105 -1.572616426232366 1 0 0
6939 1 17.92835650658527 -37.94954290215105 -6.549239816252365 0 0 0
6940 1 -19.37891330861423 -35.91590892615105 -4.060921402832365 1 0 0
6941 1 -19.37891330861423 -35.91590892615105 -6.549217421552366 1 0 0
6942 1 14.33973981908527 -39.98317687815104 7.136383807767634 0 0 0
6943 1 12.18734467658527 -39.98317687815104 5.892223854567636 0 0 0
6944 1 14.33973981908527 -39.98317687815104 2.159788784367633 0 0 0
6945 1 12.18734467658527 -39.98317687815104 3.403918877967635 0 0 0
6946 1 12.18734467658527 -39.98317687815104 0.9156139013676352 0 0 0
6947 1 14.33973981908527 -39.98317687815104 4.648078831167636 0 0 0
6948 1 15.77596136408527 -37.94954290215105 4.648093760967633 0 0 0
6949 1 13.62356622158527 -37.94954290215105 5.892238784367633 0 0 0
6950 1 13.62356622158527 -37.94954290215105 3.403933807767634 0 0 0
6951 1 15.77596136408527 -37.94954290215105 7.136398737567633 0 0 0
6952 1 17.21218290908527 -35.91590892615105 7.136428597167635 0 0 0
6953 1 15.05974902308527 -35.91590892615105 5.892268643967634 0 0 0
6954 1 14.33973981908527 -39.98317687815104 -2.816821168832366 0 0 0
6955 1 12.18734467658527 -39.98317687815104 -1.572676145432366 0 0 0
6956 1 12.18734467658527 -39.98317687815104 -4.060981122032365 0 0 0
6957 1 14.33973981908527 -39.98317687815104 -0.3285161922323656 0 0 0
6958 1 15.77596136408527 -37.94954290215105 -0.3285012624323658 0 0 0
6959 1 13.62356622158527 -37.94954290215105 0.9156288311676359 0 0 0
6960 1 13.62356622158527 -37.94954290215105 -1.572661215632365 0 0 0
6961 1 15.77596136408527 -37.94954290215105 2.159803714167634 0 0 0
6962 1 17.21218290908527 -35.91590892615105 2.159818643967634 0 0 0
6963 1 15.05974902308527 -35.91590892615105 3.403963667367634 0 0 0
6964 1 15.05974902308527 -35.91590892615105 0.9156586907676338 0 0 0
6965 1 17.21218290908527 -35.91590892615105 4.648123620567635 0 0 0
6966 1 18.64836571058527 -33.88227495015106 4.648153480167634 0 0 0
6967 1 16.49597056808527 -33.88202646115104 5.892298503567634 0 0 0
6968 1 16.49597056808527 -33.88202646115104 3.403993526967634 0 0 0
6969 1 18.64836571058527 -33.88227495015106 7.136458456767635 0 0 0
6970 1 17.93215336958527 -31.84839248515105 5.892343292967634 0 0 0
6971 1 12.18734467658527 -39.98317687815104 -6.549278633732365 0 0 0
6972 1 14.33973981908527 -39.98317687815104 -5.305111215632365 0 0 0
6973 1 15.77596136408527 -37.94954290215105 -5.305096285832366 0 0 0
6974 1 13.62356622158527 -37.94954290215105 -4.060966192232366 0 0 0
6975 1 13.62356622158527 -37.94954290215105 -6.549263703932366 0 0 0
6976 1 15.77596136408527 -37.94954290215105 -2.816806239032365 0 0 0
6977 1 17.21218290908527 -35.91590892615105 -2.816776379432365 0 0 0
6978 1 15.05974902308527 -35.91590892615105 -1.572631356032366 0 0 0
6979 1 15.05974902308527 -35.91590892615105 -4.060936332632366 0 0 0
6980 1 17.21218290908527 -35.91590892615105 -0.3284714028323661 0 0 0
6981 1 18.64836571058527 -33.88227495015106 -0.3284415432323664 0 0 0
6982 1 16.49597056808527 -33.88202646115104 0.9157034801676343 0 0 0
6983 1 16.49597056808527 -33.88202646115104 -1.572601496432365 0 0 0
6984 1 18.64836571058527 -33.88227495015106 2.159863433367635 0 0 0
6985 1 17.93215336958527 -31.84839248515105 3.404038316367634 0 0 0
6986 1 17.93215336958527 -31.84839248515105 0.9157333397676339 0 0 0
6987 1 -19.37511949860203 -29.81475850915105 5.892373152567634 1 0 0
6988 1 -19.37511949860203 -29.81475850915105 3.404083105767635 1 0 0
6989 1 15.05974902308527 -35.91590892615105 -6.549238323272366 0 0 0
6990 1 17.21218290908527 -35.91590892615105 -5.305081356032366 0 0 0
6991 1 18.64836571058527 -33.88227495015106 -5.305036566632365 0 0 0
6992 1 16.49597056808527 -33.88202646115104 -4.060906473032365 0 0 0
6993 1 16.49597056808527 -33.88202646115104 -6.549202491752366 0 0 0
6994 1 18.64836571058527 -33.88227495015106 -2.816746519832365 0 0 0
6995 1 17.93215336958527 -31.84839248515105 -1.572556707032366 0 0 0
6996 1 17.93215336958527 -31.84839248515105 -4.060861683632366 0 0 0
6997 1 -19.37511949860203 -29.81475850915105 0.9157781291676343 1 0 0
6998 1 -19.37511949860203 -29.81475850915105 -1.572526847432366 1 0 0
6999 1 17.93215336958527 -31.84839248515105 -6.549159195332366 0 0 0
7000 1 -19.37511949860203 -29.81475850915105 -4.060816894232365 1 0 0
7001 1 -19.37511949860203 -29.81475850915105 -6.549121870832366 1 0 0
7002 1 10.03494953408527 -39.98317687815104 4.648063901367635 0 0 0
7003 1 7.88251564808527 -39.98317687815104 5.892208924767635 0 0 0
7004 1 7.88251564808527 -39.98317687815104 3.403903948167635 0 0 0
7005 1 10.03494953408527 -39.98317687815104 7.136368877967636 0 0 0
7006 1 11.47113233558527 -37.94954290215105 7.136368877967636 0 0 0
7007 1 9.318737193085269 -37.94954290215105 5.892208924767635 0 0 0
7008 1 10.03494953408527 -39.98317687815104 -0.3285311220323663 0 0 0
7009 1 7.88251564808527 -39.98317687815104 0.9155989715676345 0 0 0
7010 1 7.88251564808527 -39.98317687815104 -1.572691075232366 0 0 0
7011 1 10.03494953408527 -39.98317687815104 2.159758924767635 0 0 0
7012 1 11.47113233558527 -37.94954290215105 2.159773854567636 0 0 0
7013 1 9.318737193085269 -37.94954290215105 3.403903948167635 0 0 0
7014 1 9.318737193085269 -37.94954290215105 0.9156139013676352 0 0 0
7015 1 11.47113233558527 -37.94954290215105 4.648078831167636 0 0 0
7016 1 12.90735388058527 -35.91590892615105 4.648093760967633 0 0 0
7017 1 10.75495873808527 -35.91590892615105 5.892223854567636 0 0 0
7018 1 10.75495873808527 -35.91590892615105 3.403918877967635 0 0 0
7019 1 12.90735388058527 -35.91590892615105 7.136398737567633 0 0 0
7020 1 14.34357542558527 -33.88202646115104 7.136428597167635 0 0 0
7021 1 12.19118028308527 -33.88202646115104 5.892253714167634 0 0 0
7022 1 10.03494953408527 -39.98317687815104 -5.305141075232365 0 0 0
7023 1 7.88251564808527 -39.98317687815104 -4.060996051832365 0 0 0
7024 1 7.88251564808527 -39.98317687815104 -6.549296549492365 0 0 0
7025 1 10.03494953408527 -39.98317687815104 -2.816836098632366 0 0 0
7026 1 11.47113233558527 -37.94954290215105 -2.816821168832366 0 0 0
7027 1 9.318737193085269 -37.94954290215105 -1.572691075232366 0 0 0
7028 1 9.318737193085269 -37.94954290215105 -4.060996051832365 0 0 0
7029 1 11.47113233558527 -37.94954290215105 -0.3285311220323663 0 0 0
7030 1 12.90735388058527 -35.91590892615105 -0.3285012624323658 0 0 0
7031 1 10.75495873808527 -35.91590892615105 0.9156288311676359 0 0 0
7032 1 10.75495873808527 -35.91590892615105 -1.572676145432366 0 0 0
7033 1 12.90735388058527 -35.91590892615105 2.159788784367633 0 0 0
7034 1 14.34357542558527 -33.88202646115104 2.159833573767635 0 0 0
7035 1 12.19118028308527 -33.88202646115104 3.403948737567633 0 0 0
7036 1 12.19118028308527 -33.88202646115104 0.9156586907676338 0 0 0
7037 1 14.34357542558527 -33.88202646115104 4.648123620567635 0 0 0
7038 1 15.77975822708527 -31.84839248515105 4.648183339767634 0 0 0
7039 1 13.62736308458527 -31.84839248515105 5.892313433367635 0 0 0
7040 1 13.62736308458527 -31.84839248515105 3.404008456767635 0 0 0
7041 1 15.77975822708527 -31.84839248515105 7.136473386567635 0 0 0
7042 1 17.21594102858527 -29.81475850915105 7.136533105767635 0 0 0
7043 1 15.06354588608527 -29.81475850915105 5.892373152567634 0 0 0
7044 1 9.318737193085269 -37.94954290215105 -6.549292070552366 0 0 0
7045 1 11.47113233558527 -37.94954290215105 -5.305126145432366 0 0 0
7046 1 12.90735388058527 -35.91590892615105 -5.305111215632365 0 0 0
7047 1 10.75495873808527 -35.91590892615105 -4.060981122032365 0 0 0
7048 1 10.75495873808527 -35.91590892615105 -6.549277140752365 0 0 0
7049 1 12.90735388058527 -35.91590892615105 -2.816806239032365 0 0 0
7050 1 14.34357542558527 -33.88202646115104 -2.816776379432365 0 0 0
7051 1 12.19118028308527 -33.88202646115104 -1.572646285832366 0 0 0
7052 1 12.19118028308527 -33.88202646115104 -4.060951262432366 0 0 0
7053 1 14.34357542558527 -33.88202646115104 -0.3284714028323661 0 0 0
7054 1 15.77975822708527 -31.84839248515105 -0.3284266134323657 0 0 0
7055 1 13.62736308458527 -31.84839248515105 0.9157034801676343 0 0 0
7056 1 13.62736308458527 -31.84839248515105 -1.572586566632366 0 0 0
7057 1 15.77975822708527 -31.84839248515105 2.159878363167635 0 0 0
7058 1 17.21594102858527 -29.81475850915105 2.159938082367635 0 0 0
7059 1 15.06354588608527 -29.81475850915105 3.404083105767635 0 0 0
7060 1 15.06354588608527 -29.81475850915105 0.9157781291676343 0 0 0
7061 1 17.21594102858527 -29.81475850915105 4.648243058967635 0 0 0
7062 1 18.65216257358527 -27.78112453315104 4.648287848367634 0 0 0
7063 1 16.49972868758527 -27.78087604415104 5.892447801567634 0 0 0
7064 1 16.49972868758527 -27.78087604415104 3.404157754767635 0 0 0
7065 1 18.65216257358527 -27.78112453315104 7.136577895167635 0 0 0
7066 1 12.19118028308527 -33.88202646115104 -6.549245788172366 0 0 0
7067 1 14.34357542558527 -33.88202646115104 -5.305066426232366 0 0 0
7068 1 15.77975822708527 -31.84839248515105 -5.305021636832366 0 0 0
7069 1 13.62736308458527 -31.84839248515105 -4.060891543232366 0 0 0
7070 1 13.62736308458527 -31.84839248515105 -6.549193533872366 0 0 0
7071 1 15.77975822708527 -31.84839248515105 -2.816716660232366 0 0 0
7072 1 17.21594102858527 -29.81475850915105 -2.816656941032366 0 0 0
7073 1 15.06354588608527 -29.81475850915105 -1.572526847432366 0 0 0
7074 1 15.06354588608527 -29.81475850915105 -4.060816894232365 0 0 0
7075 1 17.21594102858527 -29.81475850915105 -0.3283668942323654 0 0 0
7076 1 18.65216257358527 -27.78112453315104 -0.3283221048323659 0 0 0
7077 1 16.49972868758527 -27.78087604415104 0.9158527781676344 0 0 0
7078 1 16.49972868758527 -27.78087604415104 -1.572452198432365 0 0 0
7079 1 18.65216257358527 -27.78112453315104 2.159982871767633 0 0 0
7080 1 15.06354588608527 -29.81475850915105 -6.549123363812366 0 0 0
7081 1 17.21594102858527 -29.81475850915105 -5.304961917632365 0 0 0
7082 1 18.65216257358527 -27.78112453315104 -5.304917128232366 0 0 0
7083 1 16.49972868758527 -27.78087604415104 -4.060742245232365 0 0 0
7084 1 16.49972868758527 -27.78087604415104 -6.549047221832366 0 0 0
7085 1 18.65216257358527 -27.78112453315104 -2.816612151632365 0 0 0
7086 1 5.730120505585269 -39.98317687815104 7.136353948167635 0 0 0
7087 1 3.577725363085271 -39.98342536715106 5.892193994967634 0 0 0
7088 1 5.730120505585269 -39.98317687815104 2.159743994967634 0 0 0
7089 1 3.577725363085271 -39.98342536715106 3.403903948167635 0 0 0
7090 1 3.577725363085271 -39.98342536715106 0.9155989715676345 0 0 0
7091 1 5.730120505585269 -39.98317687815104 4.648048971567635 0 0 0
7092 1 7.166342050585271 -37.94954290215105 4.648048971567635 0 0 0
7093 1 5.01394690808527 -37.94954290215105 5.892193994967634 0 0 0
7094 1 5.01394690808527 -37.94954290215105 3.403889018367634 0 0 0
7095 1 7.166342050585271 -37.94954290215105 7.136339018367634 0 0 0
7096 1 8.60256359558527 -35.91590892615105 7.136353948167635 0 0 0
7097 1 6.450168453085269 -35.91590892615105 5.892179065167634 0 0 0
7098 1 5.730120505585269 -39.98317687815104 -2.816851028432366 0 0 0
7099 1 3.577725363085271 -39.98342536715106 -1.572706005032366 0 0 0
7100 1 3.577725363085271 -39.98342536715106 -4.060996051832365 0 0 0
7101 1 5.730120505585269 -39.98317687815104 -0.3285460518323653 0 0 0
7102 1 7.166342050585271 -37.94954290215105 -0.328560981632366 0 0 0
7103 1 5.01394690808527 -37.94954290215105 0.9155840417676337 0 0 0
7104 1 5.01394690808527 -37.94954290215105 -1.572706005032366 0 0 0
7105 1 7.166342050585271 -37.94954290215105 2.159743994967634 0 0 0
7106 1 8.60256359558527 -35.91590892615105 2.159758924767635 0 0 0
7107 1 6.450168453085269 -35.91590892615105 3.403889018367634 0 0 0
7108 1 6.450168453085269 -35.91590892615105 0.9155840417676337 0 0 0
7109 1 8.60256359558527 -35.91590892615105 4.648048971567635 0 0 0
7110 1 10.03878514058527 -33.88202646115104 4.648078831167636 0 0 0
7111 1 7.886351254585268 -33.88227495015106 5.892193994967634 0 0 0
7112 1 7.886351254585268 -33.88227495015106 3.403903948167635 0 0 0
7113 1 10.03878514058527 -33.88202646115104 7.136368877967636 0 0 0
7114 1 11.47496794208527 -31.84839248515105 7.136428597167635 0 0 0
7115 1 9.32257279958527 -31.84839248515105 5.892238784367633 0 0 0
7116 1 3.577725363085271 -39.98342536715106 -6.549302521412366 0 0 0
7117 1 5.730120505585269 -39.98317687815104 -5.305156005032366 0 0 0
7118 1 7.166342050585271 -37.94954290215105 -5.305156005032366 0 0 0
7119 1 5.01394690808527 -37.94954290215105 -4.061010981632366 0 0 0
7120 1 5.01394690808527 -37.94954290215105 -6.549311479292366 0 0 0
7121 1 7.166342050585271 -37.94954290215105 -2.816851028432366 0 0 0
7122 1 8.60256359558527 -35.91590892615105 -2.816851028432366 0 0 0
7123 1 6.450168453085269 -35.91590892615105 -1.572720934832366 0 0 0
7124 1 6.450168453085269 -35.91590892615105 -4.061010981632366 0 0 0
7125 1 8.60256359558527 -35.91590892615105 -0.3285460518323653 0 0 0
7126 1 10.03878514058527 -33.88202646115104 -0.3285311220323663 0 0 0
7127 1 7.886351254585268 -33.88227495015106 0.9155989715676345 0 0 0
7128 1 7.886351254585268 -33.88227495015106 -1.572706005032366 0 0 0
7129 1 10.03878514058527 -33.88202646115104 2.159773854567636 0 0 0
7130 1 11.47496794208527 -31.84839248515105 2.159818643967634 0 0 0
7131 1 9.32257279958527 -31.84839248515105 3.403933807767634 0 0 0
7132 1 9.32257279958527 -31.84839248515105 0.9156288311676359 0 0 0
7133 1 11.47496794208527 -31.84839248515105 4.648123620567635 0 0 0
7134 1 12.91115074358527 -29.81475850915105 4.648198269567633 0 0 0
7135 1 10.75879434458527 -29.81475850915105 5.892298503567634 0 0 0
7136 1 10.75879434458527 -29.81475850915105 3.404008456767635 0 0 0
7137 1 12.91115074358527 -29.81475850915105 7.136503246167633 0 0 0
7138 1 14.34733354508527 -27.78087604415104 7.136592824967634 0 0 0
7139 1 12.19497714608527 -27.78087604415104 5.892403012167636 0 0 0
7140 1 6.450168453085269 -35.91590892615105 -6.549314465252365 0 0 0
7141 1 8.60256359558527 -35.91590892615105 -5.305141075232365 0 0 0
7142 1 10.03878514058527 -33.88202646115104 -5.305126145432366 0 0 0
7143 1 7.886351254585268 -33.88227495015106 -4.060996051832365 0 0 0
7144 1 7.886351254585268 -33.88227495015106 -6.549302521412366 0 0 0
7145 1 10.03878514058527 -33.88202646115104 -2.816821168832366 0 0 0
7146 1 11.47496794208527 -31.84839248515105 -2.816776379432365 0 0 0
7147 1 9.32257279958527 -31.84839248515105 -1.572661215632365 0 0 0
7148 1 9.32257279958527 -31.84839248515105 -4.060966192232366 0 0 0
7149 1 11.47496794208527 -31.84839248515105 -0.3284714028323661 0 0 0
7150 1 12.91115074358527 -29.81475850915105 -0.3283967538323651 0 0 0
7151 1 10.75879434458527 -29.81475850915105 0.9157034801676343 0 0 0
7152 1 10.75879434458527 -29.81475850915105 -1.572601496432365 0 0 0
7153 1 12.91115074358527 -29.81475850915105 2.159893292967634 0 0 0
7154 1 14.34733354508527 -27.78087604415104 2.159997801567634 0 0 0
7155 1 12.19497714608527 -27.78087604415104 3.404112965367634 0 0 0
7156 1 12.19497714608527 -27.78087604415104 0.915807988767634 0 0 0
7157 1 14.34733354508527 -27.78087604415104 4.648287848367634 0 0 0
7158 1 9.32257279958527 -31.84839248515105 -6.549268182872366 0 0 0
7159 1 11.47496794208527 -31.84839248515105 -5.305081356032366 0 0 0
7160 1 12.91115074358527 -29.81475850915105 -5.305006707032366 0 0 0
7161 1 10.75879434458527 -29.81475850915105 -4.060891543232366 0 0 0
7162 1 10.75879434458527 -29.81475850915105 -6.549198012812366 0 0 0
7163 1 12.91115074358527 -29.81475850915105 -2.816701730432365 0 0 0
7164 1 14.34733354508527 -27.78087604415104 -2.816612151632365 0 0 0
7165 1 12.19497714608527 -27.78087604415104 -1.572496987832365 0 0 0
7166 1 12.19497714608527 -27.78087604415104 -4.060787034632366 0 0 0
7167 1 14.34733354508527 -27.78087604415104 -0.3283071750323652 0 0 0
7168 1 12.19497714608527 -27.78087604415104 -6.549092011232366 0 0 0
7169 1 14.34733354508527 -27.78087604415104 -5.304902198432366 0 0 0
7170 1 1.42529147708527 -39.98342536715106 4.648048971567635 0 0 0
7171 1 1.42529147708527 -39.98342536715106 7.136353948167635 0 0 0
7172 1 2.861513022085269 -37.94954290215105 7.136339018367634 0 0 0
7173 1 0.7091178795852677 -37.94979139115105 5.892193994967634 0 0 0
7174 1 1.42529147708527 -39.98342536715106 -0.3285460518323653 0 0 0
7175 1 1.42529147708527 -39.98342536715106 2.159743994967634 0 0 0
7176 1 2.861513022085269 -37.94954290215105 2.159729065167634 0 0 0
7177 1 0.7091178795852677 -37.94979139115105 3.403889018367634 0 0 0
7178 1 0.7091178795852677 -37.94979139115105 0.9155840417676337 0 0 0
7179 1 2.861513022085269 -37.94954290215105 4.648034041767634 0 0 0
7180 1 4.297734567085271 -35.91590892615105 4.648019111967635 0 0 0
7181 1 2.14533942458527 -35.91590892615105 5.892164135367635 0 0 0
7182 1 2.14533942458527 -35.91590892615105 3.403874088567635 0 0 0
7183 1 4.297734567085271 -35.91590892615105 7.136324088567635 0 0 0
7184 1 5.73395611208527 -33.88227495015106 7.136324088567635 0 0 0
7185 1 3.581560969585272 -33.88227495015106 5.892149205567634 0 0 0
7186 1 1.42529147708527 -39.98342536715106 -5.305156005032366 0 0 0
7187 1 1.42529147708527 -39.98342536715106 -2.816851028432366 0 0 0
7188 1 2.861513022085269 -37.94954290215105 -2.816865958232365 0 0 0
7189 1 0.7091178795852677 -37.94979139115105 -1.572706005032366 0 0 0
7190 1 0.7091178795852677 -37.94979139115105 -4.061010981632366 0 0 0
7191 1 2.861513022085269 -37.94954290215105 -0.328560981632366 0 0 0
7192 1 4.297734567085271 -35.91590892615105 -0.3285759114323659 0 0 0
7193 1 2.14533942458527 -35.91590892615105 0.9155691119676348 0 0 0
7194 1 2.14533942458527 -35.91590892615105 -1.572735864632366 0 0 0
7195 1 4.297734567085271 -35.91590892615105 2.159729065167634 0 0 0
7196 1 5.73395611208527 -33.88227495015106 2.159729065167634 0 0 0
7197 1 3.581560969585272 -33.88227495015106 3.403859158767634 0 0 0
7198 1 3.581560969585272 -33.88227495015106 0.9155541821676341 0 0 0
7199 1 5.73395611208527 -33.88227495015106 4.648019111967635 0 0 0
7200 1 7.170177657085269 -31.84864097415105 4.648034041767634 0 0 0
7201 1 5.017782514585271 -31.84864097415105 5.892149205567634 0 0 0
7202 1 5.017782514585271 -31.84864097415105 3.403859158767634 0 0 0
7203 1 7.170177657085269 -31.84864097415105 7.136339018367634 0 0 0
7204 1 8.606399202085267 -29.81475850915105 7.136398737567633 0 0 0
7205 1 6.454004059585273 -29.81475850915105 5.892179065167634 0 0 0
7206 1 0.7091178795852677 -37.94979139115105 -6.549312972272366 0 0 0
7207 1 2.861513022085269 -37.94954290215105 -5.305170934832366 0 0 0
7208 1 4.297734567085271 -35.91590892615105 -5.305170934832366 0 0 0
7209 1 2.14533942458527 -35.91590892615105 -4.061025911432366 0 0 0
7210 1 2.14533942458527 -35.91590892615105 -6.549330888032366 0 0 0
7211 1 4.297734567085271 -35.91590892615105 -2.816880888032366 0 0 0
7212 1 5.73395611208527 -33.88227495015106 -2.816880888032366 0 0 0
7213 1 3.581560969585272 -33.88227495015106 -1.572750794432365 0 0 0
7214 1 3.581560969585272 -33.88227495015106 -4.061040841232366 0 0 0
7215 1 5.73395611208527 -33.88227495015106 -0.3285759114323659 0 0 0
7216 1 7.170177657085269 -31.84864097415105 -0.328560981632366 0 0 0
7217 1 5.017782514585271 -31.84864097415105 0.9155541821676341 0 0 0
7218 1 5.017782514585271 -31.84864097415105 -1.572750794432365 0 0 0
7219 1 7.170177657085269 -31.84864097415105 2.159743994967634 0 0 0
7220 1 8.606399202085267 -29.81475850915105 2.159788784367633 0 0 0
7221 1 6.454004059585273 -29.81475850915105 3.403889018367634 0 0 0
7222 1 6.454004059585273 -29.81475850915105 0.9155840417676337 0 0 0
7223 1 8.606399202085267 -29.81475850915105 4.648093760967633 0 0 0
7224 1 10.04258200358527 -27.78112453315104 4.648198269567633 0 0 0
7225 1 7.890225604585268 -27.78112453315104 5.892268643967634 0 0 0
7226 1 7.890225604585268 -27.78112453315104 3.403963667367634 0 0 0
7227 1 10.04258200358527 -27.78112453315104 7.136503246167633 0 0 0
7228 1 3.581560969585272 -33.88227495015106 -6.549345817832366 0 0 0
7229 1 5.73395611208527 -33.88227495015106 -5.305170934832366 0 0 0
7230 1 7.170177657085269 -31.84864097415105 -5.305156005032366 0 0 0
7231 1 5.017782514585271 -31.84864097415105 -4.061040841232366 0 0 0
7232 1 5.017782514585271 -31.84864097415105 -6.549344324852366 0 0 0
7233 1 7.170177657085269 -31.84864097415105 -2.816865958232365 0 0 0
7234 1 8.606399202085267 -29.81475850915105 -2.816806239032365 0 0 0
7235 1 6.454004059585273 -29.81475850915105 -1.572720934832366 0 0 0
7236 1 6.454004059585273 -29.81475850915105 -4.061010981632366 0 0 0
7237 1 8.606399202085267 -29.81475850915105 -0.3285012624323658 0 0 0
7238 1 10.04258200358527 -27.78112453315104 -0.3283967538323651 0 0 0
7239 1 7.890225604585268 -27.78112453315104 0.9156736205676346 0 0 0
7240 1 7.890225604585268 -27.78112453315104 -1.572631356032366 0 0 0
7241 1 10.04258200358527 -27.78112453315104 2.159893292967634 0 0 0
7242 1 6.454004059585273 -29.81475850915105 -6.549314465252365 0 0 0
7243 1 8.606399202085267 -29.81475850915105 -5.305111215632365 0 0 0
7244 1 10.04258200358527 -27.78112453315104 -5.305006707032366 0 0 0
7245 1 7.890225604585268 -27.78112453315104 -4.060936332632366 0 0 0
7246 1 7.890225604585268 -27.78112453315104 -6.549232351352366 0 0 0
7247 1 10.04258200358527 -27.78112453315104 -2.816701730432365 0 0 0
7248 1 -0.007094461414730802 -35.91590892615105 7.136324088567635 0 0 0
7249 1 -0.007094461414730802 -35.91590892615105 2.159714135367635 0 0 0
7250 1 -0.007094461414730802 -35.91590892615105 4.648019111967635 0 0 0
7251 1 1.429127083585271 -33.88227495015106 4.647989252367633 0 0 0
7252 1 1.429127083585271 -33.88227495015106 7.136294228967634 0 0 0
7253 1 2.865387372085269 -31.84864097415105 7.136279299167635 0 0 0
7254 1 0.7129534860852722 -31.84864097415105 5.892119345967634 0 0 0
7255 1 -0.007094461414730802 -35.91590892615105 -2.816880888032366 0 0 0
7256 1 -0.007094461414730802 -35.91590892615105 -0.3285759114323659 0 0 0
7257 1 1.429127083585271 -33.88227495015106 -0.3286057710323655 0 0 0
7258 1 1.429127083585271 -33.88227495015106 2.159699205567634 0 0 0
7259 1 2.865387372085269 -31.84864097415105 2.159684275767635 0 0 0
7260 1 0.7129534860852722 -31.84864097415105 3.403814369367636 0 0 0
7261 1 0.7129534860852722 -31.84864097415105 0.9155093927676354 0 0 0
7262 1 2.865387372085269 -31.84864097415105 4.647974322567634 0 0 0
7263 1 4.301608917085272 -29.81500699815105 4.647989252367633 0 0 0
7264 1 2.149175031085267 -29.81500699815105 5.892089486367635 0 0 0
7265 1 2.149175031085267 -29.81500699815105 3.403784509767634 0 0 0
7266 1 4.301608917085272 -29.81500699815105 7.136279299167635 0 0 0
7267 1 5.737830462085267 -27.78112453315104 7.136339018367634 0 0 0
7268 1 3.58539657608527 -27.78137302215104 5.892104416167635 0 0 0
7269 1 -0.007094461414730802 -35.91590892615105 -5.305185864632366 0 0 0
7270 1 1.429127083585271 -33.88227495015106 -5.305200794432366 0 0 0
7271 1 1.429127083585271 -33.88227495015106 -2.816910747632366 0 0 0
7272 1 2.865387372085269 -31.84864097415105 -2.816925677432366 0 0 0
7273 1 0.7129534860852722 -31.84864097415105 -1.572780654032366 0 0 0
7274 1 0.7129534860852722 -31.84864097415105 -4.061085630632366 0 0 0
7275 1 2.865387372085269 -31.84864097415105 -0.3286207008323654 0 0 0
7276 1 4.301608917085272 -29.81500699815105 -0.3286207008323654 0 0 0
7277 1 2.149175031085267 -29.81500699815105 0.9154944629676347 0 0 0
7278 1 2.149175031085267 -29.81500699815105 -1.572810513632366 0 0 0
7279 1 4.301608917085272 -29.81500699815105 2.159684275767635 0 0 0
7280 1 5.737830462085267 -27.78112453315104 2.159729065167634 0 0 0
7281 1 3.58539657608527 -27.78137302215104 3.403799439567635 0 0 0
7282 1 3.58539657608527 -27.78137302215104 0.9155093927676354 0 0 0
7283 1 5.737830462085267 -27.78112453315104 4.648034041767634 0 0 0
7284 1 0.7129534860852722 -31.84864097415105 -6.549386128292365 0 0 0
7285 1 2.865387372085269 -31.84864097415105 -5.305215724232365 0 0 0
7286 1 4.301608917085272 -29.81500699815105 -5.305215724232365 0 0 0
7287 1 2.149175031085267 -29.81500699815105 -4.061115490232366 0 0 0
7288 1 2.149175031085267 -29.81500699815105 -6.549408522992366 0 0 0
7289 1 4.301608917085272 -29.81500699815105 -2.816910747632366 0 0 0
7290 1 5.737830462085267 -27.78112453315104 -2.816865958232365 0 0 0
7291 1 3.58539657608527 -27.78137302215104 -1.572795583832366 0 0 0
7292 1 3.58539657608527 -27.78137302215104 -4.061100560432366 0 0 0
7293 1 5.737830462085267 -27.78112453315104 -0.328560981632366 0 0 0
7294 1 3.58539657608527 -27.78137302215104 -6.549396579152366 0 0 0
7295 1 5.737830462085267 -27.78112453315104 -5.305170934832366 0 0 0
7296 1 -0.003220111414730553 -29.81500699815105 7.136219579967634 0 0 0
7297 1 -0.003220111414730553 -29.81500699815105 2.159624556567634 0 0 0
7298 1 -0.003220111414730553 -29.81500699815105 4.647914603367633 0 0 0
7299 1 1.433001433585272 -27.78137302215104 4.647884743767635 0 0 0
7300 1 1.433001433585272 -27.78137302215104 7.136189720367634 0 0 0
7301 1 -0.003220111414730553 -29.81500699815105 -2.816985396632366 0 0 0
7302 1 -0.003220111414730553 -29.81500699815105 -0.3286804200323656 0 0 0
7303 1 1.433001433585272 -27.78137302215104 -0.3287102796323653 0 0 0
7304 1 1.433001433585272 -27.78137302215104 2.159594696967634 0 0 0
7305 1 -0.003220111414730553 -29.81500699815105 -5.305275443432366 0 0 0
7306 1 1.433001433585272 -27.78137302215104 -5.305305303032366 0 0 0
7307 1 1.433001433585272 -27.78137302215104 -2.817015256232366 0 0 0
7308 1 17.93595023258527 -25.74749055715105 5.892507520767635 0 0 0
7309 1 17.93595023258527 -25.74749055715105 3.404202544167635 0 0 0
7310 1 17.93595023258527 -25.74749055715105 0.9159124973676356 0 0 0
7311 1 -19.37136563313833 -23.71385658115105 5.892492590967635 1 0 0
7312 1 -19.37136563313833 -23.71385658115105 3.404202544167635 1 0 0
7313 1 17.93595023258527 -25.74749055715105 -1.572392479232366 0 0 0
7314 1 17.93595023258527 -25.74749055715105 -4.060697455832366 0 0 0
7315 1 -19.37136563313833 -23.71385658115105 0.9158975675676349 1 0 0
7316 1 -19.37136563313833 -23.71385658115105 -1.572407409032365 1 0 0
7317 1 17.93595023258527 -25.74749055715105 -6.548993474552366 0 0 0
7318 1 -19.37136563313833 -23.71385658115105 -4.060697455832366 1 0 0
7319 1 -19.37136563313833 -23.71385658115105 -6.549000939452366 1 0 0
7320 1 15.78351634658527 -25.74724206815104 4.648392356967634 0 0 0
7321 1 13.63115994758527 -25.74724206815104 5.892537380367633 0 0 0
7322 1 13.63115994758527 -25.74724206815104 3.404247333567634 0 0 0
7323 1 15.78351634658527 -25.74724206815104 7.136697333567634 0 0 0
7324 1 17.21969914808527 -23.71360809215105 7.136742122967634 0 0 0
7325 1 15.06730400558527 -23.71335960315105 5.892671748567635 0 0 0
7326 1 15.78351634658527 -25.74724206815104 -0.3282026664323654 0 0 0
7327 1 13.63115994758527 -25.74724206815104 0.9159423569676335 0 0 0
7328 1 13.63115994758527 -25.74724206815104 -1.572362619632366 0 0 0
7329 1 15.78351634658527 -25.74724206815104 2.160087380367633 0 0 0
7330 1 17.21969914808527 -23.71360809215105 2.160147099567634 0 0 0
7331 1 15.06730400558527 -23.71335960315105 3.404366771967634 0 0 0
7332 1 15.06730400558527 -23.71335960315105 0.916061795367634 0 0 0
7333 1 17.21969914808527 -23.71360809215105 4.648452076167635 0 0 0
7334 1 18.65588194958527 -21.67997411615104 4.648407286767634 0 0 0
7335 1 16.50348680708527 -21.67972562715106 5.892716537967635 0 0 0
7336 1 16.50348680708527 -21.67972562715106 3.404411561367635 0 0 0
7337 1 18.65588194958527 -21.67997411615104 7.136712263367635 0 0 0
7338 1 17.93963086508527 -19.64609165115104 5.892626959167634 0 0 0
7339 1 15.78351634658527 -25.74724206815104 -5.304812619632365 0 0 0
7340 1 13.63115994758527 -25.74724206815104 -4.060652666432366 0 0 0
7341 1 13.63115994758527 -25.74724206815104 -6.548957643032366 0 0 0
7342 1 15.78351634658527 -25.74724206815104 -2.816507643032366 0 0 0
7343 1 17.21969914808527 -23.71360809215105 -2.816447923832365 0 0 0
7344 1 15.06730400558527 -23.71335960315105 -1.572228251432366 0 0 0
7345 1 15.06730400558527 -23.71335960315105 -4.060533228032366 0 0 0
7346 1 17.21969914808527 -23.71360809215105 -0.328157877032365 0 0 0
7347 1 18.65588194958527 -21.67997411615104 -0.3281877366323656 0 0 0
7348 1 16.50348680708527 -21.67972562715106 0.9161065847676344 0 0 0
7349 1 16.50348680708527 -21.67972562715106 -1.572183462032366 0 0 0
7350 1 18.65588194958527 -21.67997411615104 2.160117239967635 0 0 0
7351 1 17.93963086508527 -19.64609165115104 3.404321982567636 0 0 0
7352 1 17.93963086508527 -19.64609165115104 0.9160319357676343 0 0 0
7353 1 -19.36769226117023 -17.61270616415105 5.892388082367635 1 0 0
7354 1 -19.36769226117023 -17.61270616415105 3.404098035567635 1 0 0
7355 1 15.06730400558527 -23.71335960315105 -6.548835218672366 0 0 0
7356 1 17.21969914808527 -23.71360809215105 -5.304752900432366 0 0 0
7357 1 18.65588194958527 -21.67997411615104 -5.304782760032365 0 0 0
7358 1 16.50348680708527 -21.67972562715106 -4.060488438632365 0 0 0
7359 1 16.50348680708527 -21.67972562715106 -6.548785950332366 0 0 0
7360 1 18.65588194958527 -21.67997411615104 -2.816492713232366 0 0 0
7361 1 17.93963086508527 -19.64609165115104 -1.572273040832366 0 0 0
7362 1 17.93963086508527 -19.64609165115104 -4.060578017432366 0 0 0
7363 1 -19.36769226117023 -17.61270616415105 0.9157930589676351 1 0 0
7364 1 -19.36769226117023 -17.61270616415105 -1.572511917632365 1 0 0
7365 1 17.93963086508527 -19.64609165115104 -6.548874036152366 0 0 0
7366 1 -19.36769226117023 -17.61270616415105 -4.060801964432367 1 0 0
7367 1 -19.36769226117023 -17.61270616415105 -6.549108434012366 1 0 0
7368 1 11.47880354858527 -25.74724206815104 7.136652544167635 0 0 0
7369 1 9.32644714958527 -25.74724206815104 5.892417941967635 0 0 0
7370 1 11.47880354858527 -25.74724206815104 2.160042590967635 0 0 0
7371 1 9.32644714958527 -25.74724206815104 3.404112965367634 0 0 0
7372 1 9.32644714958527 -25.74724206815104 0.9158229185676348 0 0 0
7373 1 11.47880354858527 -25.74724206815104 4.648347567567635 0 0 0
7374 1 12.91494760658527 -23.71335960315105 4.648526725167635 0 0 0
7375 1 10.76262995108527 -23.71360809215105 5.892626959167634 0 0 0
7376 1 10.76262995108527 -23.71360809215105 3.404336912367633 0 0 0
7377 1 12.91494760658527 -23.71335960315105 7.136831701767635 0 0 0
7378 1 14.35109166458527 -21.67972562715106 7.136980999767633 0 0 0
7379 1 12.19877400908527 -21.67972562715106 5.892880765767634 0 0 0
7380 1 11.47880354858527 -25.74724206815104 -2.816552432432365 0 0 0
7381 1 9.32644714958527 -25.74724206815104 -1.572482058032366 0 0 0
7382 1 9.32644714958527 -25.74724206815104 -4.060787034632366 0 0 0
7383 1 11.47880354858527 -25.74724206815104 -0.3282474558323649 0 0 0
7384 1 12.91494760658527 -23.71335960315105 -0.3280682982323659 0 0 0
7385 1 10.76262995108527 -23.71360809215105 0.9160319357676343 0 0 0
7386 1 10.76262995108527 -23.71360809215105 -1.572273040832366 0 0 0
7387 1 12.91494760658527 -23.71335960315105 2.160236678367635 0 0 0
7388 1 14.35109166458527 -21.67972562715106 2.160371046567635 0 0 0
7389 1 12.19877400908527 -21.67972562715106 3.404575789167634 0 0 0
7390 1 12.19877400908527 -21.67972562715106 0.9162708125676335 0 0 0
7391 1 14.35109166458527 -21.67972562715106 4.648676023167633 0 0 0
7392 1 15.78727446608527 -19.64609165115104 4.648690952967634 0 0 0
7393 1 13.63491806708527 -19.64584316215105 5.893030063767634 0 0 0
7394 1 13.63491806708527 -19.64584316215105 3.404740016967633 0 0 0
7395 1 15.78727446608527 -19.64609165115104 7.136995929567634 0 0 0
7396 1 17.22341852408527 -17.61220918615105 7.136816771967634 0 0 0
7397 1 15.07110086858527 -17.61220918615105 5.892970344567635 0 0 0
7398 1 9.32644714958527 -25.74724206815104 -6.549083053352366 0 0 0
7399 1 11.47880354858527 -25.74724206815104 -5.304857409032365 0 0 0
7400 1 12.91494760658527 -23.71335960315105 -5.304663321632366 0 0 0
7401 1 10.76262995108527 -23.71360809215105 -4.060563087632366 0 0 0
7402 1 10.76262995108527 -23.71360809215105 -6.548865078272366 0 0 0
7403 1 12.91494760658527 -23.71335960315105 -2.816373274832365 0 0 0
7404 1 14.35109166458527 -21.67972562715106 -2.816223976832366 0 0 0
7405 1 12.19877400908527 -21.67972562715106 -1.572019234232366 0 0 0
7406 1 12.19877400908527 -21.67972562715106 -4.060324210832366 0 0 0
7407 1 14.35109166458527 -21.67972562715106 -0.3279190002323658 0 0 0
7408 1 15.78727446608527 -19.64609165115104 -0.327904070432365 0 0 0
7409 1 13.63491806708527 -19.64584316215105 0.9164350403676345 0 0 0
7410 1 13.63491806708527 -19.64584316215105 -1.571869936232366 0 0 0
7411 1 15.78727446608527 -19.64609165115104 2.160400906167634 0 0 0
7412 1 17.22341852408527 -17.61220918615105 2.160221748567634 0 0 0
7413 1 15.07110086858527 -17.61220918615105 3.404680297767635 0 0 0
7414 1 15.07110086858527 -17.61220918615105 0.9163753211676351 0 0 0
7415 1 17.22341852408527 -17.61220918615105 4.648511795367634 0 0 0
7416 1 18.65956258208527 -15.57882369915104 4.648183339767634 0 0 0
7417 1 16.50724492658527 -15.57832672115104 5.892641888967633 0 0 0
7418 1 16.50724492658527 -15.57832672115104 3.404336912367633 0 0 0
7419 1 18.65956258208527 -15.57882369915104 7.136488316367634 0 0 0
7420 1 17.94335024108527 -13.54469274515105 5.892238784367633 0 0 0
7421 1 12.19877400908527 -21.67972562715106 -6.548624708492365 0 0 0
7422 1 14.35109166458527 -21.67972562715106 -5.304528953432365 0 0 0
7423 1 15.78727446608527 -19.64609165115104 -5.304499093832366 0 0 0
7424 1 13.63491806708527 -19.64584316215105 -4.060159983032365 0 0 0
7425 1 13.63491806708527 -19.64584316215105 -6.548464959632366 0 0 0
7426 1 15.78727446608527 -19.64609165115104 -2.816209047032365 0 0 0
7427 1 17.22341852408527 -17.61220918615105 -2.816388204632366 0 0 0
7428 1 15.07110086858527 -17.61220918615105 -1.571929655432366 0 0 0
7429 1 15.07110086858527 -17.61220918615105 -4.060219702232366 0 0 0
7430 1 17.22341852408527 -17.61220918615105 -0.3280832280323658 0 0 0
7431 1 18.65956258208527 -15.57882369915104 -0.3284116836323658 0 0 0
7432 1 16.50724492658527 -15.57832672115104 0.9160468655676333 0 0 0
7433 1 16.50724492658527 -15.57832672115104 -1.572258111032365 0 0 0
7434 1 18.65956258208527 -15.57882369915104 2.159893292967634 0 0 0
7435 1 17.94335024108527 -13.54469274515105 3.403933807767634 0 0 0
7436 1 17.94335024108527 -13.54469274515105 0.9156437609676331 0 0 0
7437 1 15.07110086858527 -17.61220918615105 -6.548526171812366 0 0 0
7438 1 17.22341852408527 -17.61220918615105 -5.304678251432366 0 0 0
7439 1 18.65956258208527 -15.57882369915104 -5.305006707032366 0 0 0
7440 1 16.50724492658527 -15.57832672115104 -4.060563087632366 0 0 0
7441 1 16.50724492658527 -15.57832672115104 -6.548859106352365 0 0 0
7442 1 18.65956258208527 -15.57882369915104 -2.816716660232366 0 0 0
7443 1 17.94335024108527 -13.54469274515105 -1.572661215632365 0 0 0
7444 1 17.94335024108527 -13.54469274515105 -4.060966192232366 0 0 0
7445 1 17.94335024108527 -13.54469274515105 -6.549260717972365 0 0 0
7446 1 7.174052007085269 -25.74749055715105 4.648153480167634 0 0 0
7447 1 5.021656864585271 -25.74749055715105 5.892179065167634 0 0 0
7448 1 5.021656864585271 -25.74749055715105 3.403889018367634 0 0 0
7449 1 7.174052007085269 -25.74749055715105 7.136458456767635 0 0 0
7450 1 8.610273552085271 -23.71360809215105 7.136682403767633 0 0 0
7451 1 6.45787840958527 -23.71385658115105 5.892373152567634 0 0 0
7452 1 7.174052007085269 -25.74749055715105 -0.3284415432323664 0 0 0
7453 1 5.021656864585271 -25.74749055715105 0.9155840417676337 0 0 0
7454 1 5.021656864585271 -25.74749055715105 -1.572720934832366 0 0 0
7455 1 7.174052007085269 -25.74749055715105 2.159848503567634 0 0 0
7456 1 8.610273552085271 -23.71360809215105 2.160072450567634 0 0 0
7457 1 6.45787840958527 -23.71385658115105 3.404068175967634 0 0 0
7458 1 6.45787840958527 -23.71385658115105 0.9157781291676343 0 0 0
7459 1 8.610273552085271 -23.71360809215105 4.648377427167635 0 0 0
7460 1 10.04645635358527 -21.67972562715106 4.648690952967634 0 0 0
7461 1 7.894138698085271 -21.67997411615104 5.892701608167634 0 0 0
7462 1 7.894138698085271 -21.67997411615104 3.404396631567634 0 0 0
7463 1 10.04645635358527 -21.67972562715106 7.136980999767633 0 0 0
7464 1 11.48260041158527 -19.64584316215105 7.137294525567635 0 0 0
7465 1 9.33036024308527 -19.64609165115104 5.893134572367634 0 0 0
7466 1 7.174052007085269 -25.74749055715105 -5.305051496432366 0 0 0
7467 1 5.021656864585271 -25.74749055715105 -4.061010981632366 0 0 0
7468 1 5.021656864585271 -25.74749055715105 -6.549318944192366 0 0 0
7469 1 7.174052007085269 -25.74749055715105 -2.816746519832365 0 0 0
7470 1 8.610273552085271 -23.71360809215105 -2.816522572832366 0 0 0
7471 1 6.45787840958527 -23.71385658115105 -1.572526847432366 0 0 0
7472 1 6.45787840958527 -23.71385658115105 -4.060831824032366 0 0 0
7473 1 8.610273552085271 -23.71360809215105 -0.3282175962323652 0 0 0
7474 1 10.04645635358527 -21.67972562715106 -0.3279190002323658 0 0 0
7475 1 7.894138698085271 -21.67997411615104 0.9161065847676344 0 0 0
7476 1 7.894138698085271 -21.67997411615104 -1.572198391832366 0 0 0
7477 1 10.04645635358527 -21.67972562715106 2.160385976367634 0 0 0
7478 1 11.48260041158527 -19.64584316215105 2.160699502167635 0 0 0
7479 1 9.33036024308527 -19.64609165115104 3.404829595767634 0 0 0
7480 1 9.33036024308527 -19.64609165115104 0.9165395489676342 0 0 0
7481 1 11.48260041158527 -19.64584316215105 4.649004478767633 0 0 0
7482 1 12.91870572608527 -17.61171220815105 4.649138846967634 0 0 0
7483 1 10.76650430108527 -17.61196069715105 5.893522747167633 0 0 0
7484 1 10.76650430108527 -17.61196069715105 3.405217770567633 0 0 0
7485 1 12.91870572608527 -17.61171220815105 7.137443823567635 0 0 0
7486 1 14.35504350158527 -15.57832672115104 7.137204946767634 0 0 0
7487 1 12.20257087208527 -15.57782974315104 5.893567536567634 0 0 0
7488 1 6.45787840958527 -23.71385658115105 -6.549129335732365 0 0 0
7489 1 8.610273552085271 -23.71360809215105 -5.304827549432366 0 0 0
7490 1 10.04645635358527 -21.67972562715106 -5.304514023632366 0 0 0
7491 1 7.894138698085271 -21.67997411615104 -4.060503368432366 0 0 0
7492 1 7.894138698085271 -21.67997411615104 -6.548799387152366 0 0 0
7493 1 10.04645635358527 -21.67972562715106 -2.816209047032365 0 0 0
7494 1 11.48260041158527 -19.64584316215105 -2.815895521232366 0 0 0
7495 1 9.33036024308527 -19.64609165115104 -1.571765427632365 0 0 0
7496 1 9.33036024308527 -19.64609165115104 -4.060070404232365 0 0 0
7497 1 11.48260041158527 -19.64584316215105 -0.3276054744323655 0 0 0
7498 1 12.91870572608527 -17.61171220815105 -0.3274561764323662 0 0 0
7499 1 10.76650430108527 -17.61196069715105 0.9169127939676347 0 0 0
7500 1 10.76650430108527 -17.61196069715105 -1.571377252832366 0 0 0
7501 1 12.91870572608527 -17.61171220815105 2.160833870367634 0 0 0
7502 1 14.35504350158527 -15.57832672115104 2.160609923367634 0 0 0
7503 1 12.20257087208527 -15.57782974315104 3.405262559967634 0 0 0
7504 1 12.20257087208527 -15.57782974315104 0.9169725131676341 0 0 0
7505 1 14.35504350158527 -15.57832672115104 4.648899970167633 0 0 0
7506 1 15.79122630308527 -13.54444425615105 4.648332637767634 0 0 0
7507 1 13.63910236508527 -13.54469274515105 5.892985274367634 0 0 0
7508 1 13.63910236508527 -13.54469274515105 3.404695227567634 0 0 0
7509 1 15.79122630308527 -13.54444425615105 7.136637614367634 0 0 0
7510 1 9.33036024308527 -19.64609165115104 -6.548363436992366 0 0 0
7511 1 11.48260041158527 -19.64584316215105 -5.304200497832365 0 0 0
7512 1 12.91870572608527 -17.61171220815105 -5.304066129632366 0 0 0
7513 1 10.76650430108527 -17.61196069715105 -4.059682229432365 0 0 0
7514 1 10.76650430108527 -17.61196069715105 -6.547979741132366 0 0 0
7515 1 12.91870572608527 -17.61171220815105 -2.815761153032366 0 0 0
7516 1 14.35504350158527 -15.57832672115104 -2.816000029832366 0 0 0
7517 1 12.20257087208527 -15.57782974315104 -1.571332463432365 0 0 0
7518 1 12.20257087208527 -15.57782974315104 -4.059637440032366 0 0 0
7519 1 14.35504350158527 -15.57832672115104 -0.3276950532323664 0 0 0
7520 1 15.79122630308527 -13.54444425615105 -0.3282623856323656 0 0 0
7521 1 13.63910236508527 -13.54469274515105 0.916390250967634 0 0 0
7522 1 13.63910236508527 -13.54469274515105 -1.571914725632365 0 0 0
7523 1 15.79122630308527 -13.54444425615105 2.160042590967635 0 0 0
7524 1 12.20257087208527 -15.57782974315104 -6.547933458752365 0 0 0
7525 1 14.35504350158527 -15.57832672115104 -5.304290076632366 0 0 0
7526 1 15.79122630308527 -13.54444425615105 -5.304857409032365 0 0 0
7527 1 13.63910236508527 -13.54469274515105 -4.060204772432366 0 0 0
7528 1 13.63910236508527 -13.54469274515105 -6.548511242012366 0 0 0
7529 1 15.79122630308527 -13.54444425615105 -2.816567362232366 0 0 0
7530 1 2.86922297858527 -25.74773904615104 7.136219579967634 0 0 0
7531 1 0.7168278360852725 -25.74773904615104 5.891970047967634 0 0 0
7532 1 2.86922297858527 -25.74773904615104 2.159609626767633 0 0 0
7533 1 0.7168278360852725 -25.74773904615104 3.403680001167634 0 0 0
7534 1 0.7168278360852725 -25.74773904615104 0.9153750245676342 0 0 0
7535 1 2.86922297858527 -25.74773904615104 4.647914603367633 0 0 0
7536 1 4.305483267085272 -23.71385658115105 4.648034041767634 0 0 0
7537 1 2.153049381085268 -23.71410507015105 5.892014837367634 0 0 0
7538 1 2.153049381085268 -23.71410507015105 3.403709860767634 0 0 0
7539 1 4.305483267085272 -23.71385658115105 7.136339018367634 0 0 0
7540 1 5.74174355558527 -21.68022260515106 7.136637614367634 0 0 0
7541 1 3.589309669585273 -21.68022260515106 5.892223854567636 0 0 0
7542 1 2.86922297858527 -25.74773904615104 -2.816985396632366 0 0 0
7543 1 0.7168278360852725 -25.74773904615104 -1.572929952032366 0 0 0
7544 1 0.7168278360852725 -25.74773904615104 -4.061219998832366 0 0 0
7545 1 2.86922297858527 -25.74773904615104 -0.3286804200323656 0 0 0
7546 1 4.305483267085272 -23.71385658115105 -0.328560981632366 0 0 0
7547 1 2.153049381085268 -23.71410507015105 0.9154198139676346 0 0 0
7548 1 2.153049381085268 -23.71410507015105 -1.572885162632366 0 0 0
7549 1 4.305483267085272 -23.71385658115105 2.159743994967634 0 0 0
7550 1 5.74174355558527 -21.68022260515106 2.160027661167634 0 0 0
7551 1 3.589309669585273 -21.68022260515106 3.403918877967635 0 0 0
7552 1 3.589309669585273 -21.68022260515106 0.9156139013676352 0 0 0
7553 1 5.74174355558527 -21.68022260515106 4.648332637767634 0 0 0
7554 1 7.178042587585267 -19.64658862915104 4.648825321167635 0 0 0
7555 1 5.02560870158527 -19.64683711815105 5.892671748567635 0 0 0
7556 1 5.02560870158527 -19.64683711815105 3.404366771967634 0 0 0
7557 1 7.178042587585267 -19.64658862915104 7.137130297767635 0 0 0
7558 1 8.614302876085272 -17.61245767515105 7.137727489767634 0 0 0
7559 1 6.461985220585269 -17.61295465315105 5.893403308767635 0 0 0
7560 1 0.7168278360852725 -25.74773904615104 -6.549526468412366 0 0 0
7561 1 2.86922297858527 -25.74773904615104 -5.305290373232365 0 0 0
7562 1 4.305483267085272 -23.71385658115105 -5.305156005032366 0 0 0
7563 1 2.153049381085268 -23.71410507015105 -4.061190139232366 0 0 0
7564 1 2.153049381085268 -23.71410507015105 -6.549483171992366 0 0 0
7565 1 4.305483267085272 -23.71385658115105 -2.816865958232365 0 0 0
7566 1 5.74174355558527 -21.68022260515106 -2.816567362232366 0 0 0
7567 1 3.589309669585273 -21.68022260515106 -1.572676145432366 0 0 0
7568 1 3.589309669585273 -21.68022260515106 -4.060981122032365 0 0 0
7569 1 5.74174355558527 -21.68022260515106 -0.3282623856323656 0 0 0
7570 1 7.178042587585267 -19.64658862915104 -0.3277697022323656 0 0 0
7571 1 5.02560870158527 -19.64683711815105 0.9160767251676347 0 0 0
7572 1 5.02560870158527 -19.64683711815105 -1.572228251432366 0 0 0
7573 1 7.178042587585267 -19.64658862915104 2.160520344567635 0 0 0
7574 1 8.614302876085272 -17.61245767515105 2.161132466367635 0 0 0
7575 1 6.461985220585269 -17.61295465315105 3.405113261967635 0 0 0
7576 1 6.461985220585269 -17.61295465315105 0.9168082853676349 0 0 0
7577 1 8.614302876085272 -17.61245767515105 4.649437442967635 0 0 0
7578 1 10.05048567758527 -15.57807823215106 4.649870407167633 0 0 0
7579 1 7.898361739585269 -15.57907218815106 5.894254307367634 0 0 0
7580 1 7.898361739585269 -15.57907218815106 3.405949330767635 0 0 0
7581 1 10.05048567758527 -15.57807823215106 7.138160453967634 0 0 0
7582 1 11.48643601808527 -13.54320181115105 7.137951436767635 0 0 0
7583 1 9.334622028085271 -13.54419576715105 5.894627552367634 0 0 0
7584 1 3.589309669585273 -21.68022260515106 -6.549281619692366 0 0 0
7585 1 5.74174355558527 -21.68022260515106 -5.304872338832366 0 0 0
7586 1 7.178042587585267 -19.64658862915104 -5.304379655432365 0 0 0
7587 1 5.02560870158527 -19.64683711815105 -4.060533228032366 0 0 0
7588 1 5.02560870158527 -19.64683711815105 -6.548829246752366 0 0 0
7589 1 7.178042587585267 -19.64658862915104 -2.816074678832366 0 0 0
7590 1 8.614302876085272 -17.61245767515105 -2.815462557032365 0 0 0
7591 1 6.461985220585269 -17.61295465315105 -1.571496691232366 0 0 0
7592 1 6.461985220585269 -17.61295465315105 -4.059786738032366 0 0 0
7593 1 8.614302876085272 -17.61245767515105 -0.3271725102323657 0 0 0
7594 1 10.05048567758527 -15.57807823215106 -0.3267395460323659 0 0 0
7595 1 7.898361739585269 -15.57907218815106 0.9176443541676349 0 0 0
7596 1 7.898361739585269 -15.57907218815106 -1.570645692632366 0 0 0
7597 1 10.05048567758527 -15.57807823215106 2.161565430567634 0 0 0
7598 1 11.48643601808527 -13.54320181115105 2.161356413367635 0 0 0
7599 1 9.334622028085271 -13.54419576715105 3.406322575767634 0 0 0
7600 1 9.334622028085271 -13.54419576715105 0.9180325289676343 0 0 0
7601 1 11.48643601808527 -13.54320181115105 4.649661389967633 0 0 0
7602 1 6.461985220585269 -17.61295465315105 -6.548091714632366 0 0 0
7603 1 8.614302876085272 -17.61245767515105 -5.303767533632366 0 0 0
7604 1 10.05048567758527 -15.57807823215106 -5.303334569432366 0 0 0
7605 1 7.898361739585269 -15.57907218815106 -4.058950669232366 0 0 0
7606 1 7.898361739585269 -15.57907218815106 -6.547252659872366 0 0 0
7607 1 10.05048567758527 -15.57807823215106 -2.815029592832365 0 0 0
7608 1 11.48643601808527 -13.54320181115105 -2.815238610032366 0 0 0
7609 1 9.334622028085271 -13.54419576715105 -1.570272447632366 0 0 0
7610 1 9.334622028085271 -13.54419576715105 -4.058577424232366 0 0 0
7611 1 11.48643601808527 -13.54320181115105 -0.3269485632323654 0 0 0
7612 1 9.334622028085271 -13.54419576715105 -6.546870456992366 0 0 0
7613 1 11.48643601808527 -13.54320181115105 -5.303543586632365 0 0 0
7614 1 0.000654238585273248 -23.71410507015105 7.136025492567635 0 0 0
7615 1 0.000654238585273248 -23.71410507015105 2.159430469167635 0 0 0
7616 1 1.436875783585268 -21.68022260515106 4.647810094767634 0 0 0
7617 1 1.436875783585268 -21.68022260515106 7.136100141567633 0 0 0
7618 1 2.87313607208527 -19.64658862915104 7.136428597167635 0 0 0
7619 1 0.7206634425852698 -19.64658862915104 5.891880469167635 0 0 0
7620 1 0.000654238585273248 -23.71410507015105 -2.817179484032366 0 0 0
7621 1 0.000654238585273248 -23.71410507015105 -0.3288745074323662 0 0 0
7622 1 1.436875783585268 -21.68022260515106 -0.3287998584323653 0 0 0
7623 1 1.436875783585268 -21.68022260515106 2.159505118167633 0 0 0
7624 1 2.87313607208527 -19.64658862915104 2.159833573767635 0 0 0
7625 1 0.7206634425852698 -19.64658862915104 3.403575492567635 0 0 0
7626 1 0.7206634425852698 -19.64658862915104 0.9152854457676352 0 0 0
7627 1 2.87313607208527 -19.64658862915104 4.648123620567635 0 0 0
7628 1 4.309512591085269 -17.61320314215105 4.648840250967634 0 0 0
7629 1 2.156923731085271 -17.61295465315105 5.892403012167636 0 0 0
7630 1 2.156923731085271 -17.61295465315105 3.404112965367634 0 0 0
7631 1 4.309512591085269 -17.61320314215105 7.137145227567634 0 0 0
7632 1 5.745927853585268 -15.57956916615106 7.138250032767635 0 0 0
7633 1 3.593377737085273 -15.57981765515105 5.893552606767635 0 0 0
7634 1 1.436875783585268 -21.68022260515106 -5.305394881832366 0 0 0
7635 1 1.436875783585268 -21.68022260515106 -2.817089905232366 0 0 0
7636 1 2.87313607208527 -19.64658862915104 -2.816776379432365 0 0 0
7637 1 0.7206634425852698 -19.64658862915104 -1.573019530832366 0 0 0
7638 1 0.7206634425852698 -19.64658862915104 -4.061324507432365 0 0 0
7639 1 2.87313607208527 -19.64658862915104 -0.3284714028323661 0 0 0
7640 1 4.309512591085269 -17.61320314215105 -0.3277547724323648 0 0 0
7641 1 2.156923731085271 -17.61295465315105 0.915807988767634 0 0 0
7642 1 2.156923731085271 -17.61295465315105 -1.572496987832365 0 0 0
7643 1 4.309512591085269 -17.61320314215105 2.160550204167635 0 0 0
7644 1 5.745927853585268 -15.57956916615106 2.161655009367635 0 0 0
7645 1 3.593377737085273 -15.57981765515105 3.405247630167635 0 0 0
7646 1 3.593377737085273 -15.57981765515105 0.9169426535676344 0 0 0
7647 1 5.745927853585268 -15.57956916615106 4.649959985967634 0 0 0
7648 1 7.182498090085272 -13.54568670115106 4.651079720967633 0 0 0
7649 1 5.029870486585271 -13.54643216815104 5.895224744367635 0 0 0
7650 1 5.029870486585271 -13.54643216815104 3.406919767767635 0 0 0
7651 1 7.182498090085272 -13.54568670115106 7.139384697567634 0 0 0
7652 1 0.7206634425852698 -19.64658862915104 -6.549620526152366 0 0 0
7653 1 2.87313607208527 -19.64658862915104 -5.305066426232366 0 0 0
7654 1 4.309512591085269 -17.61320314215105 -5.304349795832366 0 0 0
7655 1 2.156923731085271 -17.61295465315105 -4.060787034632366 0 0 0
7656 1 2.156923731085271 -17.61295465315105 -6.549090518252366 0 0 0
7657 1 4.309512591085269 -17.61320314215105 -2.816059749032365 0 0 0
7658 1 5.745927853585268 -15.57956916615106 -2.814940014032365 0 0 0
7659 1 3.593377737085273 -15.57981765515105 -1.571347393232366 0 0 0
7660 1 3.593377737085273 -15.57981765515105 -4.059652369832365 0 0 0
7661 1 5.745927853585268 -15.57956916615106 -0.3266499672323659 0 0 0
7662 1 7.182498090085272 -13.54568670115106 -0.3255153024323656 0 0 0
7663 1 5.029870486585271 -13.54643216815104 0.9186297209676333 0 0 0
7664 1 5.029870486585271 -13.54643216815104 -1.569675255632366 0 0 0
7665 1 7.182498090085272 -13.54568670115106 2.162774744367635 0 0 0
7666 1 3.593377737085273 -15.57981765515105 -6.547951374512365 0 0 0
7667 1 5.745927853585268 -15.57956916615106 -5.303244990632366 0 0 0
7668 1 7.182498090085272 -13.54568670115106 -5.302125255632365 0 0 0
7669 1 5.029870486585271 -13.54643216815104 -4.057980232232365 0 0 0
7670 1 5.029870486585271 -13.54643216815104 -6.546277743932365 0 0 0
7671 1 7.182498090085272 -13.54568670115106 -2.813820279032366 0 0 0
7672 1 0.004489845085270616 -17.61295465315105 7.135935913767634 0 0 0
7673 1 0.004489845085270616 -17.61295465315105 2.159340890367634 0 0 0
7674 1 0.004489845085270616 -17.61295465315105 4.647645866967634 0 0 0
7675 1 1.440595159585268 -15.57907218815106 4.648511795367634 0 0 0
7676 1 1.440595159585268 -15.57907218815106 7.136816771967634 0 0 0
7677 1 2.87720413958527 -13.54668065715104 7.138668067167634 0 0 0
7678 1 0.7240341270852717 -13.54494123415105 5.893164431967634 0 0 0
7679 1 0.004489845085270616 -17.61295465315105 -2.817254133032366 0 0 0
7680 1 0.004489845085270616 -17.61295465315105 -0.3289640862323662 0 0 0
7681 1 1.440595159585268 -15.57907218815106 -0.3280832280323658 0 0 0
7682 1 1.440595159585268 -15.57907218815106 2.160221748567634 0 0 0
7683 1 2.87720413958527 -13.54668065715104 2.162073043767634 0 0 0
7684 1 0.7240341270852717 -13.54494123415105 3.404874385167634 0 0 0
7685 1 0.7240341270852717 -13.54494123415105 0.9165694085676339 0 0 0
7686 1 2.87720413958527 -13.54668065715104 4.650378020367635 0 0 0
7687 1 0.004489845085270616 -17.61295465315105 -5.305559109632366 0 0 0
7688 1 1.440595159585268 -15.57907218815106 -5.304678251432366 0 0 0
7689 1 1.440595159585268 -15.57907218815106 -2.816388204632366 0 0 0
7690 1 2.87720413958527 -13.54668065715104 -2.814521979632366 0 0 0
7691 1 0.7240341270852717 -13.54494123415105 -1.571735568032365 0 0 0
7692 1 0.7240341270852717 -13.54494123415105 -4.060025614832366 0 0 0
7693 1 2.87720413958527 -13.54668065715104 -0.3262319328323651 0 0 0
7694 1 0.7240341270852717 -13.54494123415105 -6.548330591432366 0 0 0
7695 1 2.87720413958527 -13.54668065715104 -5.302826956232366 0 0 0
7696 1 -19.36378230589373 -11.51180423615105 5.892328363167636 1 0 0
7697 1 -19.36378230589373 -11.51180423615105 3.404023386567635 1 0 0
7698 1 -19.36378230589373 -11.51180423615105 0.915718409967635 1 0 0
7699 1 -19.36378230589373 -11.51180423615105 -1.572571636832365 1 0 0
7700 1 -19.36378230589373 -11.51180423615105 -4.060876613432366 1 0 0
7701 1 -19.36378230589373 -11.51180423615105 -6.549177111092366 1 0 0
7702 1 17.22729287408527 -11.51006481315105 7.136249439567635 0 0 0
7703 1 15.07547888408527 -11.51031330215106 5.892104416167635 0 0 0
7704 1 17.22729287408527 -11.51006481315105 2.159639486367634 0 0 0
7705 1 15.07547888408527 -11.51031330215106 3.403799439567635 0 0 0
7706 1 15.07547888408527 -11.51031330215106 0.9154944629676347 0 0 0
7707 1 17.22729287408527 -11.51006481315105 4.647944462967635 0 0 0
7708 1 18.66456049358527 -9.478170260151046 4.648959689367635 0 0 0
7709 1 16.51150671158527 -9.474939903151053 5.891940188367634 0 0 0
7710 1 16.51150671158527 -9.474939903151053 3.403635211767634 0 0 0
7711 1 18.66456049358527 -9.478170260151046 7.137264665967635 0 0 0
7712 1 17.95156386308527 -7.447021174151047 5.895433761567634 0 0 0
7713 1 17.22729287408527 -11.51006481315105 -2.816955537032365 0 0 0
7714 1 15.07547888408527 -11.51031330215106 -1.572795583832366 0 0 0
7715 1 15.07547888408527 -11.51031330215106 -4.061100560432366 0 0 0
7716 1 17.22729287408527 -11.51006481315105 -0.3286505604323651 0 0 0
7717 1 18.66456049358527 -9.478170260151046 -0.3276353340323661 0 0 0
7718 1 16.51150671158527 -9.474939903151053 0.9153302351676356 0 0 0
7719 1 16.51150671158527 -9.474939903151053 -1.572959811632366 0 0 0
7720 1 18.66456049358527 -9.478170260151046 2.160654712767634 0 0 0
7721 1 17.95156386308527 -7.447021174151047 3.407128784967634 0 0 0
7722 1 17.95156386308527 -7.447021174151047 0.9188238083676339 0 0 0
7723 1 -19.36536703127423 -5.384562474151053 5.896881952167634 1 0 0
7724 1 -19.36536703127423 -5.384562474151053 3.408576975567634 1 0 0
7725 1 15.07547888408527 -11.51031330215106 -6.549401058092366 0 0 0
7726 1 17.22729287408527 -11.51006481315105 -5.305260513632366 0 0 0
7727 1 18.66456049358527 -9.478170260151046 -5.304245287232366 0 0 0
7728 1 16.51150671158527 -9.474939903151053 -4.061264788232366 0 0 0
7729 1 16.51150671158527 -9.474939903151053 -6.549563792912366 0 0 0
7730 1 18.66456049358527 -9.478170260151046 -2.815940310632365 0 0 0
7731 1 17.95156386308527 -7.447021174151047 -1.569466238432366 0 0 0
7732 1 17.95156386308527 -7.447021174151047 -4.057771215032366 0 0 0
7733 1 -19.36536703127423 -5.384562474151053 0.9202869287676343 1 0 0
7734 1 -19.36536703127423 -5.384562474151053 -1.568018047832365 1 0 0
7735 1 17.95156386308527 -7.447021174151047 -6.546073205672366 0 0 0
7736 1 -19.36536703127423 -5.384562474151053 -4.056323024432365 1 0 0
7737 1 -19.36536703127423 -5.384562474151053 -6.544619043152366 1 0 0
7738 1 12.92350992008527 -11.51130725815105 4.648392356967634 0 0 0
7739 1 10.77014619008527 -11.50807690115104 5.893866132567634 0 0 0
7740 1 10.77014619008527 -11.50807690115104 3.405576085767635 0 0 0
7741 1 12.92350992008527 -11.51130725815105 7.136697333567634 0 0 0
7742 1 14.36046759158527 -9.476430837151057 7.135502949567634 0 0 0
7743 1 12.20830491008527 -9.478667238151047 5.891208628167634 0 0 0
7744 1 12.92350992008527 -11.51130725815105 -0.3282026664323654 0 0 0
7745 1 10.77014619008527 -11.50807690115104 0.9172711091676344 0 0 0
7746 1 10.77014619008527 -11.50807690115104 -1.571033867432366 0 0 0
7747 1 12.92350992008527 -11.51130725815105 2.160087380367633 0 0 0
7748 1 14.36046759158527 -9.476430837151057 2.158907926167634 0 0 0
7749 1 12.20830491008527 -9.478667238151047 3.402918581367635 0 0 0
7750 1 12.20830491008527 -9.478667238151047 0.9146136047676343 0 0 0
7751 1 14.36046759158527 -9.476430837151057 4.647197972967634 0 0 0
7752 1 15.79630170158527 -7.437578592151056 4.647660796767635 0 0 0
7753 1 13.64626991258527 -7.443790817151054 5.890342699767634 0 0 0
7754 1 13.64626991258527 -7.443790817151054 3.402037723167634 0 0 0
7755 1 15.79630170158527 -7.437578592151056 7.135965773367635 0 0 0
7756 1 17.24662588058527 -5.42158733515106 7.146013528767634 0 0 0
7757 1 15.07757103308527 -5.39673843515105 5.891238487767636 0 0 0
7758 1 12.92350992008527 -11.51130725815105 -5.304812619632365 0 0 0
7759 1 10.77014619008527 -11.50807690115104 -4.059323914232365 0 0 0
7760 1 10.77014619008527 -11.50807690115104 -6.547630383812366 0 0 0
7761 1 12.92350992008527 -11.51130725815105 -2.816507643032366 0 0 0
7762 1 14.36046759158527 -9.476430837151057 -2.817702027032365 0 0 0
7763 1 12.20830491008527 -9.478667238151047 -1.573691371832365 0 0 0
7764 1 12.20830491008527 -9.478667238151047 -4.061981418632366 0 0 0
7765 1 14.36046759158527 -9.476430837151057 -0.3293970504323651 0 0 0
7766 1 15.79630170158527 -7.437578592151056 -0.3289342266323656 0 0 0
7767 1 13.64626991258527 -7.443790817151054 0.9137476763676347 0 0 0
7768 1 13.64626991258527 -7.443790817151054 -1.574557300232366 0 0 0
7769 1 15.79630170158527 -7.437578592151056 2.159355820167635 0 0 0
7770 1 17.24662588058527 -5.42158733515106 2.169418505367634 0 0 0
7771 1 15.07757103308527 -5.39673843515105 3.402933511167635 0 0 0
7772 1 15.07757103308527 -5.39673843515105 0.9146434643676358 0 0 0
7773 1 17.24662588058527 -5.42158733515106 4.657708552167634 0 0 0
7774 1 18.67536993008527 -3.301479187151045 4.653304261167635 0 0 0
7775 1 16.54501983908527 -3.424481242151046 5.920739772567634 0 0 0
7776 1 16.54501983908527 -3.424481242151046 3.432434795967634 0 0 0
7777 1 18.67536993008527 -3.301479187151045 7.141609237767634 0 0 0
7778 1 17.93471044058527 -1.223614169151048 5.838581083167634 0 0 0
7779 1 12.20830491008527 -9.478667238151047 -6.550289381192366 0 0 0
7780 1 14.36046759158527 -9.476430837151057 -5.305992073832366 0 0 0
7781 1 15.79630170158527 -7.437578592151056 -5.305544179832365 0 0 0
7782 1 13.64626991258527 -7.443790817151054 -4.062862276832366 0 0 0
7783 1 13.64626991258527 -7.443790817151054 -6.551156802572366 0 0 0
7784 1 15.79630170158527 -7.437578592151056 -2.817239203232365 0 0 0
7785 1 17.24662588058527 -5.42158733515106 -2.807191447832365 0 0 0
7786 1 15.07757103308527 -5.39673843515105 -1.573661512232366 0 0 0
7787 1 15.07757103308527 -5.39673843515105 -4.061966488832366 0 0 0
7788 1 17.24662588058527 -5.42158733515106 -0.3188864712323651 0 0 0
7789 1 18.67536993008527 -3.301479187151045 -0.3232907622323653 0 0 0
7790 1 16.54501983908527 -3.424481242151046 0.9441447491676342 0 0 0
7791 1 16.54501983908527 -3.424481242151046 -1.544160227432366 0 0 0
7792 1 18.67536993008527 -3.301479187151045 2.164999284567635 0 0 0
7793 1 17.93471044058527 -1.223614169151048 3.350276106567634 0 0 0
7794 1 17.93471044058527 -1.223614169151048 0.8619860597676343 0 0 0
7795 1 15.07757103308527 -5.39673843515105 -6.550262507552365 0 0 0
7796 1 17.24662588058527 -5.42158733515106 -5.295481494632366 0 0 0
7797 1 18.67536993008527 -3.301479187151045 -5.299900715432366 0 0 0
7798 1 16.54501983908527 -3.424481242151046 -4.032465204032366 0 0 0
7799 1 16.54501983908527 -3.424481242151046 -6.520761222752366 0 0 0
7800 1 18.67536993008527 -3.301479187151045 -2.811595738832366 0 0 0
7801 1 17.93471044058527 -1.223614169151048 -1.626318916832365 0 0 0
7802 1 17.93471044058527 -1.223614169151048 -4.114623893432366 0 0 0
7803 1 17.93471044058527 -1.223614169151048 -6.602918419172366 0 0 0
7804 1 8.619068326585271 -11.51081028015105 7.139459346567634 0 0 0
7805 1 6.466711927585273 -11.51279819215104 5.896672934967633 0 0 0
7806 1 8.619068326585271 -11.51081028015105 2.162849393367633 0 0 0
7807 1 6.466711927585273 -11.51279819215104 3.408367958367634 0 0 0
7808 1 6.466711927585273 -11.51279819215104 0.9200629817676358 0 0 0
7809 1 8.619068326585271 -11.51081028015105 4.651154369967633 0 0 0
7810 1 10.05331395308527 -9.471212568151046 4.649318004567634 0 0 0
7811 1 7.904173264585271 -9.478667238151047 5.895792076767634 0 0 0
7812 1 7.904173264585271 -9.478667238151047 3.407487100167634 0 0 0
7813 1 10.05331395308527 -9.471212568151046 7.137622981167635 0 0 0
7814 1 11.49348733508527 -7.448015130151049 7.131904867767634 0 0 0
7815 1 9.335358154585268 -7.429626944151039 5.892208924767635 0 0 0
7816 1 8.619068326585271 -11.51081028015105 -2.813745630032366 0 0 0
7817 1 6.466711927585273 -11.51279819215104 -1.568227065032366 0 0 0
7818 1 6.466711927585273 -11.51279819215104 -4.056532041632366 0 0 0
7819 1 8.619068326585271 -11.51081028015105 -0.3254406534323655 0 0 0
7820 1 10.05331395308527 -9.471212568151046 -0.3272770188323655 0 0 0
7821 1 7.904173264585271 -9.478667238151047 0.9191821235676336 0 0 0
7822 1 7.904173264585271 -9.478667238151047 -1.569107923232366 0 0 0
7823 1 10.05331395308527 -9.471212568151046 2.161027957767635 0 0 0
7824 1 11.49348733508527 -7.448015130151049 2.155309844367634 0 0 0
7825 1 9.335358154585268 -7.429626944151039 3.403903948167635 0 0 0
7826 1 9.335358154585268 -7.429626944151039 0.9156139013676352 0 0 0
7827 1 11.49348733508527 -7.448015130151049 4.643599891167634 0 0 0
7828 1 12.93393192158527 -5.414629643151045 4.646376833967635 0 0 0
7829 1 10.78153677908527 -5.41885395615104 5.878667596167634 0 0 0
7830 1 10.78153677908527 -5.41885395615104 3.390377549367635 0 0 0
7831 1 12.93393192158527 -5.414629643151045 7.134681810567635 0 0 0
7832 1 14.35264140458527 -3.332540312151053 7.131143447967634 0 0 0
7833 1 12.23449551608527 -3.384971491151049 5.901032436567634 0 0 0
7834 1 6.466711927585273 -11.51279819215104 -6.544832539292366 0 0 0
7835 1 8.619068326585271 -11.51081028015105 -5.302050606632365 0 0 0
7836 1 10.05331395308527 -9.471212568151046 -5.303872042232365 0 0 0
7837 1 7.904173264585271 -9.478667238151047 -4.057412899832366 0 0 0
7838 1 7.904173264585271 -9.478667238151047 -6.545713397492365 0 0 0
7839 1 10.05331395308527 -9.471212568151046 -2.815581995432366 0 0 0
7840 1 11.49348733508527 -7.448015130151049 -2.821300108832365 0 0 0
7841 1 9.335358154585268 -7.429626944151039 -1.572691075232366 0 0 0
7842 1 9.335358154585268 -7.429626944151039 -4.060996051832365 0 0 0
7843 1 11.49348733508527 -7.448015130151049 -0.3329951322323659 0 0 0
7844 1 12.93393192158527 -5.414629643151045 -0.3302181894323653 0 0 0
7845 1 10.78153677908527 -5.41885395615104 0.9020725727676346 0 0 0
7846 1 10.78153677908527 -5.41885395615104 -1.586232403832366 0 0 0
7847 1 12.93393192158527 -5.414629643151045 2.158086787167635 0 0 0
7848 1 14.35264140458527 -3.332540312151053 2.154548424567635 0 0 0
7849 1 12.23449551608527 -3.384971491151049 3.412727459967634 0 0 0
7850 1 12.23449551608527 -3.384971491151049 0.9244224833676338 0 0 0
7851 1 14.35264140458527 -3.332540312151053 4.642853401167635 0 0 0
7852 1 15.83419284458527 -1.46514547715104 4.735686897567636 0 0 0
7853 1 13.69737258908527 -1.172673924151042 5.862125377767635 0 0 0
7854 1 13.69737258908527 -1.172673924151042 3.373820401167634 0 0 0
7855 1 15.83419284458527 -1.46514547715104 7.223976944367635 0 0 0
7856 1 9.335358154585268 -7.429626944151039 -6.549289084592366 0 0 0
7857 1 11.49348733508527 -7.448015130151049 -5.309590155632366 0 0 0
7858 1 12.93393192158527 -5.414629643151045 -5.306813212832365 0 0 0
7859 1 10.78153677908527 -5.41885395615104 -4.074522450632365 0 0 0
7860 1 10.78153677908527 -5.41885395615104 -6.562827427232365 0 0 0
7861 1 12.93393192158527 -5.414629643151045 -2.818523166032366 0 0 0
7862 1 14.35264140458527 -3.332540312151053 -2.822046598832366 0 0 0
7863 1 12.23449551608527 -3.384971491151049 -1.563867563432366 0 0 0
7864 1 12.23449551608527 -3.384971491151049 -4.052172540032366 0 0 0
7865 1 14.35264140458527 -3.332540312151053 -0.3337565520323658 0 0 0
7866 1 15.83419284458527 -1.46514547715104 -0.2409230556323658 0 0 0
7867 1 13.69737258908527 -1.172673924151042 0.8855154245676342 0 0 0
7868 1 13.69737258908527 -1.172673924151042 -1.602774622232365 0 0 0
7869 1 15.83419284458527 -1.46514547715104 2.247381920967635 0 0 0
7870 1 12.23449551608527 -3.384971491151049 -6.540474530672366 0 0 0
7871 1 14.35264140458527 -3.332540312151053 -5.310351575432366 0 0 0
7872 1 15.83419284458527 -1.46514547715104 -5.217518079032366 0 0 0
7873 1 13.69737258908527 -1.172673924151042 -4.091079598832366 0 0 0
7874 1 13.69737258908527 -1.172673924151042 -6.579377110532366 0 0 0
7875 1 15.83419284458527 -1.46514547715104 -2.729213102432366 0 0 0
7876 1 4.313619402085273 -11.51329517015104 4.652871296967634 0 0 0
7877 1 2.16087556808527 -11.51379214815104 5.896254900567635 0 0 0
7878 1 2.16087556808527 -11.51379214815104 3.407964853767636 0 0 0
7879 1 4.313619402085273 -11.51329517015104 7.141176273567634 0 0 0
7880 1 5.750538330085266 -9.480655150151051 7.142923060167634 0 0 0
7881 1 3.596942139085272 -9.47990968315105 5.899882841967635 0 0 0
7882 1 4.313619402085273 -11.51329517015104 -0.3237237264323651 0 0 0
7883 1 2.16087556808527 -11.51379214815104 0.9196598771676356 0 0 0
7884 1 2.16087556808527 -11.51379214815104 -1.568645099432366 0 0 0
7885 1 4.313619402085273 -11.51329517015104 2.164581250167634 0 0 0
7886 1 5.750538330085266 -9.480655150151051 2.166328036767634 0 0 0
7887 1 3.596942139085272 -9.47990968315105 3.411592795167635 0 0 0
7888 1 3.596942139085272 -9.47990968315105 0.9232878185676352 0 0 0
7889 1 5.750538330085266 -9.480655150151051 4.654618083567634 0 0 0
7890 1 7.189898098585271 -7.45074850915104 4.651169299767634 0 0 0
7891 1 5.03335740158527 -7.448263619151049 5.901943154367634 0 0 0
7892 1 5.03335740158527 -7.448263619151049 3.413638177767634 0 0 0
7893 1 7.189898098585271 -7.45074850915104 7.139474276367634 0 0 0
7894 1 8.610893448085267 -5.38083513915106 7.134144337767633 0 0 0
7895 1 6.479264821585272 -5.43053293915105 5.891656522167633 0 0 0
7896 1 4.313619402085273 -11.51329517015104 -5.300318749832366 0 0 0
7897 1 2.16087556808527 -11.51379214815104 -4.056935146232366 0 0 0
7898 1 2.16087556808527 -11.51379214815104 -6.545240122832366 0 0 0
7899 1 4.313619402085273 -11.51329517015104 -2.812028703032365 0 0 0
7900 1 5.750538330085266 -9.480655150151051 -2.810281916432366 0 0 0
7901 1 3.596942139085272 -9.47990968315105 -1.565017158032365 0 0 0
7902 1 3.596942139085272 -9.47990968315105 -4.053307204832366 0 0 0
7903 1 5.750538330085266 -9.480655150151051 -0.321976939832366 0 0 0
7904 1 7.189898098585271 -7.45074850915104 -0.3254257236323657 0 0 0
7905 1 5.03335740158527 -7.448263619151049 0.9253332011676338 0 0 0
7906 1 5.03335740158527 -7.448263619151049 -1.562956845632366 0 0 0
7907 1 7.189898098585271 -7.45074850915104 2.162864323167634 0 0 0
7908 1 8.610893448085267 -5.38083513915106 2.157549314367634 0 0 0
7909 1 6.479264821585272 -5.43053293915105 3.403366475367633 0 0 0
7910 1 6.479264821585272 -5.43053293915105 0.9150614987676331 0 0 0
7911 1 8.610893448085267 -5.38083513915106 4.645839361167633 0 0 0
7912 1 10.06086893558527 -3.403856655151046 4.608649229367636 0 0 0
7913 1 7.885576384585267 -3.295763940151048 5.887326880167635 0 0 0
7914 1 7.885576384585267 -3.295763940151048 3.399021903567634 0 0 0
7915 1 10.06086893558527 -3.403856655151046 7.096954205967636 0 0 0
7916 1 11.51375018558527 -1.412714298151059 7.217437691967634 0 0 0
7917 1 9.364880701585271 -1.367240811151049 5.792253913767635 0 0 0
7918 1 3.596942139085272 -9.47990968315105 -6.541613674412366 0 0 0
7919 1 5.750538330085266 -9.480655150151051 -5.298571963232366 0 0 0
7920 1 7.189898098585271 -7.45074850915104 -5.302035676832366 0 0 0
7921 1 5.03335740158527 -7.448263619151049 -4.051261822232366 0 0 0
7922 1 5.03335740158527 -7.448263619151049 -6.539563812872366 0 0 0
7923 1 7.189898098585271 -7.45074850915104 -2.813730700232366 0 0 0
7924 1 8.610893448085267 -5.38083513915106 -2.819060638832365 0 0 0
7925 1 6.479264821585272 -5.43053293915105 -1.573243477832365 0 0 0
7926 1 6.479264821585272 -5.43053293915105 -4.061533524632366 0 0 0
7927 1 8.610893448085267 -5.38083513915106 -0.3307556622323657 0 0 0
7928 1 10.06086893558527 -3.403856655151046 -0.3679457940323658 0 0 0
7929 1 7.885576384585267 -3.295763940151048 0.9107169269676341 0 0 0
7930 1 7.885576384585267 -3.295763940151048 -1.577573119832365 0 0 0
7931 1 10.06086893558527 -3.403856655151046 2.120344252767635 0 0 0
7932 1 11.51375018558527 -1.412714298151059 2.240842668567634 0 0 0
7933 1 9.364880701585271 -1.367240811151049 3.303963866967635 0 0 0
7934 1 9.364880701585271 -1.367240811151049 0.8156588903676347 0 0 0
7935 1 11.51375018558527 -1.412714298151059 4.729147645167634 0 0 0
7936 1 6.479264821585272 -5.43053293915105 -6.549837008252366 0 0 0
7937 1 8.610893448085267 -5.38083513915106 -5.307350685632366 0 0 0
7938 1 10.06086893558527 -3.403856655151046 -5.344555747232365 0 0 0
7939 1 7.885576384585267 -3.295763940151048 -4.065878096432366 0 0 0
7940 1 7.885576384585267 -3.295763940151048 -6.554175608132366 0 0 0
7941 1 10.06086893558527 -3.403856655151046 -2.856250770632366 0 0 0
7942 1 11.51375018558527 -1.412714298151059 -2.735752354832366 0 0 0
7943 1 9.364880701585271 -1.367240811151049 -1.672646086232366 0 0 0
7944 1 9.364880701585271 -1.367240811151049 -4.160936133032366 0 0 0
7945 1 11.51375018558527 -1.412714298151059 -0.2474623080323655 0 0 0
7946 1 9.364880701585271 -1.367240811151049 -6.649241109632365 0 0 0
7947 1 11.51375018558527 -1.412714298151059 -5.224057331432366 0 0 0
7948 1 0.007046916085272414 -11.51006481315105 7.138279892367635 0 0 0
7949 1 0.007046916085272414 -11.51006481315105 4.649974915767634 0 0 0
7950 1 1.444469509585268 -9.481649106151053 4.655304854367634 0 0 0
7951 1 1.444469509585268 -9.481649106151053 7.143609830967634 0 0 0
7952 1 2.879606236585268 -7.446027218151045 7.148312717967634 0 0 0
7953 1 0.7281021945852686 -7.451245487151041 5.905645744767634 0 0 0
7954 1 0.007046916085272414 -11.51006481315105 -0.3266201076323654 0 0 0
7955 1 1.444469509585268 -9.481649106151053 -0.3212901690323662 0 0 0
7956 1 1.444469509585268 -9.481649106151053 2.167014807567634 0 0 0
7957 1 2.879606236585268 -7.446027218151045 2.171702764767636 0 0 0
7958 1 0.7281021945852686 -7.451245487151041 3.417340768167634 0 0 0
7959 1 0.7281021945852686 -7.451245487151041 0.9290507213676342 0 0 0
7960 1 2.879606236585268 -7.446027218151045 4.660007741367634 0 0 0
7961 1 4.312379610085269 -5.413138709151042 4.663247507967634 0 0 0
7962 1 2.162231590585272 -5.411896264151054 5.909199037167634 0 0 0
7963 1 2.162231590585272 -5.411896264151054 3.420908990367634 0 0 0
7964 1 4.312379610085269 -5.413138709151042 7.151537554767636 0 0 0
7965 1 5.772738355585268 -3.434917780151054 7.121483867367635 0 0 0
7966 1 3.58535783258527 -3.361365036151042 5.919948493167634 0 0 0
7967 1 0.007046916085272414 -11.51006481315105 -5.303215131032365 0 0 0
7968 1 1.444469509585268 -9.481649106151053 -5.297885192432366 0 0 0
7969 1 1.444469509585268 -9.481649106151053 -2.809595145632366 0 0 0
7970 1 2.879606236585268 -7.446027218151045 -2.804892258632366 0 0 0
7971 1 0.7281021945852686 -7.451245487151041 -1.559254255232365 0 0 0
7972 1 0.7281021945852686 -7.451245487151041 -4.047559231832365 0 0 0
7973 1 2.879606236585268 -7.446027218151045 -0.3165872820323656 0 0 0
7974 1 4.312379610085269 -5.413138709151042 -0.3133624452323662 0 0 0
7975 1 2.162231590585272 -5.411896264151054 0.9326040137676337 0 0 0
7976 1 2.162231590585272 -5.411896264151054 -1.555700962832366 0 0 0
7977 1 4.312379610085269 -5.413138709151042 2.174942531367634 0 0 0
7978 1 5.772738355585268 -3.434917780151054 2.144888843967635 0 0 0
7979 1 3.58535783258527 -3.361365036151042 3.431643516567634 0 0 0
7980 1 3.58535783258527 -3.361365036151042 0.9433385399676339 0 0 0
7981 1 5.772738355585268 -3.434917780151054 4.633178890767635 0 0 0
7982 1 7.13960903558527 -1.164722276151053 4.679326902567635 0 0 0
7983 1 5.06326738358527 -1.489497399151048 5.823949879167634 0 0 0
7984 1 5.06326738358527 -1.489497399151048 3.335659832367634 0 0 0
7985 1 7.13960903558527 -1.164722276151053 7.167631879167633 0 0 0
7986 1 0.7281021945852686 -7.451245487151041 -6.535853757572366 0 0 0
7987 1 2.879606236585268 -7.446027218151045 -5.293197235232366 0 0 0
7988 1 4.312379610085269 -5.413138709151042 -5.289957468632366 0 0 0
7989 1 2.162231590585272 -5.411896264151054 -4.043991009632366 0 0 0
7990 1 2.162231590585272 -5.411896264151054 -6.532295986232366 0 0 0
7991 1 4.312379610085269 -5.413138709151042 -2.801652492032366 0 0 0
7992 1 5.772738355585268 -3.434917780151054 -2.831721109232366 0 0 0
7993 1 3.58535783258527 -3.361365036151042 -1.544951506832366 0 0 0
7994 1 3.58535783258527 -3.361365036151042 -4.033256483432366 0 0 0
7995 1 5.772738355585268 -3.434917780151054 -0.3434161326323659 0 0 0
7996 1 7.13960903558527 -1.164722276151053 -0.2972681208323653 0 0 0
7997 1 5.06326738358527 -1.489497399151048 0.8473548557676338 0 0 0
7998 1 5.06326738358527 -1.489497399151048 -1.640950120832366 0 0 0
7999 1 7.13960903558527 -1.164722276151053 2.191036855767633 0 0 0
8000 1 3.58535783258527 -3.361365036151042 -6.521553995132366 0 0 0
8001 1 5.772738355585268 -3.434917780151054 -5.320011156032366 0 0 0
8002 1 7.13960903558527 -1.164722276151053 -5.273863144232365 0 0 0
8003 1 5.06326738358527 -1.489497399151048 -4.129240167632366 0 0 0
8004 1 5.06326738358527 -1.489497399151048 -6.617545144232365 0 0 0
8005 1 7.13960903558527 -1.164722276151053 -2.785573097432366 0 0 0
8006 1 0.01634535608527088 -5.423326758151049 2.186229460167635 0 0 0
8007 1 0.01634535608527088 -5.423326758151049 4.674519506967634 0 0 0
8008 1 1.460819266585268 -3.365837838151052 4.663919348967635 0 0 0
8009 1 1.460819266585268 -3.365837838151052 7.152209395767635 0 0 0
8010 1 2.947523592085268 -1.218395900151052 7.197566128167635 0 0 0
8011 1 0.7337587455852734 -1.369477212151054 5.845418931567634 0 0 0
8012 1 0.01634535608527088 -5.423326758151049 -2.790380493032366 0 0 0
8013 1 0.01634535608527088 -5.423326758151049 -0.3020755164323656 0 0 0
8014 1 1.460819266585268 -3.365837838151052 -0.3126906042323654 0 0 0
8015 1 1.460819266585268 -3.365837838151052 2.175614372367635 0 0 0
8016 1 2.947523592085268 -1.218395900151052 2.220956174967634 0 0 0
8017 1 0.7337587455852734 -1.369477212151054 3.357128884767633 0 0 0
8018 1 0.7337587455852734 -1.369477212151054 0.8688239081676343 0 0 0
8019 1 2.947523592085268 -1.218395900151052 4.709261151567635 0 0 0
8020 1 0.01634535608527088 -5.423326758151049 -5.278670539832365 0 0 0
8021 1 1.460819266585268 -3.365837838151052 -5.289285627632366 0 0 0
8022 1 1.460819266585268 -3.365837838151052 -2.800980651032366 0 0 0
8023 1 2.947523592085268 -1.218395900151052 -2.755638848432366 0 0 0
8024 1 0.7337587455852734 -1.369477212151054 -1.619481068432366 0 0 0
8025 1 0.7337587455852734 -1.369477212151054 -4.107771115232365 0 0 0
8026 1 2.947523592085268 -1.218395900151052 -0.2673338718323661 0 0 0
8027 1 0.7337587455852734 -1.369477212151054 -6.596074598852366 0 0 0
8028 1 2.947523592085268 -1.218395900151052 -5.243943825032366 0 0 0
8029 1 -16.23445299621473 0.5781795698489418 6.801433744767634 1 0 0
8030 1 -16.23445299621473 0.5781795698489418 4.313128768167633 1 0 0
8031 1 -16.06411332411473 3.050396630848965 6.591535686567635 1 0 0
8032 1 -16.23445299621473 0.5781795698489418 1.824823791567633 1 0 0
8033 1 -16.23445299621473 0.5781795698489418 -0.6634662552323656 1 0 0
8034 1 -16.06411332411473 3.050396630848965 4.103230709967635 1 0 0
8035 1 -16.06411332411473 3.050396630848965 1.614925733367635 1 0 0
8036 1 -16.07171867316473 5.555911217848958 6.559152950367634 1 0 0
8037 1 -16.07171867316473 5.555911217848958 4.070847973767634 1 0 0
8038 1 -16.07828957076473 8.053474156848964 6.550105491567633 1 0 0
8039 1 -16.23445299621473 0.5781795698489418 -3.151771231832366 1 0 0
8040 1 -16.23445299621473 0.5781795698489418 -5.640076208432365 1 0 0
8041 1 -16.06411332411473 3.050396630848965 -0.8733643134323659 1 0 0
8042 1 -16.06411332411473 3.050396630848965 -3.361669290032365 1 0 0
8043 1 -16.07171867316473 5.555911217848958 1.582542997167636 1 0 0
8044 1 -16.07171867316473 5.555911217848958 -0.9057470496323656 1 0 0
8045 1 -16.07828957076473 8.053474156848964 4.061800514967635 1 0 0
8046 1 -16.07828957076473 8.053474156848964 1.573510468167633 1 0 0
8047 1 -16.08000978216473 10.54656429384896 6.547224040167634 1 0 0
8048 1 -16.08000978216473 10.54656429384896 4.058919063567636 1 0 0
8049 1 -16.08044370936473 13.03716954084895 6.546223743567635 1 0 0
8050 1 -16.06411332411473 3.050396630848965 -5.849974266632366 1 0 0
8051 1 -16.07171867316473 5.555911217848958 -3.394052026232366 1 0 0
8052 1 -16.07171867316473 5.555911217848958 -5.882357002832366 1 0 0
8053 1 -16.07828957076473 8.053474156848964 -0.9147945084323652 1 0 0
8054 1 -16.07828957076473 8.053474156848964 -3.403099485032365 1 0 0
8055 1 -16.08000978216473 10.54656429384896 1.570629016767633 1 0 0
8056 1 -16.08000978216473 10.54656429384896 -0.9176759598323656 1 0 0
8057 1 -16.08044370936473 13.03716954084895 4.057933696767636 1 0 0
8058 1 -16.08044370936473 13.03716954084895 1.569628720167636 1 0 0
8059 1 -16.07828957076473 8.053474156848964 -5.891389531832366 1 0 0
8060 1 -16.08000978216473 10.54656429384896 -3.405980936432366 1 0 0
8061 1 -16.08000978216473 10.54656429384896 -5.894270983232365 1 0 0
8062 1 -16.08044370936473 13.03716954084895 -0.9186762564323656 1 0 0
8063 1 -16.08044370936473 13.03716954084895 -3.406966303232366 1 0 0
8064 1 -16.08044370936473 13.03716954084895 -5.895271279832365 1 0 0
8065 1 -17.88870746181473 1.892437890848967 5.363679074967635 1 0 0
8066 1 19.15094639258527 0.6649022308489521 6.538385598567634 0 0 0
8067 1 19.15094639258527 0.6649022308489521 4.050095551767635 0 0 0
8068 1 -17.88870746181473 1.892437890848967 -7.077817441412366 1 0 1
8069 1 -17.83342823601473 4.332102892848965 -7.126397517632366 1 0 1
8070 1 19.10925838658527 3.13836173684895 6.548642371167634 0 0 0
8071 1 -17.88870746181473 1.892437890848967 0.3870840515676344 1 0 0
8072 1 19.15094639258527 0.6649022308489521 1.561790575167635 0 0 0
8073 1 19.15094639258527 0.6649022308489521 -0.9265144014323656 0 0 0
8074 1 -17.88870746181473 1.892437890848967 2.875389028167634 1 0 0
8075 1 -17.83342823601473 4.332102892848965 2.826807458967634 1 0 0
8076 1 19.10925838658527 3.13836173684895 4.060352324367635 0 0 0
8077 1 19.10925838658527 3.13836173684895 1.572047347767635 0 0 0
8078 1 -17.83342823601473 4.332102892848965 5.315097505767636 1 0 0
8079 1 -17.83488886596473 6.814756491848968 5.306692028367635 1 0 0
8080 1 19.13707621958527 5.590202699848945 6.547671934167635 0 0 0
8081 1 19.13707621958527 5.590202699848945 4.059366957567635 0 0 0
8082 1 -17.83488886596473 6.814756491848968 -7.134802995032365 1 0 1
8083 1 -17.83818593781473 9.304367782848956 -7.137980056472366 1 0 1
8084 1 19.14354638408527 8.066644073848963 6.547164320967633 0 0 0
8085 1 -17.88870746181473 1.892437890848967 -4.589510971832366 1 0 0
8086 1 19.15094639258527 0.6649022308489521 -3.414804448232366 0 0 0
8087 1 19.15094639258527 0.6649022308489521 -5.903109424832365 0 0 0
8088 1 -17.88870746181473 1.892437890848967 -2.101220925032366 1 0 0
8089 1 -17.83342823601473 4.332102892848965 -2.149802494232365 1 0 0
8090 1 19.10925838658527 3.13836173684895 -0.9162576288323656 0 0 0
8091 1 19.10925838658527 3.13836173684895 -3.404547675632366 0 0 0
8092 1 -17.83342823601473 4.332102892848965 0.3385024823676348 1 0 0
8093 1 -17.83488886596473 6.814756491848968 0.3300970049676346 1 0 0
8094 1 19.13707621958527 5.590202699848945 1.571076910767635 0 0 0
8095 1 19.13707621958527 5.590202699848945 -0.9172280658323659 0 0 0
8096 1 -17.83488886596473 6.814756491848968 2.818401981567636 1 0 0
8097 1 -17.83818593781473 9.304367782848956 2.815221934167635 1 0 0
8098 1 19.14354638408527 8.066644073848963 4.058859344367635 0 0 0
8099 1 19.14354638408527 8.066644073848963 1.570569297567634 0 0 0
8100 1 -17.83818593781473 9.304367782848956 5.303526910767635 1 0 0
8101 1 -17.84011923846473 11.79422756284897 5.302317596967635 1 0 0
8102 1 19.14304271858527 10.55252802984894 6.546477550167634 0 0 0
8103 1 19.14304271858527 10.55252802984894 4.058172573567633 0 0 0
8104 1 -17.84011923846473 11.79422756284897 -7.139184891332365 1 0 1
8105 1 19.14168669608527 13.04039989784896 6.546029656167635 0 0 0
8106 1 19.10925838658527 3.13836173684895 -5.892852652232365 0 0 0
8107 1 -17.83342823601473 4.332102892848965 -4.638092541032366 1 0 0
8108 1 -17.83488886596473 6.814756491848968 -4.646498018432366 1 0 0
8109 1 19.13707621958527 5.590202699848945 -3.405533042432365 0 0 0
8110 1 19.13707621958527 5.590202699848945 -5.893823089232366 0 0 0
8111 1 -17.83488886596473 6.814756491848968 -2.158207971632366 1 0 0
8112 1 -17.83818593781473 9.304367782848956 -2.161373089232366 1 0 0
8113 1 19.14354638408527 8.066644073848963 -0.9177356790323659 0 0 0
8114 1 19.14354638408527 8.066644073848963 -3.406040655632366 0 0 0
8115 1 -17.83818593781473 9.304367782848956 0.3269169575676347 1 0 0
8116 1 -17.84011923846473 11.79422756284897 0.3257076437676352 1 0 0
8117 1 19.14304271858527 10.55252802984894 1.569867596967635 0 0 0
8118 1 19.14304271858527 10.55252802984894 -0.9184224498323657 0 0 0
8119 1 -17.84011923846473 11.79422756284897 2.814012620367635 1 0 0
8120 1 19.14168669608527 13.04039989784896 4.057724679567634 0 0 0
8121 1 19.14168669608527 13.04039989784896 1.569419702967634 0 0 0
8122 1 19.14354638408527 8.066644073848963 -5.894330702432366 0 0 0
8123 1 -17.83818593781473 9.304367782848956 -4.649678065832365 1 0 0
8124 1 -17.84011923846473 11.79422756284897 -4.650887379632366 1 0 0
8125 1 19.14304271858527 10.55252802984894 -3.406727426432366 0 0 0
8126 1 19.14304271858527 10.55252802984894 -5.895032403032365 0 0 0
8127 1 -17.84011923846473 11.79422756284897 -2.162582403032366 1 0 0
8128 1 19.14168669608527 13.04039989784896 -0.9188703438323662 0 0 0
8129 1 19.14168669608527 13.04039989784896 -3.407175320432366 0 0 0
8130 1 19.14168669608527 13.04039989784896 -5.895480297032366 0 0 0
8131 1 17.38071713408527 1.819879102848944 5.243464325367635 0 0 0
8132 1 15.60483132458527 0.5913494868489551 6.253943048967633 0 0 0
8133 1 15.60483132458527 0.5913494868489551 3.765638072367633 0 0 0
8134 1 17.38071713408527 1.819879102848944 -7.198027712072366 0 0 1
8135 1 17.35863333908527 4.339806051848953 -7.149811922972366 0 0 1
8136 1 15.61924390658527 3.088166958848944 6.508003455567634 0 0 0
8137 1 17.38071713408527 1.819879102848944 0.2668693019676338 0 0 0
8138 1 15.60483132458527 0.5913494868489551 1.277348025567633 0 0 0
8139 1 15.60483132458527 0.5913494868489551 -1.210956951032365 0 0 0
8140 1 17.38071713408527 1.819879102848944 2.755174278567633 0 0 0
8141 1 17.35863333908527 4.339806051848953 2.803382602767634 0 0 0
8142 1 15.61924390658527 3.088166958848944 4.019713408767634 0 0 0
8143 1 15.61924390658527 3.088166958848944 1.531408432167634 0 0 0
8144 1 17.35863333908527 4.339806051848953 5.291687579367634 0 0 0
8145 1 17.37548676158527 6.827926408848938 5.300107986567635 0 0 0
8146 1 15.61246379408527 5.588711765848942 6.537295723167635 0 0 0
8147 1 15.61246379408527 5.588711765848942 4.049005676367635 0 0 0
8148 1 17.37548676158527 6.827926408848938 -7.141388529812366 0 0 1
8149 1 17.38013598158527 9.312070941848944 -7.139773125452366 0 0 1
8150 1 15.61536955658527 8.072607809848947 6.544163431167636 0 0 0
8151 1 17.38071713408527 1.819879102848944 -4.709725721432365 0 0 0
8152 1 15.60483132458527 0.5913494868489551 -3.699261927632365 0 0 0
8153 1 15.60483132458527 0.5913494868489551 -6.187559439332365 0 0 0
8154 1 17.38071713408527 1.819879102848944 -2.221435674632366 0 0 0
8155 1 17.35863333908527 4.339806051848953 -2.173212420632366 0 0 0
8156 1 15.61924390658527 3.088166958848944 -0.9568965444323654 0 0 0
8157 1 15.61924390658527 3.088166958848944 -3.445186591232366 0 0 0
8158 1 17.35863333908527 4.339806051848953 0.3150925559676345 0 0 0
8159 1 17.37548676158527 6.827926408848938 0.3235129631676346 0 0 0
8160 1 15.61246379408527 5.588711765848942 1.560700699767635 0 0 0
8161 1 15.61246379408527 5.588711765848942 -0.9276042768323656 0 0 0
8162 1 17.37548676158527 6.827926408848938 2.811817939767634 0 0 0
8163 1 17.38013598158527 9.312070941848944 2.813430358167635 0 0 0
8164 1 15.61536955658527 8.072607809848947 4.055858454567636 0 0 0
8165 1 15.61536955658527 8.072607809848947 1.567553477967635 0 0 0
8166 1 17.38013598158527 9.312070941848944 5.301720404967634 0 0 0
8167 1 17.38013598158527 11.79795489784895 5.301780124167635 0 0 0
8168 1 15.61699678358527 10.55650385384895 6.545522042967635 0 0 0
8169 1 15.61699678358527 10.55650385384895 4.057231996167635 0 0 0
8170 1 17.38013598158527 11.79795489784895 -7.139719378172366 0 0 1
8171 1 15.61730673158527 13.04263629884893 6.545686270767634 0 0 0
8172 1 15.61924390658527 3.088166958848944 -5.933491567832366 0 0 0
8173 1 17.35863333908527 4.339806051848953 -4.661517397232366 0 0 0
8174 1 17.37548676158527 6.827926408848938 -4.653082060232366 0 0 0
8175 1 15.61246379408527 5.588711765848942 -3.415894323632366 0 0 0
8176 1 15.61246379408527 5.588711765848942 -5.904199300232365 0 0 0
8177 1 17.37548676158527 6.827926408848938 -2.164792013432366 0 0 0
8178 1 17.38013598158527 9.312070941848944 -2.163179595032366 0 0 0
8179 1 15.61536955658527 8.072607809848947 -0.9207365688323659 0 0 0
8180 1 15.61536955658527 8.072607809848947 -3.409041545432366 0 0 0
8181 1 17.38013598158527 9.312070941848944 0.3251253815676343 0 0 0
8182 1 17.38013598158527 11.79795489784895 0.3251851007676345 0 0 0
8183 1 15.61699678358527 10.55650385384895 1.568927019567635 0 0 0
8184 1 15.61699678358527 10.55650385384895 -0.9193779570323652 0 0 0
8185 1 17.38013598158527 11.79795489784895 2.813475147567635 0 0 0
8186 1 15.61730673158527 13.04263629884893 4.057381294167634 0 0 0
8187 1 15.61730673158527 13.04263629884893 1.569076317567633 0 0 0
8188 1 15.61536955658527 8.072607809848947 -5.897346522032366 0 0 0
8189 1 17.38013598158527 9.312070941848944 -4.651469641832366 0 0 0
8190 1 17.38013598158527 11.79795489784895 -4.651424852432365 0 0 0
8191 1 15.61699678358527 10.55650385384895 -3.407668003832366 0 0 0
8192 1 15.61699678358527 10.55650385384895 -5.895972980432366 0 0 0
8193 1 17.38013598158527 11.79795489784895 -2.163119875832366 0 0 0
8194 1 15.61730673158527 13.04263629884893 -0.9192137292323661 0 0 0
8195 1 15.61730673158527 13.04263629884893 -3.407518705832366 0 0 0
8196 1 15.61730673158527 13.04263629884893 -5.895823682432366 0 0 0
8197 1 13.86253612958527 1.81789119084894 5.185715858967633 0 0 0
8198 1 12.12171318758527 0.6410472868489592 6.366663038967635 0 0 0
8199 1 12.12171318758527 0.6410472868489592 3.878358062367635 0 0 0
8200 1 13.86253612958527 1.81789119084894 -7.255780657412366 0 0 1
8201 1 13.86799896308527 4.330363469848933 -7.159147526912366 0 0 1
8202 1 12.11303464358527 3.116743193848933 6.516423862767635 0 0 0
8203 1 13.86253612958527 1.81789119084894 0.2091208355676342 0 0 0
8204 1 12.12171318758527 0.6410472868489592 1.390068015567635 0 0 0
8205 1 12.12171318758527 0.6410472868489592 -1.098236961032366 0 0 0
8206 1 13.86253612958527 1.81789119084894 2.697425812167634 0 0 0
8207 1 13.86799896308527 4.330363469848933 2.794051477767635 0 0 0
8208 1 12.11303464358527 3.116743193848933 4.028118886167634 0 0 0
8209 1 12.11303464358527 3.116743193848933 1.539813909567634 0 0 0
8210 1 13.86799896308527 4.330363469848933 5.282356454367635 0 0 0
8211 1 13.85478742958527 6.826683963848936 5.296972728567633 0 0 0
8212 1 12.09885452258527 5.585729897848964 6.538669264767634 0 0 0
8213 1 12.09885452258527 5.585729897848964 4.050364288167634 0 0 0
8214 1 13.85478742958527 6.826683963848936 -7.144526773772366 0 0 1
8215 1 13.85335392008527 9.313561875848947 -7.140933170912366 0 0 1
8216 1 12.09188069258527 8.069128963848939 6.543760326567636 0 0 0
8217 1 13.86253612958527 1.81789119084894 -4.767474187832366 0 0 0
8218 1 12.12171318758527 0.6410472868489592 -3.586541937632366 0 0 0
8219 1 12.12171318758527 0.6410472868489592 -6.074837956352366 0 0 0
8220 1 13.86253612958527 1.81789119084894 -2.279184141032365 0 0 0
8221 1 13.86799896308527 4.330363469848933 -2.182543545632366 0 0 0
8222 1 12.11303464358527 3.116743193848933 -0.9484761372323653 0 0 0
8223 1 12.11303464358527 3.116743193848933 -3.436781113832366 0 0 0
8224 1 13.86799896308527 4.330363469848933 0.3057465011676346 0 0 0
8225 1 13.85478742958527 6.826683963848936 0.3203777051676342 0 0 0
8226 1 12.09885452258527 5.585729897848964 1.562059311567634 0 0 0
8227 1 12.09885452258527 5.585729897848964 -0.9262307352323651 0 0 0
8228 1 13.85478742958527 6.826683963848936 2.808667751967633 0 0 0
8229 1 13.85335392008527 9.313561875848947 2.812265833767635 0 0 0
8230 1 12.09188069258527 8.069128963848939 4.055455349967636 0 0 0
8231 1 12.09188069258527 8.069128963848939 1.567150373367635 0 0 0
8232 1 13.85335392008527 9.313561875848947 5.300570810367635 0 0 0
8233 1 13.85436125108527 11.79969432084896 5.301287440767634 0 0 0
8234 1 12.09160948808527 10.55600687584895 6.545089078767633 0 0 0
8235 1 12.09160948808527 10.55600687584895 4.056784102167635 0 0 0
8236 1 13.85436125108527 11.79969432084896 -7.140207582632366 0 0 1
8237 1 12.09238435808527 13.04288478784896 6.545402604567634 0 0 0
8238 1 12.11303464358527 3.116743193848933 -5.925086090432366 0 0 0
8239 1 13.86799896308527 4.330363469848933 -4.670848522232365 0 0 0
8240 1 13.85478742958527 6.826683963848936 -4.656232248032365 0 0 0
8241 1 12.09885452258527 5.585729897848964 -3.414535711832365 0 0 0
8242 1 12.09885452258527 5.585729897848964 -5.902840688432366 0 0 0
8243 1 13.85478742958527 6.826683963848936 -2.167927271432365 0 0 0
8244 1 13.85335392008527 9.313561875848947 -2.164329189632365 0 0 0
8245 1 12.09188069258527 8.069128963848939 -0.921139673432366 0 0 0
8246 1 12.09188069258527 8.069128963848939 -3.409444650032366 0 0 0
8247 1 13.85335392008527 9.313561875848947 0.3239608571676342 0 0 0
8248 1 13.85436125108527 11.79969432084896 0.3246924173676335 0 0 0
8249 1 12.09160948808527 10.55600687584895 1.568494055367633 0 0 0
8250 1 12.09160948808527 10.55600687584895 -0.919810921232366 0 0 0
8251 1 13.85436125108527 11.79969432084896 2.812997393967635 0 0 0
8252 1 12.09238435808527 13.04288478784896 4.057112557767635 0 0 0
8253 1 12.09238435808527 13.04288478784896 1.568807581167635 0 0 0
8254 1 12.09188069258527 8.069128963848939 -5.897749626632366 0 0 0
8255 1 13.85335392008527 9.313561875848947 -4.652634166232366 0 0 0
8256 1 13.85436125108527 11.79969432084896 -4.651902606032365 0 0 0
8257 1 12.09160948808527 10.55600687584895 -3.408115897832366 0 0 0
8258 1 12.09160948808527 10.55600687584895 -5.896405944632366 0 0 0
8259 1 13.85436125108527 11.79969432084896 -2.163612559232366 0 0 0
8260 1 12.09238435808527 13.04288478784896 -0.9194973954323657 0 0 0
8261 1 12.09238435808527 13.04288478784896 -3.407787442232365 0 0 0
8262 1 12.09238435808527 13.04288478784896 -5.896092418832366 0 0 0
8263 1 10.35601691858527 1.861376765848959 5.286238202367635 0 0 0
8264 1 8.613528006085271 0.6485019568489463 6.659630504367634 0 0 0
8265 1 8.613528006085271 0.6485019568489463 4.171340457567634 0 0 0
8266 1 10.35601691858527 1.861376765848959 -7.155258314012365 0 0 1
8267 1 10.33354568858527 4.333096848848967 -7.145600226392366 0 0 1
8268 1 8.562735277585269 3.095870117848946 6.556420796967634 0 0 0
8269 1 10.35601691858527 1.861376765848959 0.3096431789676339 0 0 0
8270 1 8.613528006085271 0.6485019568489463 1.683035480967634 0 0 0
8271 1 8.613528006085271 0.6485019568489463 -0.8052694956323654 0 0 0
8272 1 10.35601691858527 1.861376765848959 2.797948155567633 0 0 0
8273 1 10.33354568858527 4.333096848848967 2.807592806367634 0 0 0
8274 1 8.562735277585269 3.095870117848946 4.068115820367634 0 0 0
8275 1 8.562735277585269 3.095870117848946 1.579825773567634 0 0 0
8276 1 10.33354568858527 4.333096848848967 5.295897782967634 0 0 0
8277 1 10.33122107858527 6.81997476084895 5.299734741567633 0 0 0
8278 1 8.567461984585272 5.575293359848942 6.547433057367634 0 0 0
8279 1 8.567461984585272 5.575293359848942 4.059128080767634 0 0 0
8280 1 10.33122107858527 6.81997476084895 -7.141767746732365 0 0 1
8281 1 10.33040746508527 9.309586051848939 -7.140806267612366 0 0 1
8282 1 8.570483977585273 8.063413716848927 6.545357815167634 0 0 0
8283 1 10.35601691858527 1.861376765848959 -4.666951844432366 0 0 0
8284 1 8.613528006085271 0.6485019568489463 -3.293559542432366 0 0 0
8285 1 8.613528006085271 0.6485019568489463 -5.781864519032366 0 0 0
8286 1 10.35601691858527 1.861376765848959 -2.178661797632365 0 0 0
8287 1 10.33354568858527 4.333096848848967 -2.169002217032365 0 0 0
8288 1 8.562735277585269 3.095870117848946 -0.9084792030323658 0 0 0
8289 1 8.562735277585269 3.095870117848946 -3.396784179632366 0 0 0
8290 1 10.33354568858527 4.333096848848967 0.319302759567635 0 0 0
8291 1 10.33122107858527 6.81997476084895 0.3231397181676341 0 0 0
8292 1 8.567461984585272 5.575293359848942 1.570838033967634 0 0 0
8293 1 8.567461984585272 5.575293359848942 -0.9174669426323652 0 0 0
8294 1 10.33122107858527 6.81997476084895 2.811429764967633 0 0 0
8295 1 10.33040746508527 9.309586051848939 2.812400201967636 0 0 0
8296 1 8.570483977585273 8.063413716848927 4.057052838567634 0 0 0
8297 1 8.570483977585273 8.063413716848927 1.568747861967635 0 0 0
8298 1 10.33040746508527 9.309586051848939 5.300690248767635 0 0 0
8299 1 10.33040746508527 11.79820338684893 5.301078423567635 0 0 0
8300 1 8.569747851085271 10.55252802984894 6.545118938367635 0 0 0
8301 1 8.569747851085271 10.55252802984894 4.056828891567635 0 0 0
8302 1 10.33040746508527 11.79820338684893 -7.140425557712366 0 0 1
8303 1 8.569127955085271 13.04089687584896 6.545253306567634 0 0 0
8304 1 8.562735277585269 3.095870117848946 -5.885074226432366 0 0 0
8305 1 10.33354568858527 4.333096848848967 -4.657307193632366 0 0 0
8306 1 10.33122107858527 6.81997476084895 -4.653470235032366 0 0 0
8307 1 8.567461984585272 5.575293359848942 -3.405771919232365 0 0 0
8308 1 8.567461984585272 5.575293359848942 -5.894061966032366 0 0 0
8309 1 10.33122107858527 6.81997476084895 -2.165165258432365 0 0 0
8310 1 10.33040746508527 9.309586051848939 -2.164209751232366 0 0 0
8311 1 8.570483977585273 8.063413716848927 -0.9195421848323653 0 0 0
8312 1 8.570483977585273 8.063413716848927 -3.407847161432366 0 0 0
8313 1 10.33040746508527 9.309586051848939 0.3240952253676346 0 0 0
8314 1 10.33040746508527 11.79820338684893 0.3244684703676342 0 0 0
8315 1 8.569747851085271 10.55252802984894 1.568523914967635 0 0 0
8316 1 8.569747851085271 10.55252802984894 -0.9197810616323654 0 0 0
8317 1 10.33040746508527 11.79820338684893 2.812773446967634 0 0 0
8318 1 8.569127955085271 13.04089687584896 4.056948329967636 0 0 0
8319 1 8.569127955085271 13.04089687584896 1.568643353367635 0 0 0
8320 1 8.570483977585273 8.063413716848927 -5.896152138032366 0 0 0
8321 1 10.33040746508527 9.309586051848939 -4.652499798032366 0 0 0
8322 1 10.33040746508527 11.79820338684893 -4.652126553032366 0 0 0
8323 1 8.569747851085271 10.55252802984894 -3.408071108432365 0 0 0
8324 1 8.569747851085271 10.55252802984894 -5.896376085032365 0 0 0
8325 1 10.33040746508527 11.79820338684893 -2.163821576432365 0 0 0
8326 1 8.569127955085271 13.04089687584896 -0.9196466934323659 0 0 0
8327 1 8.569127955085271 13.04089687584896 -3.407951670032366 0 0 0
8328 1 8.569127955085271 13.04089687584896 -5.896256646632366 0 0 0
8329 1 6.812303947585267 1.758999297848959 5.388686489967634 0 0 0
8330 1 5.008677792085269 0.5677430318489485 6.823992672567634 0 0 0
8331 1 5.008677792085269 0.5677430318489485 4.335687695967634 0 0 0
8332 1 6.812303947585267 1.758999297848959 -7.052810026412366 0 0 1
8333 1 6.80904949358527 4.305266080848966 -7.126298980952366 0 0 1
8334 1 5.066366863585269 3.067293882848958 6.581950754967634 0 0 0
8335 1 6.812303947585267 1.758999297848959 0.4120914665676345 0 0 0
8336 1 5.008677792085269 0.5677430318489485 1.847382719367634 0 0 0
8337 1 5.008677792085269 0.5677430318489485 -0.640907327432366 0 0 0
8338 1 6.812303947585267 1.758999297848959 2.900396443167635 0 0 0
8339 1 6.80904949358527 4.305266080848966 2.826897037767635 0 0 0
8340 1 5.066366863585269 3.067293882848958 4.093645778367634 0 0 0
8341 1 5.066366863585269 3.067293882848958 1.605355731567634 0 0 0
8342 1 6.80904949358527 4.305266080848966 5.315202014367634 0 0 0
8343 1 6.81234269108527 6.812520090848935 5.303437331967634 0 0 0
8344 1 5.060516595085268 5.569329623848958 6.552076225167633 0 0 0
8345 1 5.060516595085268 5.569329623848958 4.063771248567633 0 0 0
8346 1 6.81234269108527 6.812520090848935 -7.138054705472365 0 0 1
8347 1 6.810405516085268 9.305361738848958 -7.140307612292366 0 0 1
8348 1 5.052496690585269 8.059686381848948 6.546029656167635 0 0 0
8349 1 6.812303947585267 1.758999297848959 -4.564503556832365 0 0 0
8350 1 5.008677792085269 0.5677430318489485 -3.129212304032365 0 0 0
8351 1 5.008677792085269 0.5677430318489485 -5.617517280632366 0 0 0
8352 1 6.812303947585267 1.758999297848959 -2.076213510032366 0 0 0
8353 1 6.80904949358527 4.305266080848966 -2.149697985632366 0 0 0
8354 1 5.066366863585269 3.067293882848958 -0.8829492450323659 0 0 0
8355 1 5.066366863585269 3.067293882848958 -3.371254221632366 0 0 0
8356 1 6.80904949358527 4.305266080848966 0.3386069909676346 0 0 0
8357 1 6.81234269108527 6.812520090848935 0.3268423085676346 0 0 0
8358 1 5.060516595085268 5.569329623848958 1.575481201767634 0 0 0
8359 1 5.060516595085268 5.569329623848958 -0.9128237748323649 0 0 0
8360 1 6.81234269108527 6.812520090848935 2.815147285167635 0 0 0
8361 1 6.810405516085268 9.305361738848958 2.812892885367635 0 0 0
8362 1 5.052496690585269 8.059686381848948 4.057739609367635 0 0 0
8363 1 5.052496690585269 8.059686381848948 1.569434632767635 0 0 0
8364 1 6.810405516085268 9.305361738848958 5.301197861967635 0 0 0
8365 1 6.808507084585273 11.79497302984895 5.300973914967635 0 0 0
8366 1 5.048583597085269 10.54880069484896 6.545059219167634 0 0 0
8367 1 5.048583597085269 10.54880069484896 4.056754242567635 0 0 0
8368 1 6.808507084585273 11.79497302984895 -7.140519615452366 0 0 1
8369 1 5.047033857085271 13.03791500784895 6.545118938367635 0 0 0
8370 1 5.066366863585269 3.067293882848958 -5.859544268432366 0 0 0
8371 1 6.80904949358527 4.305266080848966 -4.638002962232365 0 0 0
8372 1 6.81234269108527 6.812520090848935 -4.649752714832365 0 0 0
8373 1 5.060516595085268 5.569329623848958 -3.401128751432365 0 0 0
8374 1 5.060516595085268 5.569329623848958 -5.889418798232366 0 0 0
8375 1 6.81234269108527 6.812520090848935 -2.161462668032366 0 0 0
8376 1 6.810405516085268 9.305361738848958 -2.163702138032366 0 0 0
8377 1 5.052496690585269 8.059686381848948 -0.9188703438323662 0 0 0
8378 1 5.052496690585269 8.059686381848948 -3.407160390632366 0 0 0
8379 1 6.810405516085268 9.305361738848958 0.3245879087676338 0 0 0
8380 1 6.808507084585273 11.79497302984895 0.3243788915676351 0 0 0
8381 1 5.048583597085269 10.54880069484896 1.568464195767634 0 0 0
8382 1 5.048583597085269 10.54880069484896 -0.9198407808323656 0 0 0
8383 1 6.808507084585273 11.79497302984895 2.812683868167635 0 0 0
8384 1 5.047033857085271 13.03791500784895 4.056813961767634 0 0 0
8385 1 5.047033857085271 13.03791500784895 1.568523914967635 0 0 0
8386 1 5.052496690585269 8.059686381848948 -5.895465367232365 0 0 0
8387 1 6.810405516085268 9.305361738848958 -4.652007114632366 0 0 0
8388 1 6.808507084585273 11.79497302984895 -4.652216131832366 0 0 0
8389 1 5.048583597085269 10.54880069484896 -3.408145757432366 0 0 0
8390 1 5.048583597085269 10.54880069484896 -5.896435804232366 0 0 0
8391 1 6.808507084585273 11.79497302984895 -2.163926085032365 0 0 0
8392 1 5.047033857085271 13.03791500784895 -0.9197810616323654 0 0 0
8393 1 5.047033857085271 13.03791500784895 -3.408086038232366 0 0 0
8394 1 5.047033857085271 13.03791500784895 -5.896376085032365 0 0 0
8395 1 3.288970057585271 1.833794486848959 5.383162463967635 0 0 0
8396 1 3.288970057585271 1.833794486848959 -7.058341517312366 0 0 1
8397 1 3.310240239085267 4.32489671184895 -7.129065472892366 0 0 1
8398 1 3.288970057585271 1.833794486848959 0.406552510767634 0 0 0
8399 1 3.288970057585271 1.833794486848959 2.894857487367634 0 0 0
8400 1 3.310240239085267 4.32489671184895 2.824135024767635 0 0 0
8401 1 3.310240239085267 4.32489671184895 5.312440001367634 0 0 0
8402 1 3.295091530585271 6.813514046848937 5.302631122767634 0 0 0
8403 1 3.295091530585271 6.813514046848937 -7.138868379572366 0 0 1
8404 1 3.288698853085268 9.302131381848952 -7.140707730932366 0 0 1
8405 1 3.288970057585271 1.833794486848959 -4.570042512632366 0 0 0
8406 1 3.288970057585271 1.833794486848959 -2.081737536032366 0 0 0
8407 1 3.310240239085267 4.32489671184895 -2.152459998632366 0 0 0
8408 1 3.310240239085267 4.32489671184895 0.335830048167634 0 0 0
8409 1 3.295091530585271 6.813514046848937 0.3260360993676343 0 0 0
8410 1 3.295091530585271 6.813514046848937 2.814326146167634 0 0 0
8411 1 3.288698853085268 9.302131381848952 2.812489780767635 0 0 0
8412 1 3.288698853085268 9.302131381848952 5.300794757367635 0 0 0
8413 1 3.286645447585268 11.79149418384894 5.300794757367635 0 0 0
8414 1 3.286645447585268 11.79149418384894 -7.140710716892365 0 0 1
8415 1 3.310240239085267 4.32489671184895 -4.640764975232366 0 0 0
8416 1 3.295091530585271 6.813514046848937 -4.650573853832366 0 0 0
8417 1 3.295091530585271 6.813514046848937 -2.162268877232366 0 0 0
8418 1 3.288698853085268 9.302131381848952 -2.164105242632366 0 0 0
8419 1 3.288698853085268 9.302131381848952 0.3241997339676344 0 0 0
8420 1 3.286645447585268 11.79149418384894 0.3241848041676345 0 0 0
8421 1 3.286645447585268 11.79149418384894 2.812489780767635 0 0 0
8422 1 3.288698853085268 9.302131381848952 -4.652410219232365 0 0 0
8423 1 3.286645447585268 11.79149418384894 -4.652410219232365 0 0 0
8424 1 3.286645447585268 11.79149418384894 -2.164105242632366 0 0 0
8425 1 -16.08081177261473 15.52678083184894 6.545835568767636 1 0 0
8426 1 -16.08081177261473 15.52678083184894 4.057545521967635 1 0 0
8427 1 -16.08125732286473 18.01589514484895 6.545671340967633 1 0 0
8428 1 -16.08081177261473 15.52678083184894 1.569240545367634 1 0 0
8429 1 -16.08081177261473 15.52678083184894 -0.9190644312323659 1 0 0
8430 1 -16.08125732286473 18.01589514484895 4.057366364367633 1 0 0
8431 1 -16.08125732286473 18.01589514484895 1.569076317567633 1 0 0
8432 1 -16.08173386791473 20.50476096884894 6.545596691967635 1 0 0
8433 1 -16.08173386791473 20.50476096884894 4.057291715367635 1 0 0
8434 1 -16.08219104121473 22.99387528184896 6.545551902567635 1 0 0
8435 1 -16.08081177261473 15.52678083184894 -3.407354478032365 1 0 0
8436 1 -16.08081177261473 15.52678083184894 -5.895659454632366 1 0 0
8437 1 -16.08125732286473 18.01589514484895 -0.9192286590323651 1 0 0
8438 1 -16.08125732286473 18.01589514484895 -3.407533635632365 1 0 0
8439 1 -16.08173386791473 20.50476096884894 1.568986738767634 1 0 0
8440 1 -16.08173386791473 20.50476096884894 -0.919303308032366 1 0 0
8441 1 -16.08219104121473 22.99387528184896 4.057246925967634 1 0 0
8442 1 -16.08219104121473 22.99387528184896 1.568956879167633 1 0 0
8443 1 -16.08260172231473 25.48274110584897 6.545536972767636 1 0 0
8444 1 -16.08260172231473 25.48274110584897 4.057231996167635 1 0 0
8445 1 -16.08125732286473 18.01589514484895 -5.895823682432366 1 0 0
8446 1 -16.08173386791473 20.50476096884894 -3.407608284632365 1 0 0
8447 1 -16.08173386791473 20.50476096884894 -5.895913261232366 1 0 0
8448 1 -16.08219104121473 22.99387528184896 -0.9193480974323656 1 0 0
8449 1 -16.08219104121473 22.99387528184896 -3.407653074032366 1 0 0
8450 1 -16.08260172231473 25.48274110584897 1.568927019567635 1 0 0
8451 1 -16.08260172231473 25.48274110584897 -0.9193630272323663 1 0 0
8452 1 -16.08219104121473 22.99387528184896 -5.895943120832365 1 0 0
8453 1 -16.08260172231473 25.48274110584897 -3.407668003832366 1 0 0
8454 1 -16.08260172231473 25.48274110584897 -5.895972980432366 1 0 0
8455 1 -17.84123505126473 14.28334187584896 -7.139691011552365 1 0 1
8456 1 -17.84123505126473 14.28334187584896 2.813505007167633 1 0 0
8457 1 -17.84123505126473 14.28334187584896 5.301809983767633 1 0 0
8458 1 -17.84199442386473 16.77220769984895 5.301586036767635 1 0 0
8459 1 19.14064062158527 15.52852025484894 6.545775849567635 0 0 0
8460 1 19.14064062158527 15.52852025484894 4.057470872967635 0 0 0
8461 1 -17.84199442386473 16.77220769984895 -7.139920930472366 1 0 1
8462 1 -17.84259882246473 19.26082503484896 -7.140029918012366 1 0 1
8463 1 19.13990449508527 18.01688910084896 6.545641481367635 0 0 0
8464 1 -17.84123505126473 14.28334187584896 -2.163090016232365 1 0 0
8465 1 -17.84123505126473 14.28334187584896 0.3252149603676342 1 0 0
8466 1 -17.84199442386473 16.77220769984895 0.3249760835676332 1 0 0
8467 1 19.14064062158527 15.52852025484894 1.569180826167633 0 0 0
8468 1 19.14064062158527 15.52852025484894 -0.9191241504323662 0 0 0
8469 1 -17.84199442386473 16.77220769984895 2.813281060167634 1 0 0
8470 1 -17.84259882246473 19.26082503484896 2.813176551567635 1 0 0
8471 1 19.13990449508527 18.01688910084896 4.057351434567634 0 0 0
8472 1 19.13990449508527 18.01688910084896 1.569046457967636 0 0 0
8473 1 -17.84259882246473 19.26082503484896 5.301466598367634 1 0 0
8474 1 -17.84311798536473 21.74969085884895 5.301421808967634 1 0 0
8475 1 19.13932334258527 20.50550643584897 6.545581762167634 0 0 0
8476 1 19.13932334258527 20.50550643584897 4.057276785567634 0 0 0
8477 1 -17.84311798536473 21.74969085884895 -7.140083665292366 1 0 1
8478 1 -17.84355966126473 24.23855668284897 -7.140110538932365 1 0 1
8479 1 19.13889716408527 22.99412377084896 6.545551902567635 0 0 0
8480 1 -17.84123505126473 14.28334187584896 -4.651394992832365 1 0 0
8481 1 -17.84199442386473 16.77220769984895 -4.651618939832366 1 0 0
8482 1 19.14064062158527 15.52852025484894 -3.407429127032366 0 0 0
8483 1 19.14064062158527 15.52852025484894 -5.895719173832366 0 0 0
8484 1 -17.84199442386473 16.77220769984895 -2.163313963232365 1 0 0
8485 1 -17.84259882246473 19.26082503484896 -2.163433401632365 1 0 0
8486 1 19.13990449508527 18.01688910084896 -0.9192585186323656 0 0 0
8487 1 19.13990449508527 18.01688910084896 -3.407548565432366 0 0 0
8488 1 -17.84259882246473 19.26082503484896 0.3248715749676343 1 0 0
8489 1 -17.84311798536473 21.74969085884895 0.3248118557676341 1 0 0
8490 1 19.13932334258527 20.50550643584897 1.568986738767634 0 0 0
8491 1 19.13932334258527 20.50550643584897 -0.9193182378323659 0 0 0
8492 1 -17.84311798536473 21.74969085884895 2.813116832367633 1 0 0
8493 1 -17.84355966126473 24.23855668284897 2.813086972767636 1 0 0
8494 1 19.13889716408527 22.99412377084896 4.057246925967634 0 0 0
8495 1 19.13889716408527 22.99412377084896 1.568941949367636 0 0 0
8496 1 -17.84355966126473 24.23855668284897 5.301391949367636 1 0 0
8497 1 -17.84393547321473 26.72742250684895 5.301377019567635 1 0 0
8498 1 19.13850972908527 25.48298959484895 6.545536972767636 0 0 0
8499 1 19.13850972908527 25.48298959484895 4.057231996167635 0 0 0
8500 1 -17.84393547321473 26.72742250684895 -7.140122482772366 1 0 1
8501 1 19.13990449508527 18.01688910084896 -5.895853542032365 0 0 0
8502 1 -17.84259882246473 19.26082503484896 -4.651723448432366 1 0 0
8503 1 -17.84311798536473 21.74969085884895 -4.651783167632366 1 0 0
8504 1 19.13932334258527 20.50550643584897 -3.407623214432366 0 0 0
8505 1 19.13932334258527 20.50550643584897 -5.895913261232366 0 0 0
8506 1 -17.84311798536473 21.74969085884895 -2.163478191032365 1 0 0
8507 1 -17.84355966126473 24.23855668284897 -2.163508050632366 1 0 0
8508 1 19.13889716408527 22.99412377084896 -0.9193480974323656 0 0 0
8509 1 19.13889716408527 22.99412377084896 -3.407653074032366 0 0 0
8510 1 -17.84355966126473 24.23855668284897 0.3247969259676351 1 0 0
8511 1 -17.84393547321473 26.72742250684895 0.3247819961676344 1 0 0
8512 1 19.13850972908527 25.48298959484895 1.568927019567635 0 0 0
8513 1 19.13850972908527 25.48298959484895 -0.9193630272323663 0 0 0
8514 1 -17.84393547321473 26.72742250684895 2.813072042967635 1 0 0
8515 1 19.13889716408527 22.99412377084896 -5.895958050632366 0 0 0
8516 1 -17.84355966126473 24.23855668284897 -4.651813027232365 1 0 0
8517 1 -17.84393547321473 26.72742250684895 -4.651827957032365 1 0 0
8518 1 19.13850972908527 25.48298959484895 -3.407668003832366 0 0 0
8519 1 19.13850972908527 25.48298959484895 -5.895972980432366 0 0 0
8520 1 -17.84393547321473 26.72742250684895 -2.163522980432366 1 0 0
8521 1 17.37936111158526 14.28532978784894 -7.139871662132366 0 0 1
8522 1 17.37936111158526 14.28532978784894 2.813325849567635 0 0 0
8523 1 17.37936111158526 14.28532978784894 5.301630826167633 0 0 0
8524 1 17.37866372858527 16.77320165584895 5.301511387767635 0 0 0
8525 1 15.61707427058527 15.52976269984894 6.545641481367635 0 0 0
8526 1 15.61707427058527 15.52976269984894 4.057336504767635 0 0 0
8527 1 17.37866372858527 16.77320165584895 -7.139991100532366 0 0 1
8528 1 17.37812131958527 19.26157050184894 -7.140059777612366 0 0 1
8529 1 15.61668683558527 18.01763456784896 6.545581762167634 0 0 0
8530 1 17.37936111158526 14.28532978784894 -2.163269173832366 0 0 0
8531 1 17.37936111158526 14.28532978784894 0.3250208729676345 0 0 0
8532 1 17.37866372858527 16.77320165584895 0.3249163643676338 0 0 0
8533 1 15.61707427058527 15.52976269984894 1.569031528167635 0 0 0
8534 1 15.61707427058527 15.52976269984894 -0.9192585186323656 0 0 0
8535 1 17.37866372858527 16.77320165584895 2.813206411167634 0 0 0
8536 1 17.37812131958527 19.26157050184894 2.813146691967635 0 0 0
8537 1 15.61668683558527 18.01763456784896 4.057276785567634 0 0 0
8538 1 15.61668683558527 18.01763456784896 1.568986738767634 0 0 0
8539 1 17.37812131958527 19.26157050184894 5.301436738767634 0 0 0
8540 1 17.37769514108527 21.74993934784895 5.301406879167633 0 0 0
8541 1 15.61633814408527 20.50600341384894 6.545551902567635 0 0 0
8542 1 15.61633814408527 20.50600341384894 4.057246925967634 0 0 0
8543 1 17.37769514108527 21.74993934784895 -7.140097102112366 0 0 1
8544 1 17.37734644958527 24.23855668284897 -7.140116510852366 0 0 1
8545 1 15.61606693958527 22.99437225984893 6.545536972767636 0 0 0
8546 1 17.37936111158526 14.28532978784894 -4.651574150432365 0 0 0
8547 1 17.37866372858527 16.77320165584895 -4.651693588832366 0 0 0
8548 1 15.61707427058527 15.52976269984894 -3.407563495232366 0 0 0
8549 1 15.61707427058527 15.52976269984894 -5.895868471832365 0 0 0
8550 1 17.37866372858527 16.77320165584895 -2.163388612232366 0 0 0
8551 1 17.37812131958527 19.26157050184894 -2.163463261232366 0 0 0
8552 1 15.61668683558527 18.01763456784896 -0.9193182378323659 0 0 0
8553 1 15.61668683558527 18.01763456784896 -3.407623214432366 0 0 0
8554 1 17.37812131958527 19.26157050184894 0.3248417153676346 0 0 0
8555 1 17.37769514108527 21.74993934784895 0.3247969259676351 0 0 0
8556 1 15.61633814408527 20.50600341384894 1.568956879167633 0 0 0
8557 1 15.61633814408527 20.50600341384894 -0.9193480974323656 0 0 0
8558 1 17.37769514108527 21.74993934784895 2.813101902567634 0 0 0
8559 1 17.37734644958527 24.23855668284897 2.813086972767636 0 0 0
8560 1 15.61606693958527 22.99437225984893 4.057231996167635 0 0 0
8561 1 15.61606693958527 22.99437225984893 1.568927019567635 0 0 0
8562 1 17.37734644958527 24.23855668284897 5.301377019567635 0 0 0
8563 1 17.37707524508527 26.72742250684895 5.301377019567635 0 0 0
8564 1 15.61583447858527 25.48298959484895 6.545522042967635 0 0 0
8565 1 15.61583447858527 25.48298959484895 4.057217066367635 0 0 0
8566 1 17.37707524508527 26.72742250684895 -7.140126961712365 0 0 1
8567 1 15.61668683558527 18.01763456784896 -5.895913261232366 0 0 0
8568 1 17.37812131958527 19.26157050184894 -4.651753308032365 0 0 0
8569 1 17.37769514108527 21.74993934784895 -4.651798097432366 0 0 0
8570 1 15.61633814408527 20.50600341384894 -3.407653074032366 0 0 0
8571 1 15.61633814408527 20.50600341384894 -5.895943120832365 0 0 0
8572 1 17.37769514108527 21.74993934784895 -2.163493120832365 0 0 0
8573 1 17.37734644958527 24.23855668284897 -2.163522980432366 0 0 0
8574 1 15.61606693958527 22.99437225984893 -0.9193630272323663 0 0 0
8575 1 15.61606693958527 22.99437225984893 -3.407668003832366 0 0 0
8576 1 17.37734644958527 24.23855668284897 0.3247819961676344 0 0 0
8577 1 17.37707524508527 26.72742250684895 0.3247670663676345 0 0 0
8578 1 15.61583447858527 25.48298959484895 1.568927019567635 0 0 0
8579 1 15.61583447858527 25.48298959484895 -0.9193779570323652 0 0 0
8580 1 17.37707524508527 26.72742250684895 2.813072042967635 0 0 0
8581 1 15.61606693958527 22.99437225984893 -5.895972980432366 0 0 0
8582 1 17.37734644958527 24.23855668284897 -4.651813027232365 0 0 0
8583 1 17.37707524508527 26.72742250684895 -4.651827957032365 0 0 0
8584 1 15.61583447858527 25.48298959484895 -3.407682933632366 0 0 0
8585 1 15.61583447858527 25.48298959484895 -5.895972980432366 0 0 0
8586 1 17.37707524508527 26.72742250684895 -2.163522980432366 0 0 0
8587 1 13.85486491658527 14.28632374384894 -7.140094116152365 0 0 1
8588 1 13.85486491658527 14.28632374384894 2.813101902567634 0 0 0
8589 1 13.85486491658527 14.28632374384894 5.301406879167633 0 0 0
8590 1 13.85490366008527 16.77394712284895 5.301406879167633 0 0 0
8591 1 12.09281053658527 15.53001118884897 6.545492183367633 0 0 0
8592 1 12.09281053658527 15.53001118884897 4.057187206767635 0 0 0
8593 1 13.85490366008527 16.77394712284895 -7.140097102112366 0 0 1
8594 1 13.85478742958527 19.26181899084897 -7.140112031912365 0 0 1
8595 1 12.09296551058527 18.01788305684896 6.545507113167634 0 0 0
8596 1 13.85486491658527 14.28632374384894 -2.163493120832365 0 0 0
8597 1 13.85486491658527 14.28632374384894 0.3248118557676341 0 0 0
8598 1 13.85490366008527 16.77394712284895 0.3247969259676351 0 0 0
8599 1 12.09281053658527 15.53001118884897 1.568882230167635 0 0 0
8600 1 12.09281053658527 15.53001118884897 -0.9194078166323658 0 0 0
8601 1 13.85490366008527 16.77394712284895 2.813101902567634 0 0 0
8602 1 13.85478742958527 19.26181899084897 2.813086972767636 0 0 0
8603 1 12.09296551058527 18.01788305684896 4.057202136567634 0 0 0
8604 1 12.09296551058527 18.01788305684896 1.568912089767634 0 0 0
8605 1 13.85478742958527 19.26181899084897 5.301391949367636 0 0 0
8606 1 13.85463245558527 21.75018783684895 5.301377019567635 0 0 0
8607 1 12.09300425408527 20.50600341384894 6.545507113167634 0 0 0
8608 1 12.09300425408527 20.50600341384894 4.057217066367635 0 0 0
8609 1 13.85463245558527 21.75018783684895 -7.140122482772366 0 0 1
8610 1 13.85447748158527 24.23855668284897 -7.140129947672365 0 0 1
8611 1 12.09300425408527 22.99437225984893 6.545507113167634 0 0 0
8612 1 13.85486491658527 14.28632374384894 -4.651798097432366 0 0 0
8613 1 13.85490366008527 16.77394712284895 -4.651798097432366 0 0 0
8614 1 12.09281053658527 15.53001118884897 -3.407712793232366 0 0 0
8615 1 12.09281053658527 15.53001118884897 -5.896017769832365 0 0 0
8616 1 13.85490366008527 16.77394712284895 -2.163493120832365 0 0 0
8617 1 13.85478742958527 19.26181899084897 -2.163508050632366 0 0 0
8618 1 12.09296551058527 18.01788305684896 -0.919392886832366 0 0 0
8619 1 12.09296551058527 18.01788305684896 -3.407697863432365 0 0 0
8620 1 13.85478742958527 19.26181899084897 0.3247819961676344 0 0 0
8621 1 13.85463245558527 21.75018783684895 0.3247819961676344 0 0 0
8622 1 12.09300425408527 20.50600341384894 1.568912089767634 0 0 0
8623 1 12.09300425408527 20.50600341384894 -0.919392886832366 0 0 0
8624 1 13.85463245558527 21.75018783684895 2.813072042967635 0 0 0
8625 1 13.85447748158527 24.23855668284897 2.813072042967635 0 0 0
8626 1 12.09300425408527 22.99437225984893 4.057217066367635 0 0 0
8627 1 12.09300425408527 22.99437225984893 1.568912089767634 0 0 0
8628 1 13.85447748158527 24.23855668284897 5.301377019567635 0 0 0
8629 1 13.85439999458527 26.72742250684895 5.301362089767634 0 0 0
8630 1 12.09300425408527 25.48298959484895 6.545507113167634 0 0 0
8631 1 12.09300425408527 25.48298959484895 4.057217066367635 0 0 0
8632 1 13.85439999458527 26.72742250684895 -7.140132933632366 0 0 1
8633 1 12.09296551058527 18.01788305684896 -5.895987910232366 0 0 0
8634 1 13.85478742958527 19.26181899084897 -4.651813027232365 0 0 0
8635 1 13.85463245558527 21.75018783684895 -4.651827957032365 0 0 0
8636 1 12.09300425408527 20.50600341384894 -3.407682933632366 0 0 0
8637 1 12.09300425408527 20.50600341384894 -5.895987910232366 0 0 0
8638 1 13.85463245558527 21.75018783684895 -2.163522980432366 0 0 0
8639 1 13.85447748158527 24.23855668284897 -2.163522980432366 0 0 0
8640 1 12.09300425408527 22.99437225984893 -0.919392886832366 0 0 0
8641 1 12.09300425408527 22.99437225984893 -3.407682933632366 0 0 0
8642 1 13.85447748158527 24.23855668284897 0.3247670663676345 0 0 0
8643 1 13.85439999458527 26.72742250684895 0.3247670663676345 0 0 0
8644 1 12.09300425408527 25.48298959484895 1.568912089767634 0 0 0
8645 1 12.09300425408527 25.48298959484895 -0.919392886832366 0 0 0
8646 1 13.85439999458527 26.72742250684895 2.813072042967635 0 0 0
8647 1 12.09300425408527 22.99437225984893 -5.895987910232366 0 0 0
8648 1 13.85447748158527 24.23855668284897 -4.651827957032365 0 0 0
8649 1 13.85439999458527 26.72742250684895 -4.651827957032365 0 0 0
8650 1 12.09300425408527 25.48298959484895 -3.407682933632366 0 0 0
8651 1 12.09300425408527 25.48298959484895 -5.895987910232366 0 0 0
8652 1 13.85439999458527 26.72742250684895 -2.163537910232366 0 0 0
8653 1 10.33071741308527 14.28582676584897 -7.140270287792366 0 0 1
8654 1 10.33071741308527 14.28582676584897 2.812922744967635 0 0 0
8655 1 10.33071741308527 14.28582676584897 5.301227721567633 0 0 0
8656 1 10.33098861758527 16.77369863384895 5.301302370567635 0 0 0
8657 1 8.569166698585267 15.52901723284897 6.545357815167634 0 0 0
8658 1 8.569166698585267 15.52901723284897 4.057067768367634 0 0 0
8659 1 10.33098861758527 16.77369863384895 -7.140201610712365 0 0 1
8660 1 10.33122107858527 19.26157050184894 -7.140168765152366 0 0 1
8661 1 8.569437903085273 18.01713758984896 6.545432464167636 0 0 0
8662 1 10.33071741308527 14.28582676584897 -2.163672278432366 0 0 0
8663 1 10.33071741308527 14.28582676584897 0.3246326981676333 0 0 0
8664 1 10.33098861758527 16.77369863384895 0.3246924173676335 0 0 0
8665 1 8.569166698585267 15.52901723284897 1.568762791767634 0 0 0
8666 1 8.569166698585267 15.52901723284897 -0.9195421848323653 0 0 0
8667 1 10.33098861758527 16.77369863384895 2.812997393967635 0 0 0
8668 1 10.33122107858527 19.26157050184894 2.813027253567634 0 0 0
8669 1 8.569437903085273 18.01713758984896 4.057127487567636 0 0 0
8670 1 8.569437903085273 18.01713758984896 1.568837440767634 0 0 0
8671 1 10.33122107858527 19.26157050184894 5.301332230167635 0 0 0
8672 1 10.33141479608527 21.74993934784895 5.301347159967634 0 0 0
8673 1 8.569709107585272 20.50550643584897 6.545477253567634 0 0 0
8674 1 8.569709107585272 20.50550643584897 4.057172276967634 0 0 0
8675 1 10.33141479608527 21.74993934784895 -7.140152342372366 0 0 1
8676 1 10.33153102658527 24.23855668284897 -7.140144877472366 0 0 1
8677 1 8.569980312085271 22.99412377084896 6.545492183367633 0 0 0
8678 1 10.33071741308527 14.28582676584897 -4.651977255032365 0 0 0
8679 1 10.33098861758527 16.77369863384895 -4.651902606032365 0 0 0
8680 1 8.569166698585267 15.52901723284897 -3.407832231632366 0 0 0
8681 1 8.569166698585267 15.52901723284897 -5.896137208232366 0 0 0
8682 1 10.33098861758527 16.77369863384895 -2.163597629432366 0 0 0
8683 1 10.33122107858527 19.26157050184894 -2.163567769832366 0 0 0
8684 1 8.569437903085273 18.01713758984896 -0.9194675358323661 0 0 0
8685 1 8.569437903085273 18.01713758984896 -3.407772512432366 0 0 0
8686 1 10.33122107858527 19.26157050184894 0.3247372067676348 0 0 0
8687 1 10.33141479608527 21.74993934784895 0.3247521365676338 0 0 0
8688 1 8.569709107585272 20.50550643584897 1.568867300367634 0 0 0
8689 1 8.569709107585272 20.50550643584897 -0.9194227464323657 0 0 0
8690 1 10.33141479608527 21.74993934784895 2.813042183367633 0 0 0
8691 1 10.33153102658527 24.23855668284897 2.813057113167634 0 0 0
8692 1 8.569980312085271 22.99412377084896 4.057187206767635 0 0 0
8693 1 8.569980312085271 22.99412377084896 1.568897159967634 0 0 0
8694 1 10.33153102658527 24.23855668284897 5.301362089767634 0 0 0
8695 1 10.33164725708527 26.72717401784895 5.301362089767634 0 0 0
8696 1 8.570212773085267 25.48274110584897 6.545507113167634 0 0 0
8697 1 8.570212773085267 25.48274110584897 4.057202136567634 0 0 0
8698 1 10.33164725708527 26.72717401784895 -7.140140398532366 0 0 1
8699 1 8.569437903085273 18.01713758984896 -5.896062559232366 0 0 0
8700 1 10.33122107858527 19.26157050184894 -4.651872746432366 0 0 0
8701 1 10.33141479608527 21.74993934784895 -4.651857816632366 0 0 0
8702 1 8.569709107585272 20.50550643584897 -3.407727723032365 0 0 0
8703 1 8.569709107585272 20.50550643584897 -5.896032699632366 0 0 0
8704 1 10.33141479608527 21.74993934784895 -2.163552840032366 0 0 0
8705 1 10.33153102658527 24.23855668284897 -2.163537910232366 0 0 0
8706 1 8.569980312085271 22.99412377084896 -0.9194078166323658 0 0 0
8707 1 8.569980312085271 22.99412377084896 -3.407712793232366 0 0 0
8708 1 10.33153102658527 24.23855668284897 0.3247521365676338 0 0 0
8709 1 10.33164725708527 26.72717401784895 0.3247521365676338 0 0 0
8710 1 8.570212773085267 25.48274110584897 1.568897159967634 0 0 0
8711 1 8.570212773085267 25.48274110584897 -0.919392886832366 0 0 0
8712 1 10.33164725708527 26.72717401784895 2.813057113167634 0 0 0
8713 1 8.569980312085271 22.99412377084896 -5.896002840032366 0 0 0
8714 1 10.33153102658527 24.23855668284897 -4.651842886832366 0 0 0
8715 1 10.33164725708527 26.72717401784895 -4.651842886832366 0 0 0
8716 1 8.570212773085267 25.48274110584897 -3.407697863432365 0 0 0
8717 1 8.570212773085267 25.48274110584897 -5.896002840032366 0 0 0
8718 1 10.33164725708527 26.72717401784895 -2.163537910232366 0 0 0
8719 1 6.807770958085271 14.28383885384896 -7.140397191092366 0 0 1
8720 1 6.807770958085271 14.28383885384896 2.812803306567634 0 0 0
8721 1 6.807770958085271 14.28383885384896 5.301108283167634 0 0 0
8722 1 6.807809701585267 16.77220769984895 5.301212791767634 0 0 0
8723 1 5.046568935085272 15.52702932084897 6.545283166167634 0 0 0
8724 1 5.046568935085272 15.52702932084897 4.056978189567634 0 0 0
8725 1 6.807809701585267 16.77220769984895 -7.140283724612366 0 0 1
8726 1 6.808080906085273 19.26082503484896 -7.140213554552366 0 0 1
8727 1 5.046646422085271 18.01589514484895 6.545387674767634 0 0 0
8728 1 6.807770958085271 14.28383885384896 -2.163791716832366 0 0 0
8729 1 6.807770958085271 14.28383885384896 0.3244983299676347 0 0 0
8730 1 6.807809701585267 16.77220769984895 0.3246177683676352 0 0 0
8731 1 5.046568935085272 15.52702932084897 1.568673212967633 0 0 0
8732 1 5.046568935085272 15.52702932084897 -0.9196168338323663 0 0 0
8733 1 6.807809701585267 16.77220769984895 2.812922744967635 0 0 0
8734 1 6.808080906085273 19.26082503484896 2.812982464167636 0 0 0
8735 1 5.046646422085271 18.01589514484895 4.057082698167633 0 0 0
8736 1 5.046646422085271 18.01589514484895 1.568777721567633 0 0 0
8737 1 6.808080906085273 19.26082503484896 5.301287440767634 0 0 0
8738 1 6.80842959758527 21.74944236984895 5.301317300367634 0 0 0
8739 1 5.04691762658527 20.50476096884894 6.545447393967635 0 0 0
8740 1 5.04691762658527 20.50476096884894 4.057142417367634 0 0 0
8741 1 6.80842959758527 21.74944236984895 -7.140176230052366 0 0 1
8742 1 6.808739545585269 24.23830819384897 -7.140156821312366 0 0 1
8743 1 5.04730506158527 22.99362679284896 6.545477253567634 0 0 0
8744 1 6.807770958085271 14.28383885384896 -4.652096693432366 0 0 0
8745 1 6.807809701585267 16.77220769984895 -4.651977255032365 0 0 0
8746 1 5.046568935085272 15.52702932084897 -3.407921810432366 0 0 0
8747 1 5.046568935085272 15.52702932084897 -5.896226787032366 0 0 0
8748 1 6.807809701585267 16.77220769984895 -2.163687208232366 0 0 0
8749 1 6.808080906085273 19.26082503484896 -2.163612559232366 0 0 0
8750 1 5.046646422085271 18.01589514484895 -0.9195123252323656 0 0 0
8751 1 5.046646422085271 18.01589514484895 -3.407817301832366 0 0 0
8752 1 6.808080906085273 19.26082503484896 0.3246924173676335 0 0 0
8753 1 6.80842959758527 21.74944236984895 0.324722276967635 0 0 0
8754 1 5.04691762658527 20.50476096884894 1.568852370567635 0 0 0
8755 1 5.04691762658527 20.50476096884894 -0.9194526060323653 0 0 0
8756 1 6.80842959758527 21.74944236984895 2.813027253567634 0 0 0
8757 1 6.808739545585269 24.23830819384897 2.813042183367633 0 0 0
8758 1 5.04730506158527 22.99362679284896 4.057172276967634 0 0 0
8759 1 5.04730506158527 22.99362679284896 1.568882230167635 0 0 0
8760 1 6.808739545585269 24.23830819384897 5.301347159967634 0 0 0
8761 1 6.80904949358527 26.72717401784895 5.301347159967634 0 0 0
8762 1 5.04769249658527 25.48249261684894 6.545492183367633 0 0 0
8763 1 5.04769249658527 25.48249261684894 4.057202136567634 0 0 0
8764 1 6.80904949358527 26.72717401784895 -7.140146370452365 0 0 1
8765 1 5.046646422085271 18.01589514484895 -5.896122278432365 0 0 0
8766 1 6.808080906085273 19.26082503484896 -4.651917535832366 0 0 0
8767 1 6.80842959758527 21.74944236984895 -4.651872746432366 0 0 0
8768 1 5.04691762658527 20.50476096884894 -3.407757582632366 0 0 0
8769 1 5.04691762658527 20.50476096884894 -5.896047629432366 0 0 0
8770 1 6.80842959758527 21.74944236984895 -2.163582699632365 0 0 0
8771 1 6.808739545585269 24.23830819384897 -2.163552840032366 0 0 0
8772 1 5.04730506158527 22.99362679284896 -0.9194227464323657 0 0 0
8773 1 5.04730506158527 22.99362679284896 -3.407727723032365 0 0 0
8774 1 6.808739545585269 24.23830819384897 0.3247372067676348 0 0 0
8775 1 6.80904949358527 26.72717401784895 0.3247521365676338 0 0 0
8776 1 5.04769249658527 25.48249261684894 1.568897159967634 0 0 0
8777 1 5.04769249658527 25.48249261684894 -0.9194078166323658 0 0 0
8778 1 6.80904949358527 26.72717401784895 2.813057113167634 0 0 0
8779 1 5.04730506158527 22.99362679284896 -5.896017769832365 0 0 0
8780 1 6.808739545585269 24.23830819384897 -4.651857816632366 0 0 0
8781 1 6.80904949358527 26.72717401784895 -4.651842886832366 0 0 0
8782 1 5.04769249658527 25.48249261684894 -3.407697863432365 0 0 0
8783 1 5.04769249658527 25.48249261684894 -5.896002840032366 0 0 0
8784 1 6.80904949358527 26.72717401784895 -2.163552840032366 0 0 0
8785 1 3.285793090585273 14.28110547484893 -7.140492741812365 0 0 1
8786 1 3.285793090585273 14.28110547484893 2.812713727767633 0 0 0
8787 1 3.285793090585273 14.28110547484893 5.301003774567635 0 0 0
8788 1 3.28552188608527 16.77046827684894 5.301168002367636 0 0 0
8789 1 3.28552188608527 16.77046827684894 -7.140331499972365 0 0 1
8790 1 3.285638116585272 19.25958258984893 -7.140238935212365 0 0 1
8791 1 3.285793090585273 14.28110547484893 -2.163896225432365 0 0 0
8792 1 3.285793090585273 14.28110547484893 0.3244087511676339 0 0 0
8793 1 3.28552188608527 16.77046827684894 0.3245729789676339 0 0 0
8794 1 3.28552188608527 16.77046827684894 2.812863025767635 0 0 0
8795 1 3.285638116585272 19.25958258984893 2.812967534367635 0 0 0
8796 1 3.285638116585272 19.25958258984893 5.301257581167635 0 0 0
8797 1 3.28594806458527 21.74869690284895 5.301317300367634 0 0 0
8798 1 3.28594806458527 21.74869690284895 -7.140188173892366 0 0 1
8799 1 3.28633549958527 24.23781121584894 -7.140162793232366 0 0 1
8800 1 3.285793090585273 14.28110547484893 -4.652186272232365 0 0 0
8801 1 3.28552188608527 16.77046827684894 -4.652036974232366 0 0 0
8802 1 3.28552188608527 16.77046827684894 -2.163731997632365 0 0 0
8803 1 3.285638116585272 19.25958258984893 -2.163642418832366 0 0 0
8804 1 3.285638116585272 19.25958258984893 0.3246625577676348 0 0 0
8805 1 3.28594806458527 21.74869690284895 0.3247073471676343 0 0 0
8806 1 3.28594806458527 21.74869690284895 2.813012323767634 0 0 0
8807 1 3.28633549958527 24.23781121584894 2.813042183367633 0 0 0
8808 1 3.28633549958527 24.23781121584894 5.301332230167635 0 0 0
8809 1 3.28676167808527 26.72692552884895 5.301347159967634 0 0 0
8810 1 3.28676167808527 26.72692552884895 -7.140149356412365 0 0 1
8811 1 3.285638116585272 19.25958258984893 -4.651932465632366 0 0 0
8812 1 3.28594806458527 21.74869690284895 -4.651887676232366 0 0 0
8813 1 3.28594806458527 21.74869690284895 -2.163582699632365 0 0 0
8814 1 3.28633549958527 24.23781121584894 -2.163567769832366 0 0 0
8815 1 3.28633549958527 24.23781121584894 0.3247372067676348 0 0 0
8816 1 3.28676167808527 26.72692552884895 0.3247521365676338 0 0 0
8817 1 3.28676167808527 26.72692552884895 2.813057113167634 0 0 0
8818 1 3.28633549958527 24.23781121584894 -4.651857816632366 0 0 0
8819 1 3.28676167808527 26.72692552884895 -4.651842886832366 0 0 0
8820 1 3.28676167808527 26.72692552884895 -2.163552840032366 0 0 0
8821 1 -16.08295428816473 27.97185541884896 6.545522042967635 1 0 0
8822 1 -16.08295428816473 27.97185541884896 4.057217066367635 1 0 0
8823 1 -16.08295428816473 27.97185541884896 1.568927019567635 1 0 0
8824 1 -16.08324099006473 30.46072124284895 6.545522042967635 1 0 0
8825 1 -16.08324099006473 30.46072124284895 4.057217066367635 1 0 0
8826 1 -16.08345795366473 32.94983555584894 6.545522042967635 1 0 0
8827 1 -16.08295428816473 27.97185541884896 -0.9193779570323652 1 0 0
8828 1 -16.08295428816473 27.97185541884896 -3.407682933632366 1 0 0
8829 1 -16.08324099006473 30.46072124284895 1.568912089767634 1 0 0
8830 1 -16.08324099006473 30.46072124284895 -0.9193779570323652 1 0 0
8831 1 -16.08345795366473 32.94983555584894 4.057217066367635 1 0 0
8832 1 -16.08345795366473 32.94983555584894 1.568912089767634 1 0 0
8833 1 -16.08362067636473 35.43894986884895 6.545522042967635 1 0 0
8834 1 -16.08362067636473 35.43894986884895 4.057217066367635 1 0 0
8835 1 -16.08372915816473 37.92781569284897 6.545507113167634 1 0 0
8836 1 -16.08295428816473 27.97185541884896 -5.895972980432366 1 0 0
8837 1 -16.08324099006473 30.46072124284895 -3.407682933632366 1 0 0
8838 1 -16.08324099006473 30.46072124284895 -5.895987910232366 1 0 0
8839 1 -16.08345795366473 32.94983555584894 -0.9193779570323652 1 0 0
8840 1 -16.08345795366473 32.94983555584894 -3.407682933632366 1 0 0
8841 1 -16.08362067636473 35.43894986884895 1.568912089767634 1 0 0
8842 1 -16.08362067636473 35.43894986884895 -0.9193779570323652 1 0 0
8843 1 -16.08372915816473 37.92781569284897 4.057217066367635 1 0 0
8844 1 -16.08372915816473 37.92781569284897 1.568912089767634 1 0 0
8845 1 -16.08379889646473 40.41693000584895 6.545507113167634 1 0 0
8846 1 -16.08379889646473 40.41693000584895 4.057217066367635 1 0 0
8847 1 -16.08345795366473 32.94983555584894 -5.895987910232366 1 0 0
8848 1 -16.08362067636473 35.43894986884895 -3.407682933632366 1 0 0
8849 1 -16.08362067636473 35.43894986884895 -5.895987910232366 1 0 0
8850 1 -16.08372915816473 37.92781569284897 -0.919392886832366 1 0 0
8851 1 -16.08372915816473 37.92781569284897 -3.407682933632366 1 0 0
8852 1 -16.08379889646473 40.41693000584895 1.568912089767634 1 0 0
8853 1 -16.08379889646473 40.41693000584895 -0.919392886832366 1 0 0
8854 1 -16.08372915816473 37.92781569284897 -5.895987910232366 1 0 0
8855 1 -16.08379889646473 40.41693000584895 -3.407682933632366 1 0 0
8856 1 -16.08379889646473 40.41693000584895 -5.895987910232366 1 0 0
8857 1 -17.84423767251473 29.21628833084894 -7.140129947672365 1 0 1
8858 1 19.13819978108527 27.97185541884896 6.545522042967635 0 0 0
8859 1 -17.84423767251473 29.21628833084894 2.813072042967635 1 0 0
8860 1 19.13819978108527 27.97185541884896 4.057217066367635 0 0 0
8861 1 19.13819978108527 27.97185541884896 1.568927019567635 0 0 0
8862 1 -17.84423767251473 29.21628833084894 5.301377019567635 1 0 0
8863 1 -17.84447400786473 31.70515415484896 5.301362089767634 1 0 0
8864 1 19.13796732008527 30.46072124284895 6.545522042967635 0 0 0
8865 1 19.13796732008527 30.46072124284895 4.057217066367635 0 0 0
8866 1 -17.84447400786473 31.70515415484896 -7.140132933632366 1 0 1
8867 1 -17.84464835361473 34.19426846784894 -7.140134426612366 1 0 1
8868 1 19.13781234608527 32.94983555584894 6.545522042967635 0 0 0
8869 1 -17.84423767251473 29.21628833084894 -2.163522980432366 1 0 0
8870 1 19.13819978108527 27.97185541884896 -0.9193779570323652 0 0 0
8871 1 19.13819978108527 27.97185541884896 -3.407682933632366 0 0 0
8872 1 -17.84423767251473 29.21628833084894 0.3247670663676345 1 0 0
8873 1 -17.84447400786473 31.70515415484896 0.3247670663676345 1 0 0
8874 1 19.13796732008527 30.46072124284895 1.568912089767634 0 0 0
8875 1 19.13796732008527 30.46072124284895 -0.9193779570323652 0 0 0
8876 1 -17.84447400786473 31.70515415484896 2.813072042967635 1 0 0
8877 1 -17.84464835361473 34.19426846784894 2.813072042967635 1 0 0
8878 1 19.13781234608527 32.94983555584894 4.057217066367635 0 0 0
8879 1 19.13781234608527 32.94983555584894 1.568912089767634 0 0 0
8880 1 -17.84464835361473 34.19426846784894 5.301362089767634 1 0 0
8881 1 -17.84477233281473 36.68338278084896 5.301362089767634 1 0 0
8882 1 19.13765737208527 35.43870137984895 6.545522042967635 0 0 0
8883 1 19.13765737208527 35.43870137984895 4.057217066367635 0 0 0
8884 1 -17.84477233281473 36.68338278084896 -7.140135919592366 1 0 1
8885 1 -17.84485369416473 39.17224860484897 -7.140135919592366 1 0 1
8886 1 19.13757988508527 37.92781569284897 6.545507113167634 0 0 0
8887 1 19.13819978108527 27.97185541884896 -5.895972980432366 0 0 0
8888 1 -17.84423767251473 29.21628833084894 -4.651827957032365 1 0 0
8889 1 -17.84447400786473 31.70515415484896 -4.651827957032365 1 0 0
8890 1 19.13796732008527 30.46072124284895 -3.407682933632366 0 0 0
8891 1 19.13796732008527 30.46072124284895 -5.895987910232366 0 0 0
8892 1 -17.84447400786473 31.70515415484896 -2.163537910232366 1 0 0
8893 1 -17.84464835361473 34.19426846784894 -2.163537910232366 1 0 0
8894 1 19.13781234608527 32.94983555584894 -0.9193779570323652 0 0 0
8895 1 19.13781234608527 32.94983555584894 -3.407682933632366 0 0 0
8896 1 -17.84464835361473 34.19426846784894 0.3247670663676345 1 0 0
8897 1 -17.84477233281473 36.68338278084896 0.3247670663676345 1 0 0
8898 1 19.13765737208527 35.43870137984895 1.568912089767634 0 0 0
8899 1 19.13765737208527 35.43870137984895 -0.9193779570323652 0 0 0
8900 1 -17.84477233281473 36.68338278084896 2.813057113167634 1 0 0
8901 1 -17.84485369416473 39.17224860484897 2.813057113167634 1 0 0
8902 1 19.13757988508527 37.92781569284897 4.057217066367635 0 0 0
8903 1 19.13757988508527 37.92781569284897 1.568912089767634 0 0 0
8904 1 -17.84485369416473 39.17224860484897 5.301362089767634 1 0 0
8905 1 19.13754114158527 40.41693000584895 6.545507113167634 0 0 0
8906 1 19.13754114158527 40.41693000584895 4.057217066367635 0 0 0
8907 1 19.13781234608527 32.94983555584894 -5.895987910232366 0 0 0
8908 1 -17.84464835361473 34.19426846784894 -4.651827957032365 1 0 0
8909 1 -17.84477233281473 36.68338278084896 -4.651842886832366 1 0 0
8910 1 19.13765737208527 35.43870137984895 -3.407682933632366 0 0 0
8911 1 19.13765737208527 35.43870137984895 -5.895987910232366 0 0 0
8912 1 -17.84477233281473 36.68338278084896 -2.163537910232366 1 0 0
8913 1 -17.84485369416473 39.17224860484897 -2.163537910232366 1 0 0
8914 1 19.13757988508527 37.92781569284897 -0.919392886832366 0 0 0
8915 1 19.13757988508527 37.92781569284897 -3.407682933632366 0 0 0
8916 1 -17.84485369416473 39.17224860484897 0.3247670663676345 1 0 0
8917 1 19.13754114158527 40.41693000584895 1.568912089767634 0 0 0
8918 1 19.13754114158527 40.41693000584895 -0.919392886832366 0 0 0
8919 1 19.13757988508527 37.92781569284897 -5.895987910232366 0 0 0
8920 1 -17.84485369416473 39.17224860484897 -4.651842886832366 1 0 0
8921 1 19.13754114158527 40.41693000584895 -3.407682933632366 0 0 0
8922 1 19.13754114158527 40.41693000584895 -5.895987910232366 0 0 0
8923 1 17.37684278408527 29.21628833084894 -7.140131440652365 0 0 1
8924 1 15.61567950458527 27.97185541884896 6.545522042967635 0 0 0
8925 1 17.37684278408527 29.21628833084894 2.813072042967635 0 0 0
8926 1 15.61567950458527 27.97185541884896 4.057217066367635 0 0 0
8927 1 15.61567950458527 27.97185541884896 1.568912089767634 0 0 0
8928 1 17.37684278408527 29.21628833084894 5.301362089767634 0 0 0
8929 1 17.37668781008527 31.70515415484896 5.301362089767634 0 0 0
8930 1 15.61556327408527 30.46072124284895 6.545522042967635 0 0 0
8931 1 15.61556327408527 30.46072124284895 4.057217066367635 0 0 0
8932 1 17.37668781008527 31.70515415484896 -7.140134426612366 0 0 1
8933 1 17.37657157958527 34.19426846784894 -7.140134426612366 0 0 1
8934 1 15.61544704358527 32.94958706684896 6.545522042967635 0 0 0
8935 1 17.37684278408527 29.21628833084894 -2.163537910232366 0 0 0
8936 1 15.61567950458527 27.97185541884896 -0.9193779570323652 0 0 0
8937 1 15.61567950458527 27.97185541884896 -3.407682933632366 0 0 0
8938 1 17.37684278408527 29.21628833084894 0.3247670663676345 0 0 0
8939 1 17.37668781008527 31.70515415484896 0.3247670663676345 0 0 0
8940 1 15.61556327408527 30.46072124284895 1.568912089767634 0 0 0
8941 1 15.61556327408527 30.46072124284895 -0.9193779570323652 0 0 0
8942 1 17.37668781008527 31.70515415484896 2.813072042967635 0 0 0
8943 1 17.37657157958527 34.19426846784894 2.813072042967635 0 0 0
8944 1 15.61544704358527 32.94958706684896 4.057217066367635 0 0 0
8945 1 15.61544704358527 32.94958706684896 1.568912089767634 0 0 0
8946 1 17.37657157958527 34.19426846784894 5.301362089767634 0 0 0
8947 1 17.37649409258527 36.68313429184896 5.301362089767634 0 0 0
8948 1 15.61540830008527 35.43870137984895 6.545507113167634 0 0 0
8949 1 15.61540830008527 35.43870137984895 4.057217066367635 0 0 0
8950 1 17.37649409258527 36.68313429184896 -7.140135919592366 0 0 1
8951 1 17.37645534908527 39.17224860484897 -7.140135919592366 0 0 1
8952 1 15.61536955658527 37.92781569284897 6.545507113167634 0 0 0
8953 1 15.61567950458527 27.97185541884896 -5.895987910232366 0 0 0
8954 1 17.37684278408527 29.21628833084894 -4.651827957032365 0 0 0
8955 1 17.37668781008527 31.70515415484896 -4.651827957032365 0 0 0
8956 1 15.61556327408527 30.46072124284895 -3.407682933632366 0 0 0
8957 1 15.61556327408527 30.46072124284895 -5.895987910232366 0 0 0
8958 1 17.37668781008527 31.70515415484896 -2.163537910232366 0 0 0
8959 1 17.37657157958527 34.19426846784894 -2.163537910232366 0 0 0
8960 1 15.61544704358527 32.94958706684896 -0.9193779570323652 0 0 0
8961 1 15.61544704358527 32.94958706684896 -3.407682933632366 0 0 0
8962 1 17.37657157958527 34.19426846784894 0.3247670663676345 0 0 0
8963 1 17.37649409258527 36.68313429184896 0.3247670663676345 0 0 0
8964 1 15.61540830008527 35.43870137984895 1.568912089767634 0 0 0
8965 1 15.61540830008527 35.43870137984895 -0.919392886832366 0 0 0
8966 1 17.37649409258527 36.68313429184896 2.813057113167634 0 0 0
8967 1 17.37645534908527 39.17224860484897 2.813057113167634 0 0 0
8968 1 15.61536955658527 37.92781569284897 4.057217066367635 0 0 0
8969 1 15.61536955658527 37.92781569284897 1.568912089767634 0 0 0
8970 1 17.37645534908527 39.17224860484897 5.301362089767634 0 0 0
8971 1 15.61536955658527 40.41668151684895 6.545507113167634 0 0 0
8972 1 15.61536955658527 40.41668151684895 4.057217066367635 0 0 0
8973 1 15.61544704358527 32.94958706684896 -5.895987910232366 0 0 0
8974 1 17.37657157958527 34.19426846784894 -4.651827957032365 0 0 0
8975 1 17.37649409258527 36.68313429184896 -4.651842886832366 0 0 0
8976 1 15.61540830008527 35.43870137984895 -3.407682933632366 0 0 0
8977 1 15.61540830008527 35.43870137984895 -5.895987910232366 0 0 0
8978 1 17.37649409258527 36.68313429184896 -2.163537910232366 0 0 0
8979 1 17.37645534908527 39.17224860484897 -2.163537910232366 0 0 0
8980 1 15.61536955658527 37.92781569284897 -0.919392886832366 0 0 0
8981 1 15.61536955658527 37.92781569284897 -3.407682933632366 0 0 0
8982 1 17.37645534908527 39.17224860484897 0.3247670663676345 0 0 0
8983 1 15.61536955658527 40.41668151684895 1.568912089767634 0 0 0
8984 1 15.61536955658527 40.41668151684895 -0.919392886832366 0 0 0
8985 1 15.61536955658527 37.92781569284897 -5.895987910232366 0 0 0
8986 1 17.37645534908527 39.17224860484897 -4.651842886832366 0 0 0
8987 1 15.61536955658527 40.41668151684895 -3.407682933632366 0 0 0
8988 1 15.61536955658527 40.41668151684895 -5.895987910232366 0 0 0
8989 1 13.85432250758527 29.21628833084894 -7.140134426612366 0 0 1
8990 1 12.09304299758527 27.97160692984893 6.545507113167634 0 0 0
8991 1 13.85432250758527 29.21628833084894 2.813072042967635 0 0 0
8992 1 12.09304299758527 27.97160692984893 4.057217066367635 0 0 0
8993 1 12.09304299758527 27.97160692984893 1.568912089767634 0 0 0
8994 1 13.85432250758527 29.21628833084894 5.301362089767634 0 0 0
8995 1 13.85428376408527 31.70515415484896 5.301362089767634 0 0 0
8996 1 12.09308174108527 30.46072124284895 6.545507113167634 0 0 0
8997 1 12.09308174108527 30.46072124284895 4.057217066367635 0 0 0
8998 1 13.85428376408527 31.70515415484896 -7.140135919592366 0 0 1
8999 1 13.85428376408527 34.19401997884897 -7.140135919592366 0 0 1
9000 1 12.09312048458527 32.94958706684896 6.545507113167634 0 0 0
9001 1 13.85432250758527 29.21628833084894 -2.163537910232366 0 0 0
9002 1 12.09304299758527 27.97160692984893 -0.919392886832366 0 0 0
9003 1 12.09304299758527 27.97160692984893 -3.407682933632366 0 0 0
9004 1 13.85432250758527 29.21628833084894 0.3247670663676345 0 0 0
9005 1 13.85428376408527 31.70515415484896 0.3247670663676345 0 0 0
9006 1 12.09308174108527 30.46072124284895 1.568912089767634 0 0 0
9007 1 12.09308174108527 30.46072124284895 -0.919392886832366 0 0 0
9008 1 13.85428376408527 31.70515415484896 2.813057113167634 0 0 0
9009 1 13.85428376408527 34.19401997884897 2.813057113167634 0 0 0
9010 1 12.09312048458527 32.94958706684896 4.057217066367635 0 0 0
9011 1 12.09312048458527 32.94958706684896 1.568912089767634 0 0 0
9012 1 13.85428376408527 34.19401997884897 5.301362089767634 0 0 0
9013 1 13.85428376408527 36.68313429184896 5.301362089767634 0 0 0
9014 1 12.09315922808527 35.43870137984895 6.545507113167634 0 0 0
9015 1 12.09315922808527 35.43870137984895 4.057217066367635 0 0 0
9016 1 13.85428376408527 36.68313429184896 -7.140135919592366 0 0 1
9017 1 13.85428376408527 39.17224860484897 -7.140135919592366 0 0 1
9018 1 12.09315922808527 37.92756720384894 6.545507113167634 0 0 0
9019 1 12.09304299758527 27.97160692984893 -5.895987910232366 0 0 0
9020 1 13.85432250758527 29.21628833084894 -4.651827957032365 0 0 0
9021 1 13.85428376408527 31.70515415484896 -4.651842886832366 0 0 0
9022 1 12.09308174108527 30.46072124284895 -3.407682933632366 0 0 0
9023 1 12.09308174108527 30.46072124284895 -5.895987910232366 0 0 0
9024 1 13.85428376408527 31.70515415484896 -2.163537910232366 0 0 0
9025 1 13.85428376408527 34.19401997884897 -2.163537910232366 0 0 0
9026 1 12.09312048458527 32.94958706684896 -0.919392886832366 0 0 0
9027 1 12.09312048458527 32.94958706684896 -3.407682933632366 0 0 0
9028 1 13.85428376408527 34.19401997884897 0.3247670663676345 0 0 0
9029 1 13.85428376408527 36.68313429184896 0.3247670663676345 0 0 0
9030 1 12.09315922808527 35.43870137984895 1.568912089767634 0 0 0
9031 1 12.09315922808527 35.43870137984895 -0.919392886832366 0 0 0
9032 1 13.85428376408527 36.68313429184896 2.813057113167634 0 0 0
9033 1 13.85428376408527 39.17224860484897 2.813057113167634 0 0 0
9034 1 12.09315922808527 37.92756720384894 4.057217066367635 0 0 0
9035 1 12.09315922808527 37.92756720384894 1.568912089767634 0 0 0
9036 1 13.85428376408527 39.17224860484897 5.301362089767634 0 0 0
9037 1 12.09319797158527 40.41668151684895 6.545507113167634 0 0 0
9038 1 12.09319797158527 40.41668151684895 4.057217066367635 0 0 0
9039 1 12.09312048458527 32.94958706684896 -5.895987910232366 0 0 0
9040 1 13.85428376408527 34.19401997884897 -4.651842886832366 0 0 0
9041 1 13.85428376408527 36.68313429184896 -4.651842886832366 0 0 0
9042 1 12.09315922808527 35.43870137984895 -3.407682933632366 0 0 0
9043 1 12.09315922808527 35.43870137984895 -5.895987910232366 0 0 0
9044 1 13.85428376408527 36.68313429184896 -2.163537910232366 0 0 0
9045 1 13.85428376408527 39.17224860484897 -2.163537910232366 0 0 0
9046 1 12.09315922808527 37.92756720384894 -0.919392886832366 0 0 0
9047 1 12.09315922808527 37.92756720384894 -3.407682933632366 0 0 0
9048 1 13.85428376408527 39.17224860484897 0.3247670663676345 0 0 0
9049 1 12.09319797158527 40.41668151684895 1.568912089767634 0 0 0
9050 1 12.09319797158527 40.41668151684895 -0.919392886832366 0 0 0
9051 1 12.09315922808527 37.92756720384894 -5.895987910232366 0 0 0
9052 1 13.85428376408527 39.17224860484897 -4.651842886832366 0 0 0
9053 1 12.09319797158527 40.41668151684895 -3.407682933632366 0 0 0
9054 1 12.09319797158527 40.41668151684895 -5.895987910232366 0 0 0
9055 1 10.33176348758527 29.21603984184894 -7.140138905552366 0 0 1
9056 1 8.57044523408527 27.97160692984893 6.545507113167634 0 0 0
9057 1 10.33176348758527 29.21603984184894 2.813057113167634 0 0 0
9058 1 8.57044523408527 27.97160692984893 4.057202136567634 0 0 0
9059 1 8.57044523408527 27.97160692984893 1.568912089767634 0 0 0
9060 1 10.33176348758527 29.21603984184894 5.301362089767634 0 0 0
9061 1 10.33187971808527 31.70515415484896 5.301362089767634 0 0 0
9062 1 8.570638951585273 30.46047275384895 6.545507113167634 0 0 0
9063 1 8.570638951585273 30.46047275384895 4.057217066367635 0 0 0
9064 1 10.33187971808527 31.70515415484896 -7.140137412572366 0 0 1
9065 1 10.33195720508527 34.19401997884897 -7.140137412572366 0 0 1
9066 1 8.570793925585271 32.94958706684896 6.545507113167634 0 0 0
9067 1 10.33176348758527 29.21603984184894 -2.163537910232366 0 0 0
9068 1 8.57044523408527 27.97160692984893 -0.919392886832366 0 0 0
9069 1 8.57044523408527 27.97160692984893 -3.407697863432365 0 0 0
9070 1 10.33176348758527 29.21603984184894 0.3247670663676345 0 0 0
9071 1 10.33187971808527 31.70515415484896 0.3247670663676345 0 0 0
9072 1 8.570638951585273 30.46047275384895 1.568912089767634 0 0 0
9073 1 8.570638951585273 30.46047275384895 -0.919392886832366 0 0 0
9074 1 10.33187971808527 31.70515415484896 2.813057113167634 0 0 0
9075 1 10.33195720508527 34.19401997884897 2.813057113167634 0 0 0
9076 1 8.570793925585271 32.94958706684896 4.057217066367635 0 0 0
9077 1 8.570793925585271 32.94958706684896 1.568912089767634 0 0 0
9078 1 10.33195720508527 34.19401997884897 5.301362089767634 0 0 0
9079 1 10.33203469208527 36.68313429184896 5.301362089767634 0 0 0
9080 1 8.570910156085272 35.43870137984895 6.545507113167634 0 0 0
9081 1 8.570910156085272 35.43870137984895 4.057217066367635 0 0 0
9082 1 10.33203469208527 36.68313429184896 -7.140135919592366 0 0 1
9083 1 10.33211217908527 39.17224860484897 -7.140135919592366 0 0 1
9084 1 8.570987643085267 37.92756720384894 6.545507113167634 0 0 0
9085 1 8.57044523408527 27.97160692984893 -5.895987910232366 0 0 0
9086 1 10.33176348758527 29.21603984184894 -4.651842886832366 0 0 0
9087 1 10.33187971808527 31.70515415484896 -4.651842886832366 0 0 0
9088 1 8.570638951585273 30.46047275384895 -3.407682933632366 0 0 0
9089 1 8.570638951585273 30.46047275384895 -5.895987910232366 0 0 0
9090 1 10.33187971808527 31.70515415484896 -2.163537910232366 0 0 0
9091 1 10.33195720508527 34.19401997884897 -2.163537910232366 0 0 0
9092 1 8.570793925585271 32.94958706684896 -0.919392886832366 0 0 0
9093 1 8.570793925585271 32.94958706684896 -3.407682933632366 0 0 0
9094 1 10.33195720508527 34.19401997884897 0.3247670663676345 0 0 0
9095 1 10.33203469208527 36.68313429184896 0.3247670663676345 0 0 0
9096 1 8.570910156085272 35.43870137984895 1.568912089767634 0 0 0
9097 1 8.570910156085272 35.43870137984895 -0.919392886832366 0 0 0
9098 1 10.33203469208527 36.68313429184896 2.813057113167634 0 0 0
9099 1 10.33211217908527 39.17224860484897 2.813057113167634 0 0 0
9100 1 8.570987643085267 37.92756720384894 4.057217066367635 0 0 0
9101 1 8.570987643085267 37.92756720384894 1.568912089767634 0 0 0
9102 1 10.33211217908527 39.17224860484897 5.301362089767634 0 0 0
9103 1 8.57106513008527 40.41668151684895 6.545507113167634 0 0 0
9104 1 8.57106513008527 40.41668151684895 4.057217066367635 0 0 0
9105 1 8.570793925585271 32.94958706684896 -5.895987910232366 0 0 0
9106 1 10.33195720508527 34.19401997884897 -4.651842886832366 0 0 0
9107 1 10.33203469208527 36.68313429184896 -4.651842886832366 0 0 0
9108 1 8.570910156085272 35.43870137984895 -3.407682933632366 0 0 0
9109 1 8.570910156085272 35.43870137984895 -5.895987910232366 0 0 0
9110 1 10.33203469208527 36.68313429184896 -2.163537910232366 0 0 0
9111 1 10.33211217908527 39.17224860484897 -2.163537910232366 0 0 0
9112 1 8.570987643085267 37.92756720384894 -0.919392886832366 0 0 0
9113 1 8.570987643085267 37.92756720384894 -3.407682933632366 0 0 0
9114 1 10.33211217908527 39.17224860484897 0.3247670663676345 0 0 0
9115 1 8.57106513008527 40.41668151684895 1.568912089767634 0 0 0
9116 1 8.57106513008527 40.41668151684895 -0.919392886832366 0 0 0
9117 1 8.570987643085267 37.92756720384894 -5.895987910232366 0 0 0
9118 1 10.33211217908527 39.17224860484897 -4.651842886832366 0 0 0
9119 1 8.57106513008527 40.41668151684895 -3.407682933632366 0 0 0
9120 1 8.57106513008527 40.41668151684895 -5.895987910232366 0 0 0
9121 1 6.809320698085269 29.21603984184894 -7.140141891512366 0 0 1
9122 1 5.048041188085271 27.97135844084896 6.545507113167634 0 0 0
9123 1 6.809320698085269 29.21603984184894 2.813057113167634 0 0 0
9124 1 5.048041188085271 27.97135844084896 4.057202136567634 0 0 0
9125 1 5.048041188085271 27.97135844084896 1.568912089767634 0 0 0
9126 1 6.809320698085269 29.21603984184894 5.301362089767634 0 0 0
9127 1 6.809553159085272 31.70515415484896 5.301362089767634 0 0 0
9128 1 5.04831239258527 30.46047275384895 6.545507113167634 0 0 0
9129 1 5.04831239258527 30.46047275384895 4.057202136567634 0 0 0
9130 1 6.809553159085272 31.70515415484896 -7.140138905552366 0 0 1
9131 1 6.809746876585269 34.19401997884897 -7.140137412572366 0 0 1
9132 1 5.04854485358527 32.94958706684896 6.545507113167634 0 0 0
9133 1 6.809320698085269 29.21603984184894 -2.163537910232366 0 0 0
9134 1 5.048041188085271 27.97135844084896 -0.919392886832366 0 0 0
9135 1 5.048041188085271 27.97135844084896 -3.407697863432365 0 0 0
9136 1 6.809320698085269 29.21603984184894 0.3247521365676338 0 0 0
9137 1 6.809553159085272 31.70515415484896 0.3247670663676345 0 0 0
9138 1 5.04831239258527 30.46047275384895 1.568912089767634 0 0 0
9139 1 5.04831239258527 30.46047275384895 -0.919392886832366 0 0 0
9140 1 6.809553159085272 31.70515415484896 2.813057113167634 0 0 0
9141 1 6.809746876585269 34.19401997884897 2.813057113167634 0 0 0
9142 1 5.04854485358527 32.94958706684896 4.057217066367635 0 0 0
9143 1 5.04854485358527 32.94958706684896 1.568912089767634 0 0 0
9144 1 6.809746876585269 34.19401997884897 5.301362089767634 0 0 0
9145 1 6.80986310708527 36.68313429184896 5.301362089767634 0 0 0
9146 1 5.04873857108527 35.43870137984895 6.545507113167634 0 0 0
9147 1 5.04873857108527 35.43870137984895 4.057217066367635 0 0 0
9148 1 6.80986310708527 36.68313429184896 -7.140137412572366 0 0 1
9149 1 6.809979337585272 39.17224860484897 -7.140137412572366 0 0 1
9150 1 5.048854801585268 37.92781569284897 6.545507113167634 0 0 0
9151 1 5.048041188085271 27.97135844084896 -5.895987910232366 0 0 0
9152 1 6.809320698085269 29.21603984184894 -4.651842886832366 0 0 0
9153 1 6.809553159085272 31.70515415484896 -4.651842886832366 0 0 0
9154 1 5.04831239258527 30.46047275384895 -3.407697863432365 0 0 0
9155 1 5.04831239258527 30.46047275384895 -5.895987910232366 0 0 0
9156 1 6.809553159085272 31.70515415484896 -2.163537910232366 0 0 0
9157 1 6.809746876585269 34.19401997884897 -2.163537910232366 0 0 0
9158 1 5.04854485358527 32.94958706684896 -0.919392886832366 0 0 0
9159 1 5.04854485358527 32.94958706684896 -3.407682933632366 0 0 0
9160 1 6.809746876585269 34.19401997884897 0.3247670663676345 0 0 0
9161 1 6.80986310708527 36.68313429184896 0.3247670663676345 0 0 0
9162 1 5.04873857108527 35.43870137984895 1.568912089767634 0 0 0
9163 1 5.04873857108527 35.43870137984895 -0.919392886832366 0 0 0
9164 1 6.80986310708527 36.68313429184896 2.813057113167634 0 0 0
9165 1 6.809979337585272 39.17224860484897 2.813057113167634 0 0 0
9166 1 5.048854801585268 37.92781569284897 4.057217066367635 0 0 0
9167 1 5.048854801585268 37.92781569284897 1.568912089767634 0 0 0
9168 1 6.809979337585272 39.17224860484897 5.301362089767634 0 0 0
9169 1 5.04893228858527 40.41693000584895 6.545507113167634 0 0 0
9170 1 5.04893228858527 40.41693000584895 4.057217066367635 0 0 0
9171 1 5.04854485358527 32.94958706684896 -5.895987910232366 0 0 0
9172 1 6.809746876585269 34.19401997884897 -4.651842886832366 0 0 0
9173 1 6.80986310708527 36.68313429184896 -4.651842886832366 0 0 0
9174 1 5.04873857108527 35.43870137984895 -3.407682933632366 0 0 0
9175 1 5.04873857108527 35.43870137984895 -5.895987910232366 0 0 0
9176 1 6.80986310708527 36.68313429184896 -2.163537910232366 0 0 0
9177 1 6.809979337585272 39.17224860484897 -2.163537910232366 0 0 0
9178 1 5.048854801585268 37.92781569284897 -0.919392886832366 0 0 0
9179 1 5.048854801585268 37.92781569284897 -3.407682933632366 0 0 0
9180 1 6.809979337585272 39.17224860484897 0.3247670663676345 0 0 0
9181 1 5.04893228858527 40.41693000584895 1.568912089767634 0 0 0
9182 1 5.04893228858527 40.41693000584895 -0.919392886832366 0 0 0
9183 1 5.048854801585268 37.92781569284897 -5.895987910232366 0 0 0
9184 1 6.809979337585272 39.17224860484897 -4.651842886832366 0 0 0
9185 1 5.04893228858527 40.41693000584895 -3.407682933632366 0 0 0
9186 1 5.04893228858527 40.41693000584895 -5.895987910232366 0 0 0
9187 1 3.287110369585271 29.21603984184894 -7.140143384492366 0 0 1
9188 1 3.287110369585271 29.21603984184894 2.813057113167634 0 0 0
9189 1 3.287110369585271 29.21603984184894 5.301362089767634 0 0 0
9190 1 3.28738157408527 31.70515415484896 5.301362089767634 0 0 0
9191 1 3.28738157408527 31.70515415484896 -7.140140398532366 0 0 1
9192 1 3.28757529158527 34.19426846784894 -7.140137412572366 0 0 1
9193 1 3.287110369585271 29.21603984184894 -2.163537910232366 0 0 0
9194 1 3.287110369585271 29.21603984184894 0.3247521365676338 0 0 0
9195 1 3.28738157408527 31.70515415484896 0.3247670663676345 0 0 0
9196 1 3.28738157408527 31.70515415484896 2.813057113167634 0 0 0
9197 1 3.28757529158527 34.19426846784894 2.813057113167634 0 0 0
9198 1 3.28757529158527 34.19426846784894 5.301362089767634 0 0 0
9199 1 3.287730265585271 36.68338278084896 5.301362089767634 0 0 0
9200 1 3.287730265585271 36.68338278084896 -7.140137412572366 0 0 1
9201 1 3.287846496085269 39.17224860484897 -7.140137412572366 0 0 1
9202 1 3.287110369585271 29.21603984184894 -4.651842886832366 0 0 0
9203 1 3.28738157408527 31.70515415484896 -4.651842886832366 0 0 0
9204 1 3.28738157408527 31.70515415484896 -2.163537910232366 0 0 0
9205 1 3.28757529158527 34.19426846784894 -2.163537910232366 0 0 0
9206 1 3.28757529158527 34.19426846784894 0.3247670663676345 0 0 0
9207 1 3.287730265585271 36.68338278084896 0.3247670663676345 0 0 0
9208 1 3.287730265585271 36.68338278084896 2.813057113167634 0 0 0
9209 1 3.287846496085269 39.17224860484897 2.813057113167634 0 0 0
9210 1 3.287846496085269 39.17224860484897 5.301362089767634 0 0 0
9211 1 3.28757529158527 34.19426846784894 -4.651842886832366 0 0 0
9212 1 3.287730265585271 36.68338278084896 -4.651842886832366 0 0 0
9213 1 3.287730265585271 36.68338278084896 -2.163537910232366 0 0 0
9214 1 3.287846496085269 39.17224860484897 -2.163537910232366 0 0 0
9215 1 3.287846496085269 39.17224860484897 0.3247670663676345 0 0 0
9216 1 3.287846496085269 39.17224860484897 -4.651842886832366 0 0 0
9217 1 -16.08383763996473 42.90604431884897 6.545507113167634 1 0 0
9218 1 -16.08383763996473 42.90604431884897 4.057217066367635 1 0 0
9219 1 -16.08383763996473 42.90604431884897 1.568912089767634 1 0 0
9220 1 -16.08385701171473 45.39515863184896 6.545507113167634 1 0 0
9221 1 -16.08385701171473 45.39515863184896 4.057217066367635 1 0 0
9222 1 -16.08386088606473 47.88402445584894 6.545507113167634 1 0 0
9223 1 -16.08383763996473 42.90604431884897 -0.919392886832366 1 0 0
9224 1 -16.08383763996473 42.90604431884897 -3.407682933632366 1 0 0
9225 1 -16.08385701171473 45.39515863184896 1.568912089767634 1 0 0
9226 1 -16.08385701171473 45.39515863184896 -0.919392886832366 1 0 0
9227 1 -16.08386088606473 47.88402445584894 4.057217066367635 1 0 0
9228 1 -16.08386088606473 47.88402445584894 1.568912089767634 1 0 0
9229 1 -16.08385313736473 50.37313876884896 6.545507113167634 1 0 0
9230 1 -16.08385313736473 50.37313876884896 4.057217066367635 1 0 0
9231 1 -16.08384538866473 52.86225308184895 6.545507113167634 1 0 0
9232 1 -16.08383763996473 42.90604431884897 -5.895987910232366 1 0 0
9233 1 -16.08385701171473 45.39515863184896 -3.407682933632366 1 0 0
9234 1 -16.08385701171473 45.39515863184896 -5.895987910232366 1 0 0
9235 1 -16.08386088606473 47.88402445584894 -0.919392886832366 1 0 0
9236 1 -16.08386088606473 47.88402445584894 -3.407682933632366 1 0 0
9237 1 -16.08385313736473 50.37313876884896 1.568912089767634 1 0 0
9238 1 -16.08385313736473 50.37313876884896 -0.919392886832366 1 0 0
9239 1 -16.08384538866473 52.86225308184895 4.057217066367635 1 0 0
9240 1 -16.08384538866473 52.86225308184895 1.568912089767634 1 0 0
9241 1 -16.08386088606473 47.88402445584894 -5.895987910232366 1 0 0
9242 1 -16.08385313736473 50.37313876884896 -3.407682933632366 1 0 0
9243 1 -16.08385313736473 50.37313876884896 -5.895987910232366 1 0 0
9244 1 -16.08384538866473 52.86225308184895 -0.919392886832366 1 0 0
9245 1 -16.08384538866473 52.86225308184895 -3.407682933632366 1 0 0
9246 1 -16.08384538866473 52.86225308184895 -5.895987910232366 1 0 0
9247 1 -17.84490018636473 41.66136291784893 5.301362089767634 1 0 0
9248 1 -17.84490018636473 41.66136291784893 -7.140135919592366 1 0 1
9249 1 -17.84492343246473 44.15047723084895 -7.140135919592366 1 0 1
9250 1 19.13750239808527 42.90579582984894 6.545507113167634 0 0 0
9251 1 -17.84490018636473 41.66136291784893 0.3247670663676345 1 0 0
9252 1 -17.84490018636473 41.66136291784893 2.813057113167634 1 0 0
9253 1 -17.84492343246473 44.15047723084895 2.813057113167634 1 0 0
9254 1 19.13750239808527 42.90579582984894 4.057217066367635 0 0 0
9255 1 19.13750239808527 42.90579582984894 1.568912089767634 0 0 0
9256 1 -17.84492343246473 44.15047723084895 5.301362089767634 1 0 0
9257 1 -17.84493118116473 46.63959154384894 5.301362089767634 1 0 0
9258 1 19.13750239808527 45.39491014284896 6.545507113167634 0 0 0
9259 1 19.13750239808527 45.39491014284896 4.057217066367635 0 0 0
9260 1 -17.84493118116473 46.63959154384894 -7.140135919592366 1 0 1
9261 1 -17.84492730681473 49.12870585684895 -7.140135919592366 1 0 1
9262 1 19.13750239808527 47.88402445584894 6.545507113167634 0 0 0
9263 1 -17.84490018636473 41.66136291784893 -4.651842886832366 1 0 0
9264 1 -17.84490018636473 41.66136291784893 -2.163537910232366 1 0 0
9265 1 -17.84492343246473 44.15047723084895 -2.163537910232366 1 0 0
9266 1 19.13750239808527 42.90579582984894 -0.919392886832366 0 0 0
9267 1 19.13750239808527 42.90579582984894 -3.407682933632366 0 0 0
9268 1 -17.84492343246473 44.15047723084895 0.3247670663676345 1 0 0
9269 1 -17.84493118116473 46.63959154384894 0.3247670663676345 1 0 0
9270 1 19.13750239808527 45.39491014284896 1.568912089767634 0 0 0
9271 1 19.13750239808527 45.39491014284896 -0.919392886832366 0 0 0
9272 1 -17.84493118116473 46.63959154384894 2.813057113167634 1 0 0
9273 1 -17.84492730681473 49.12870585684895 2.813057113167634 1 0 0
9274 1 19.13750239808527 47.88402445584894 4.057217066367635 0 0 0
9275 1 19.13750239808527 47.88402445584894 1.568912089767634 0 0 0
9276 1 -17.84492730681473 49.12870585684895 5.301362089767634 1 0 0
9277 1 -17.84491955811473 51.61782016984894 5.301362089767634 1 0 0
9278 1 19.13750239808527 50.37313876884896 6.545507113167634 0 0 0
9279 1 19.13750239808527 50.37313876884896 4.057217066367635 0 0 0
9280 1 -17.84491955811473 51.61782016984894 -7.140135919592366 1 0 1
9281 1 -17.84490406071473 54.10668599384896 -7.140135919592366 1 0 1
9282 1 19.13754114158527 52.86225308184895 6.545507113167634 0 0 0
9283 1 19.13750239808527 42.90579582984894 -5.895987910232366 0 0 0
9284 1 -17.84492343246473 44.15047723084895 -4.651842886832366 1 0 0
9285 1 -17.84493118116473 46.63959154384894 -4.651842886832366 1 0 0
9286 1 19.13750239808527 45.39491014284896 -3.407682933632366 0 0 0
9287 1 19.13750239808527 45.39491014284896 -5.895987910232366 0 0 0
9288 1 -17.84493118116473 46.63959154384894 -2.163537910232366 1 0 0
9289 1 -17.84492730681473 49.12870585684895 -2.163537910232366 1 0 0
9290 1 19.13750239808527 47.88402445584894 -0.919392886832366 0 0 0
9291 1 19.13750239808527 47.88402445584894 -3.407682933632366 0 0 0
9292 1 -17.84492730681473 49.12870585684895 0.3247670663676345 1 0 0
9293 1 -17.84491955811473 51.61782016984894 0.3247670663676345 1 0 0
9294 1 19.13750239808527 50.37313876884896 1.568912089767634 0 0 0
9295 1 19.13750239808527 50.37313876884896 -0.919392886832366 0 0 0
9296 1 -17.84491955811473 51.61782016984894 2.813057113167634 1 0 0
9297 1 -17.84490406071473 54.10668599384896 2.813057113167634 1 0 0
9298 1 19.13754114158527 52.86225308184895 4.057217066367635 0 0 0
9299 1 19.13754114158527 52.86225308184895 1.568912089767634 0 0 0
9300 1 -17.84490406071473 54.10668599384896 5.301362089767634 1 0 0
9301 1 19.13750239808527 47.88402445584894 -5.895987910232366 0 0 0
9302 1 -17.84492730681473 49.12870585684895 -4.651842886832366 1 0 0
9303 1 -17.84491955811473 51.61782016984894 -4.651842886832366 1 0 0
9304 1 19.13750239808527 50.37313876884896 -3.407682933632366 0 0 0
9305 1 19.13750239808527 50.37313876884896 -5.895987910232366 0 0 0
9306 1 -17.84491955811473 51.61782016984894 -2.163537910232366 1 0 0
9307 1 -17.84490406071473 54.10668599384896 -2.163537910232366 1 0 0
9308 1 19.13754114158527 52.86225308184895 -0.919392886832366 0 0 0
9309 1 19.13754114158527 52.86225308184895 -3.407682933632366 0 0 0
9310 1 -17.84490406071473 54.10668599384896 0.3247670663676345 1 0 0
9311 1 19.13754114158527 52.86225308184895 -5.895987910232366 0 0 0
9312 1 -17.84490406071473 54.10668599384896 -4.651842886832366 1 0 0
9313 1 17.37645534908527 41.66136291784893 5.301362089767634 0 0 0
9314 1 17.37645534908527 41.66136291784893 -7.140135919592366 0 0 1
9315 1 17.37641660558527 44.15047723084895 -7.140135919592366 0 0 1
9316 1 15.61536955658527 42.90579582984894 6.545507113167634 0 0 0
9317 1 17.37645534908527 41.66136291784893 0.3247670663676345 0 0 0
9318 1 17.37645534908527 41.66136291784893 2.813057113167634 0 0 0
9319 1 17.37641660558527 44.15047723084895 2.813057113167634 0 0 0
9320 1 15.61536955658527 42.90579582984894 4.057217066367635 0 0 0
9321 1 15.61536955658527 42.90579582984894 1.568912089767634 0 0 0
9322 1 17.37641660558527 44.15047723084895 5.301362089767634 0 0 0
9323 1 17.37645534908527 46.63959154384894 5.301362089767634 0 0 0
9324 1 15.61536955658527 45.39491014284896 6.545507113167634 0 0 0
9325 1 15.61536955658527 45.39491014284896 4.057217066367635 0 0 0
9326 1 17.37645534908527 46.63959154384894 -7.140135919592366 0 0 1
9327 1 17.37645534908527 49.12870585684895 -7.140135919592366 0 0 1
9328 1 15.61536955658527 47.88402445584894 6.545507113167634 0 0 0
9329 1 17.37645534908527 41.66136291784893 -4.651842886832366 0 0 0
9330 1 17.37645534908527 41.66136291784893 -2.163537910232366 0 0 0
9331 1 17.37641660558527 44.15047723084895 -2.163537910232366 0 0 0
9332 1 15.61536955658527 42.90579582984894 -0.919392886832366 0 0 0
9333 1 15.61536955658527 42.90579582984894 -3.407682933632366 0 0 0
9334 1 17.37641660558527 44.15047723084895 0.3247670663676345 0 0 0
9335 1 17.37645534908527 46.63959154384894 0.3247670663676345 0 0 0
9336 1 15.61536955658527 45.39491014284896 1.568912089767634 0 0 0
9337 1 15.61536955658527 45.39491014284896 -0.919392886832366 0 0 0
9338 1 17.37645534908527 46.63959154384894 2.813057113167634 0 0 0
9339 1 17.37645534908527 49.12870585684895 2.813057113167634 0 0 0
9340 1 15.61536955658527 47.88402445584894 4.057217066367635 0 0 0
9341 1 15.61536955658527 47.88402445584894 1.568912089767634 0 0 0
9342 1 17.37645534908527 49.12870585684895 5.301362089767634 0 0 0
9343 1 17.37645534908527 51.61757168084894 5.301362089767634 0 0 0
9344 1 15.61540830008527 50.37313876884896 6.545507113167634 0 0 0
9345 1 15.61540830008527 50.37313876884896 4.057217066367635 0 0 0
9346 1 17.37645534908527 51.61757168084894 -7.140135919592366 0 0 1
9347 1 17.37645534908527 54.10668599384896 -7.140135919592366 0 0 1
9348 1 15.61540830008527 52.86225308184895 6.545507113167634 0 0 0
9349 1 15.61536955658527 42.90579582984894 -5.895987910232366 0 0 0
9350 1 17.37641660558527 44.15047723084895 -4.651842886832366 0 0 0
9351 1 17.37645534908527 46.63959154384894 -4.651842886832366 0 0 0
9352 1 15.61536955658527 45.39491014284896 -3.407682933632366 0 0 0
9353 1 15.61536955658527 45.39491014284896 -5.895987910232366 0 0 0
9354 1 17.37645534908527 46.63959154384894 -2.163537910232366 0 0 0
9355 1 17.37645534908527 49.12870585684895 -2.163537910232366 0 0 0
9356 1 15.61536955658527 47.88402445584894 -0.919392886832366 0 0 0
9357 1 15.61536955658527 47.88402445584894 -3.407682933632366 0 0 0
9358 1 17.37645534908527 49.12870585684895 0.3247670663676345 0 0 0
9359 1 17.37645534908527 51.61757168084894 0.3247670663676345 0 0 0
9360 1 15.61540830008527 50.37313876884896 1.568912089767634 0 0 0
9361 1 15.61540830008527 50.37313876884896 -0.919392886832366 0 0 0
9362 1 17.37645534908527 51.61757168084894 2.813057113167634 0 0 0
9363 1 17.37645534908527 54.10668599384896 2.813057113167634 0 0 0
9364 1 15.61540830008527 52.86225308184895 4.057217066367635 0 0 0
9365 1 15.61540830008527 52.86225308184895 1.568912089767634 0 0 0
9366 1 17.37645534908527 54.10668599384896 5.301362089767634 0 0 0
9367 1 15.61536955658527 47.88402445584894 -5.895987910232366 0 0 0
9368 1 17.37645534908527 49.12870585684895 -4.651842886832366 0 0 0
9369 1 17.37645534908527 51.61757168084894 -4.651842886832366 0 0 0
9370 1 15.61540830008527 50.37313876884896 -3.407682933632366 0 0 0
9371 1 15.61540830008527 50.37313876884896 -5.895987910232366 0 0 0
9372 1 17.37645534908527 51.61757168084894 -2.163537910232366 0 0 0
9373 1 17.37645534908527 54.10668599384896 -2.163537910232366 0 0 0
9374 1 15.61540830008527 52.86225308184895 -0.919392886832366 0 0 0
9375 1 15.61540830008527 52.86225308184895 -3.407682933632366 0 0 0
9376 1 17.37645534908527 54.10668599384896 0.3247670663676345 0 0 0
9377 1 15.61540830008527 52.86225308184895 -5.895987910232366 0 0 0
9378 1 17.37645534908527 54.10668599384896 -4.651842886832366 0 0 0
9379 1 13.85428376408527 41.66136291784893 5.301362089767634 0 0 0
9380 1 13.85428376408527 41.66136291784893 -7.140135919592366 0 0 1
9381 1 13.85432250758527 44.15047723084895 -7.140135919592366 0 0 1
9382 1 12.09323671508527 42.90579582984894 6.545507113167634 0 0 0
9383 1 13.85428376408527 41.66136291784893 0.3247670663676345 0 0 0
9384 1 13.85428376408527 41.66136291784893 2.813057113167634 0 0 0
9385 1 13.85432250758527 44.15047723084895 2.813057113167634 0 0 0
9386 1 12.09323671508527 42.90579582984894 4.057217066367635 0 0 0
9387 1 12.09323671508527 42.90579582984894 1.568912089767634 0 0 0
9388 1 13.85432250758527 44.15047723084895 5.301362089767634 0 0 0
9389 1 13.85432250758527 46.63959154384894 5.301362089767634 0 0 0
9390 1 12.09323671508527 45.39491014284896 6.545507113167634 0 0 0
9391 1 12.09323671508527 45.39491014284896 4.057217066367635 0 0 0
9392 1 13.85432250758527 46.63959154384894 -7.140135919592366 0 0 1
9393 1 13.85432250758527 49.12845736784895 -7.140135919592366 0 0 1
9394 1 12.09327545858527 47.88402445584894 6.545507113167634 0 0 0
9395 1 13.85428376408527 41.66136291784893 -4.651842886832366 0 0 0
9396 1 13.85428376408527 41.66136291784893 -2.163537910232366 0 0 0
9397 1 13.85432250758527 44.15047723084895 -2.163537910232366 0 0 0
9398 1 12.09323671508527 42.90579582984894 -0.919392886832366 0 0 0
9399 1 12.09323671508527 42.90579582984894 -3.407682933632366 0 0 0
9400 1 13.85432250758527 44.15047723084895 0.3247670663676345 0 0 0
9401 1 13.85432250758527 46.63959154384894 0.3247670663676345 0 0 0
9402 1 12.09323671508527 45.39491014284896 1.568912089767634 0 0 0
9403 1 12.09323671508527 45.39491014284896 -0.919392886832366 0 0 0
9404 1 13.85432250758527 46.63959154384894 2.813057113167634 0 0 0
9405 1 13.85432250758527 49.12845736784895 2.813057113167634 0 0 0
9406 1 12.09327545858527 47.88402445584894 4.057217066367635 0 0 0
9407 1 12.09327545858527 47.88402445584894 1.568912089767634 0 0 0
9408 1 13.85432250758527 49.12845736784895 5.301362089767634 0 0 0
9409 1 13.85432250758527 51.61757168084894 5.301362089767634 0 0 0
9410 1 12.09327545858527 50.37313876884896 6.545507113167634 0 0 0
9411 1 12.09327545858527 50.37313876884896 4.057217066367635 0 0 0
9412 1 13.85432250758527 51.61757168084894 -7.140135919592366 0 0 1
9413 1 13.85436125108527 54.10668599384896 -7.140135919592366 0 0 1
9414 1 12.09327545858527 52.86225308184895 6.545507113167634 0 0 0
9415 1 12.09323671508527 42.90579582984894 -5.895987910232366 0 0 0
9416 1 13.85432250758527 44.15047723084895 -4.651842886832366 0 0 0
9417 1 13.85432250758527 46.63959154384894 -4.651842886832366 0 0 0
9418 1 12.09323671508527 45.39491014284896 -3.407682933632366 0 0 0
9419 1 12.09323671508527 45.39491014284896 -5.895987910232366 0 0 0
9420 1 13.85432250758527 46.63959154384894 -2.163537910232366 0 0 0
9421 1 13.85432250758527 49.12845736784895 -2.163537910232366 0 0 0
9422 1 12.09327545858527 47.88402445584894 -0.919392886832366 0 0 0
9423 1 12.09327545858527 47.88402445584894 -3.407682933632366 0 0 0
9424 1 13.85432250758527 49.12845736784895 0.3247670663676345 0 0 0
9425 1 13.85432250758527 51.61757168084894 0.3247670663676345 0 0 0
9426 1 12.09327545858527 50.37313876884896 1.568912089767634 0 0 0
9427 1 12.09327545858527 50.37313876884896 -0.919392886832366 0 0 0
9428 1 13.85432250758527 51.61757168084894 2.813057113167634 0 0 0
9429 1 13.85436125108527 54.10668599384896 2.813057113167634 0 0 0
9430 1 12.09327545858527 52.86225308184895 4.057217066367635 0 0 0
9431 1 12.09327545858527 52.86225308184895 1.568912089767634 0 0 0
9432 1 13.85436125108527 54.10668599384896 5.301362089767634 0 0 0
9433 1 12.09327545858527 47.88402445584894 -5.895987910232366 0 0 0
9434 1 13.85432250758527 49.12845736784895 -4.651842886832366 0 0 0
9435 1 13.85432250758527 51.61757168084894 -4.651842886832366 0 0 0
9436 1 12.09327545858527 50.37313876884896 -3.407682933632366 0 0 0
9437 1 12.09327545858527 50.37313876884896 -5.895987910232366 0 0 0
9438 1 13.85432250758527 51.61757168084894 -2.163537910232366 0 0 0
9439 1 13.85436125108527 54.10668599384896 -2.163537910232366 0 0 0
9440 1 12.09327545858527 52.86225308184895 -0.919392886832366 0 0 0
9441 1 12.09327545858527 52.86225308184895 -3.407682933632366 0 0 0
9442 1 13.85436125108527 54.10668599384896 0.3247670663676345 0 0 0
9443 1 12.09327545858527 52.86225308184895 -5.895987910232366 0 0 0
9444 1 13.85436125108527 54.10668599384896 -4.651842886832366 0 0 0
9445 1 10.33215092258527 41.66136291784893 5.301362089767634 0 0 0
9446 1 10.33215092258527 41.66136291784893 -7.140135919592366 0 0 1
9447 1 10.33218966608527 44.15047723084895 -7.140135919592366 0 0 1
9448 1 8.571103873585269 42.90579582984894 6.545507113167634 0 0 0
9449 1 10.33215092258527 41.66136291784893 0.3247670663676345 0 0 0
9450 1 10.33215092258527 41.66136291784893 2.813057113167634 0 0 0
9451 1 10.33218966608527 44.15047723084895 2.813057113167634 0 0 0
9452 1 8.571103873585269 42.90579582984894 4.057217066367635 0 0 0
9453 1 8.571103873585269 42.90579582984894 1.568912089767634 0 0 0
9454 1 10.33218966608527 44.15047723084895 5.301362089767634 0 0 0
9455 1 10.33218966608527 46.63959154384894 5.301362089767634 0 0 0
9456 1 8.571142617085268 45.39491014284896 6.545507113167634 0 0 0
9457 1 8.571142617085268 45.39491014284896 4.057217066367635 0 0 0
9458 1 10.33218966608527 46.63959154384894 -7.140135919592366 0 0 1
9459 1 10.33222840958527 49.12870585684895 -7.140135919592366 0 0 1
9460 1 8.571142617085268 47.88402445584894 6.545507113167634 0 0 0
9461 1 10.33215092258527 41.66136291784893 -4.651842886832366 0 0 0
9462 1 10.33215092258527 41.66136291784893 -2.163537910232366 0 0 0
9463 1 10.33218966608527 44.15047723084895 -2.163537910232366 0 0 0
9464 1 8.571103873585269 42.90579582984894 -0.919392886832366 0 0 0
9465 1 8.571103873585269 42.90579582984894 -3.407682933632366 0 0 0
9466 1 10.33218966608527 44.15047723084895 0.3247670663676345 0 0 0
9467 1 10.33218966608527 46.63959154384894 0.3247670663676345 0 0 0
9468 1 8.571142617085268 45.39491014284896 1.568912089767634 0 0 0
9469 1 8.571142617085268 45.39491014284896 -0.919392886832366 0 0 0
9470 1 10.33218966608527 46.63959154384894 2.813057113167634 0 0 0
9471 1 10.33222840958527 49.12870585684895 2.813057113167634 0 0 0
9472 1 8.571142617085268 47.88402445584894 4.057217066367635 0 0 0
9473 1 8.571142617085268 47.88402445584894 1.568912089767634 0 0 0
9474 1 10.33222840958527 49.12870585684895 5.301362089767634 0 0 0
9475 1 10.33222840958527 51.61757168084894 5.301362089767634 0 0 0
9476 1 8.571181360585271 50.37313876884896 6.545507113167634 0 0 0
9477 1 8.571181360585271 50.37313876884896 4.057217066367635 0 0 0
9478 1 10.33222840958527 51.61757168084894 -7.140135919592366 0 0 1
9479 1 10.33222840958527 54.10668599384896 -7.140135919592366 0 0 1
9480 1 8.571181360585271 52.86225308184895 6.545507113167634 0 0 0
9481 1 8.571103873585269 42.90579582984894 -5.895987910232366 0 0 0
9482 1 10.33218966608527 44.15047723084895 -4.651842886832366 0 0 0
9483 1 10.33218966608527 46.63959154384894 -4.651842886832366 0 0 0
9484 1 8.571142617085268 45.39491014284896 -3.407682933632366 0 0 0
9485 1 8.571142617085268 45.39491014284896 -5.895987910232366 0 0 0
9486 1 10.33218966608527 46.63959154384894 -2.163537910232366 0 0 0
9487 1 10.33222840958527 49.12870585684895 -2.163537910232366 0 0 0
9488 1 8.571142617085268 47.88402445584894 -0.919392886832366 0 0 0
9489 1 8.571142617085268 47.88402445584894 -3.407682933632366 0 0 0
9490 1 10.33222840958527 49.12870585684895 0.3247670663676345 0 0 0
9491 1 10.33222840958527 51.61757168084894 0.3247670663676345 0 0 0
9492 1 8.571181360585271 50.37313876884896 1.568912089767634 0 0 0
9493 1 8.571181360585271 50.37313876884896 -0.919392886832366 0 0 0
9494 1 10.33222840958527 51.61757168084894 2.813057113167634 0 0 0
9495 1 10.33222840958527 54.10668599384896 2.813057113167634 0 0 0
9496 1 8.571181360585271 52.86225308184895 4.057217066367635 0 0 0
9497 1 8.571181360585271 52.86225308184895 1.568912089767634 0 0 0
9498 1 10.33222840958527 54.10668599384896 5.301362089767634 0 0 0
9499 1 8.571142617085268 47.88402445584894 -5.895987910232366 0 0 0
9500 1 10.33222840958527 49.12870585684895 -4.651842886832366 0 0 0
9501 1 10.33222840958527 51.61757168084894 -4.651842886832366 0 0 0
9502 1 8.571181360585271 50.37313876884896 -3.407682933632366 0 0 0
9503 1 8.571181360585271 50.37313876884896 -5.895987910232366 0 0 0
9504 1 10.33222840958527 51.61757168084894 -2.163537910232366 0 0 0
9505 1 10.33222840958527 54.10668599384896 -2.163537910232366 0 0 0
9506 1 8.571181360585271 52.86225308184895 -0.919392886832366 0 0 0
9507 1 8.571181360585271 52.86225308184895 -3.407682933632366 0 0 0
9508 1 10.33222840958527 54.10668599384896 0.3247670663676345 0 0 0
9509 1 8.571181360585271 52.86225308184895 -5.895987910232366 0 0 0
9510 1 10.33222840958527 54.10668599384896 -4.651842886832366 0 0 0
9511 1 6.810018081085271 41.66136291784893 5.301362089767634 0 0 0
9512 1 6.810018081085271 41.66136291784893 -7.140135919592366 0 0 1
9513 1 6.810056824585267 44.15047723084895 -7.140135919592366 0 0 1
9514 1 5.048971032085273 42.90604431884897 6.545507113167634 0 0 0
9515 1 6.810018081085271 41.66136291784893 0.3247670663676345 0 0 0
9516 1 6.810018081085271 41.66136291784893 2.813057113167634 0 0 0
9517 1 6.810056824585267 44.15047723084895 2.813057113167634 0 0 0
9518 1 5.048971032085273 42.90604431884897 4.057217066367635 0 0 0
9519 1 5.048971032085273 42.90604431884897 1.568912089767634 0 0 0
9520 1 6.810056824585267 44.15047723084895 5.301362089767634 0 0 0
9521 1 6.81009556808527 46.63959154384894 5.301362089767634 0 0 0
9522 1 5.049009775585269 45.39491014284896 6.545507113167634 0 0 0
9523 1 5.049009775585269 45.39491014284896 4.057217066367635 0 0 0
9524 1 6.81009556808527 46.63959154384894 -7.140135919592366 0 0 1
9525 1 6.81009556808527 49.12870585684895 -7.140135919592366 0 0 1
9526 1 5.049048519085268 47.88402445584894 6.545507113167634 0 0 0
9527 1 6.810018081085271 41.66136291784893 -4.651842886832366 0 0 0
9528 1 6.810018081085271 41.66136291784893 -2.163537910232366 0 0 0
9529 1 6.810056824585267 44.15047723084895 -2.163537910232366 0 0 0
9530 1 5.048971032085273 42.90604431884897 -0.919392886832366 0 0 0
9531 1 5.048971032085273 42.90604431884897 -3.407682933632366 0 0 0
9532 1 6.810056824585267 44.15047723084895 0.3247670663676345 0 0 0
9533 1 6.81009556808527 46.63959154384894 0.3247670663676345 0 0 0
9534 1 5.049009775585269 45.39491014284896 1.568912089767634 0 0 0
9535 1 5.049009775585269 45.39491014284896 -0.919392886832366 0 0 0
9536 1 6.81009556808527 46.63959154384894 2.813057113167634 0 0 0
9537 1 6.81009556808527 49.12870585684895 2.813057113167634 0 0 0
9538 1 5.049048519085268 47.88402445584894 4.057217066367635 0 0 0
9539 1 5.049048519085268 47.88402445584894 1.568912089767634 0 0 0
9540 1 6.81009556808527 49.12870585684895 5.301362089767634 0 0 0
9541 1 6.81009556808527 51.61757168084894 5.301362089767634 0 0 0
9542 1 5.049048519085268 50.37313876884896 6.545507113167634 0 0 0
9543 1 5.049048519085268 50.37313876884896 4.057217066367635 0 0 0
9544 1 6.81009556808527 51.61757168084894 -7.140135919592366 0 0 1
9545 1 6.81009556808527 54.10668599384896 -7.140135919592366 0 0 1
9546 1 5.049048519085268 52.86225308184895 6.545507113167634 0 0 0
9547 1 5.048971032085273 42.90604431884897 -5.895987910232366 0 0 0
9548 1 6.810056824585267 44.15047723084895 -4.651842886832366 0 0 0
9549 1 6.81009556808527 46.63959154384894 -4.651842886832366 0 0 0
9550 1 5.049009775585269 45.39491014284896 -3.407682933632366 0 0 0
9551 1 5.049009775585269 45.39491014284896 -5.895987910232366 0 0 0
9552 1 6.81009556808527 46.63959154384894 -2.163537910232366 0 0 0
9553 1 6.81009556808527 49.12870585684895 -2.163537910232366 0 0 0
9554 1 5.049048519085268 47.88402445584894 -0.919392886832366 0 0 0
9555 1 5.049048519085268 47.88402445584894 -3.407682933632366 0 0 0
9556 1 6.81009556808527 49.12870585684895 0.3247670663676345 0 0 0
9557 1 6.81009556808527 51.61757168084894 0.3247670663676345 0 0 0
9558 1 5.049048519085268 50.37313876884896 1.568912089767634 0 0 0
9559 1 5.049048519085268 50.37313876884896 -0.919392886832366 0 0 0
9560 1 6.81009556808527 51.61757168084894 2.813057113167634 0 0 0
9561 1 6.81009556808527 54.10668599384896 2.813057113167634 0 0 0
9562 1 5.049048519085268 52.86225308184895 4.057217066367635 0 0 0
9563 1 5.049048519085268 52.86225308184895 1.568912089767634 0 0 0
9564 1 6.81009556808527 54.10668599384896 5.301362089767634 0 0 0
9565 1 5.049048519085268 47.88402445584894 -5.895987910232366 0 0 0
9566 1 6.81009556808527 49.12870585684895 -4.651842886832366 0 0 0
9567 1 6.81009556808527 51.61757168084894 -4.651842886832366 0 0 0
9568 1 5.049048519085268 50.37313876884896 -3.407682933632366 0 0 0
9569 1 5.049048519085268 50.37313876884896 -5.895987910232366 0 0 0
9570 1 6.81009556808527 51.61757168084894 -2.163537910232366 0 0 0
9571 1 6.81009556808527 54.10668599384896 -2.163537910232366 0 0 0
9572 1 5.049048519085268 52.86225308184895 -0.919392886832366 0 0 0
9573 1 5.049048519085268 52.86225308184895 -3.407682933632366 0 0 0
9574 1 6.81009556808527 54.10668599384896 0.3247670663676345 0 0 0
9575 1 5.049048519085268 52.86225308184895 -5.895987910232366 0 0 0
9576 1 6.81009556808527 54.10668599384896 -4.651842886832366 0 0 0
9577 1 3.287923983085271 41.66136291784893 5.301362089767634 0 0 0
9578 1 3.287923983085271 41.66136291784893 -7.140135919592366 0 0 1
9579 1 3.28796272658527 44.15047723084895 -7.140135919592366 0 0 1
9580 1 3.287923983085271 41.66136291784893 0.3247670663676345 0 0 0
9581 1 3.287923983085271 41.66136291784893 2.813057113167634 0 0 0
9582 1 3.28796272658527 44.15047723084895 2.813057113167634 0 0 0
9583 1 3.28796272658527 44.15047723084895 5.301362089767634 0 0 0
9584 1 3.28796272658527 46.63959154384894 5.301362089767634 0 0 0
9585 1 3.28796272658527 46.63959154384894 -7.140135919592366 0 0 1
9586 1 3.28796272658527 49.12870585684895 -7.140135919592366 0 0 1
9587 1 3.287923983085271 41.66136291784893 -4.651842886832366 0 0 0
9588 1 3.287923983085271 41.66136291784893 -2.163537910232366 0 0 0
9589 1 3.28796272658527 44.15047723084895 -2.163537910232366 0 0 0
9590 1 3.28796272658527 44.15047723084895 0.3247670663676345 0 0 0
9591 1 3.28796272658527 46.63959154384894 0.3247670663676345 0 0 0
9592 1 3.28796272658527 46.63959154384894 2.813057113167634 0 0 0
9593 1 3.28796272658527 49.12870585684895 2.813057113167634 0 0 0
9594 1 3.28796272658527 49.12870585684895 5.301362089767634 0 0 0
9595 1 3.28800147008527 51.61782016984894 5.301362089767634 0 0 0
9596 1 3.28800147008527 51.61782016984894 -7.140135919592366 0 0 1
9597 1 3.28800147008527 54.10668599384896 -7.140135919592366 0 0 1
9598 1 3.28796272658527 44.15047723084895 -4.651842886832366 0 0 0
9599 1 3.28796272658527 46.63959154384894 -4.651842886832366 0 0 0
9600 1 3.28796272658527 46.63959154384894 -2.163537910232366 0 0 0
9601 1 3.28796272658527 49.12870585684895 -2.163537910232366 0 0 0
9602 1 3.28796272658527 49.12870585684895 0.3247670663676345 0 0 0
9603 1 3.28800147008527 51.61782016984894 0.3247670663676345 0 0 0
9604 1 3.28800147008527 51.61782016984894 2.813057113167634 0 0 0
9605 1 3.28800147008527 54.10668599384896 2.813057113167634 0 0 0
9606 1 3.28800147008527 54.10668599384896 5.301362089767634 0 0 0
9607 1 3.28796272658527 49.12870585684895 -4.651842886832366 0 0 0
9608 1 3.28800147008527 51.61782016984894 -4.651842886832366 0 0 0
9609 1 3.28800147008527 51.61782016984894 -2.163537910232366 0 0 0
9610 1 3.28800147008527 54.10668599384896 -2.163537910232366 0 0 0
9611 1 3.28800147008527 54.10668599384896 0.3247670663676345 0 0 0
9612 1 3.28800147008527 54.10668599384896 -4.651842886832366 0 0 0
9613 1 -16.08382989126473 55.35136739484896 6.545507113167634 1 0 0
9614 1 -16.08382989126473 55.35136739484896 4.057217066367635 1 0 0
9615 1 -16.08381826821473 57.84048170784895 6.545507113167634 1 0 0
9616 1 -16.08382989126473 55.35136739484896 1.568912089767634 1 0 0
9617 1 -16.08382989126473 55.35136739484896 -0.919392886832366 1 0 0
9618 1 -16.08381826821473 57.84048170784895 4.057217066367635 1 0 0
9619 1 -16.08381826821473 57.84048170784895 1.568912089767634 1 0 0
9620 1 -16.08380664516473 60.32934753184897 6.545507113167634 1 0 0
9621 1 -16.08380664516473 60.32934753184897 4.057217066367635 1 0 0
9622 1 -16.08379502211473 62.81846184484893 6.545507113167634 1 0 0
9623 1 -16.08382989126473 55.35136739484896 -3.407682933632366 1 0 0
9624 1 -16.08382989126473 55.35136739484896 -5.895987910232366 1 0 0
9625 1 -16.08381826821473 57.84048170784895 -0.919392886832366 1 0 0
9626 1 -16.08381826821473 57.84048170784895 -3.407682933632366 1 0 0
9627 1 -16.08380664516473 60.32934753184897 1.568912089767634 1 0 0
9628 1 -16.08380664516473 60.32934753184897 -0.919392886832366 1 0 0
9629 1 -16.08379502211473 62.81846184484893 4.057217066367635 1 0 0
9630 1 -16.08379502211473 62.81846184484893 1.568912089767634 1 0 0
9631 1 -16.08378339906473 65.30757615784894 6.545507113167634 1 0 0
9632 1 -16.08378339906473 65.30757615784894 4.057217066367635 1 0 0
9633 1 -16.08377177601473 67.79669047084893 6.545507113167634 1 0 0
9634 1 -16.08381826821473 57.84048170784895 -5.895987910232366 1 0 0
9635 1 -16.08380664516473 60.32934753184897 -3.407682933632366 1 0 0
9636 1 -16.08380664516473 60.32934753184897 -5.895987910232366 1 0 0
9637 1 -16.08379502211473 62.81846184484893 -0.919392886832366 1 0 0
9638 1 -16.08379502211473 62.81846184484893 -3.407682933632366 1 0 0
9639 1 -16.08378339906473 65.30757615784894 1.568912089767634 1 0 0
9640 1 -16.08378339906473 65.30757615784894 -0.919392886832366 1 0 0
9641 1 -16.08377177601473 67.79669047084893 4.057217066367635 1 0 0
9642 1 -16.08377177601473 67.79669047084893 1.568912089767634 1 0 0
9643 1 -16.08379502211473 62.81846184484893 -5.895987910232366 1 0 0
9644 1 -16.08378339906473 65.30757615784894 -3.407682933632366 1 0 0
9645 1 -16.08378339906473 65.30757615784894 -5.895987910232366 1 0 0
9646 1 -16.08377177601473 67.79669047084893 -0.919392886832366 1 0 0
9647 1 -16.08377177601473 67.79669047084893 -3.407682933632366 1 0 0
9648 1 -16.08377177601473 67.79669047084893 -5.895987910232366 1 0 0
9649 1 -17.84489243766473 56.59580030684897 5.301362089767634 1 0 0
9650 1 19.13754114158527 55.35136739484896 6.545507113167634 0 0 0
9651 1 19.13754114158527 55.35136739484896 4.057217066367635 0 0 0
9652 1 -17.84489243766473 56.59580030684897 -7.140135919592366 1 0 1
9653 1 -17.84487694026473 59.08491461984896 -7.140135919592366 1 0 1
9654 1 19.13754114158527 57.84048170784895 6.545507113167634 0 0 0
9655 1 -17.84489243766473 56.59580030684897 0.3247670663676345 1 0 0
9656 1 19.13754114158527 55.35136739484896 1.568912089767634 0 0 0
9657 1 19.13754114158527 55.35136739484896 -0.919392886832366 0 0 0
9658 1 -17.84489243766473 56.59580030684897 2.813057113167634 1 0 0
9659 1 -17.84487694026473 59.08491461984896 2.813057113167634 1 0 0
9660 1 19.13754114158527 57.84048170784895 4.057217066367635 0 0 0
9661 1 19.13754114158527 57.84048170784895 1.568912089767634 0 0 0
9662 1 -17.84487694026473 59.08491461984896 5.301362089767634 1 0 0
9663 1 -17.84486531721473 61.57402893284898 5.301362089767634 1 0 0
9664 1 19.13757988508527 60.32934753184897 6.545507113167634 0 0 0
9665 1 19.13757988508527 60.32934753184897 4.057217066367635 0 0 0
9666 1 -17.84486531721473 61.57402893284898 -7.140135919592366 1 0 1
9667 1 -17.84485369416473 64.06314324584896 -7.140135919592366 1 0 1
9668 1 19.13757988508527 62.81846184484893 6.545507113167634 0 0 0
9669 1 -17.84489243766473 56.59580030684897 -4.651842886832366 1 0 0
9670 1 19.13754114158527 55.35136739484896 -3.407682933632366 0 0 0
9671 1 19.13754114158527 55.35136739484896 -5.895987910232366 0 0 0
9672 1 -17.84489243766473 56.59580030684897 -2.163537910232366 1 0 0
9673 1 -17.84487694026473 59.08491461984896 -2.163537910232366 1 0 0
9674 1 19.13754114158527 57.84048170784895 -0.919392886832366 0 0 0
9675 1 19.13754114158527 57.84048170784895 -3.407682933632366 0 0 0
9676 1 -17.84487694026473 59.08491461984896 0.3247670663676345 1 0 0
9677 1 -17.84486531721473 61.57402893284898 0.3247670663676345 1 0 0
9678 1 19.13757988508527 60.32934753184897 1.568912089767634 0 0 0
9679 1 19.13757988508527 60.32934753184897 -0.919392886832366 0 0 0
9680 1 -17.84486531721473 61.57402893284898 2.813057113167634 1 0 0
9681 1 -17.84485369416473 64.06314324584896 2.813057113167634 1 0 0
9682 1 19.13757988508527 62.81846184484893 4.057217066367635 0 0 0
9683 1 19.13757988508527 62.81846184484893 1.568912089767634 0 0 0
9684 1 -17.84485369416473 64.06314324584896 5.301362089767634 1 0 0
9685 1 -17.84484594546473 66.55200906984895 5.301362089767634 1 0 0
9686 1 19.13757988508527 65.30757615784894 6.545507113167634 0 0 0
9687 1 19.13757988508527 65.30757615784894 4.057217066367635 0 0 0
9688 1 -17.84484594546473 66.55200906984895 -7.140135919592366 1 0 1
9689 1 19.13757988508527 67.79669047084893 6.545507113167634 0 0 0
9690 1 19.13754114158527 57.84048170784895 -5.895987910232366 0 0 0
9691 1 -17.84487694026473 59.08491461984896 -4.651842886832366 1 0 0
9692 1 -17.84486531721473 61.57402893284898 -4.651842886832366 1 0 0
9693 1 19.13757988508527 60.32934753184897 -3.407682933632366 0 0 0
9694 1 19.13757988508527 60.32934753184897 -5.895987910232366 0 0 0
9695 1 -17.84486531721473 61.57402893284898 -2.163537910232366 1 0 0
9696 1 -17.84485369416473 64.06314324584896 -2.163537910232366 1 0 0
9697 1 19.13757988508527 62.81846184484893 -0.919392886832366 0 0 0
9698 1 19.13757988508527 62.81846184484893 -3.407682933632366 0 0 0
9699 1 -17.84485369416473 64.06314324584896 0.3247670663676345 1 0 0
9700 1 -17.84484594546473 66.55200906984895 0.3247670663676345 1 0 0
9701 1 19.13757988508527 65.30757615784894 1.568912089767634 0 0 0
9702 1 19.13757988508527 65.30757615784894 -0.919392886832366 0 0 0
9703 1 -17.84484594546473 66.55200906984895 2.813057113167634 1 0 0
9704 1 19.13757988508527 67.79669047084893 4.057217066367635 0 0 0
9705 1 19.13757988508527 67.79669047084893 1.568912089767634 0 0 0
9706 1 19.13757988508527 62.81846184484893 -5.895987910232366 0 0 0
9707 1 -17.84485369416473 64.06314324584896 -4.651842886832366 1 0 0
9708 1 -17.84484594546473 66.55200906984895 -4.651842886832366 1 0 0
9709 1 19.13757988508527 65.30757615784894 -3.407682933632366 0 0 0
9710 1 19.13757988508527 65.30757615784894 -5.895987910232366 0 0 0
9711 1 -17.84484594546473 66.55200906984895 -2.163537910232366 1 0 0
9712 1 19.13757988508527 67.79669047084893 -0.919392886832366 0 0 0
9713 1 19.13757988508527 67.79669047084893 -3.407682933632366 0 0 0
9714 1 19.13757988508527 67.79669047084893 -5.895987910232366 0 0 0
9715 1 17.37649409258527 56.59580030684897 5.301362089767634 0 0 0
9716 1 15.61540830008527 55.35136739484896 6.545507113167634 0 0 0
9717 1 15.61540830008527 55.35136739484896 4.057217066367635 0 0 0
9718 1 17.37649409258527 56.59580030684897 -7.140135919592366 0 0 1
9719 1 17.37649409258527 59.08491461984896 -7.140135919592366 0 0 1
9720 1 15.61540830008527 57.84048170784895 6.545507113167634 0 0 0
9721 1 17.37649409258527 56.59580030684897 0.3247670663676345 0 0 0
9722 1 15.61540830008527 55.35136739484896 1.568912089767634 0 0 0
9723 1 15.61540830008527 55.35136739484896 -0.919392886832366 0 0 0
9724 1 17.37649409258527 56.59580030684897 2.813057113167634 0 0 0
9725 1 17.37649409258527 59.08491461984896 2.813057113167634 0 0 0
9726 1 15.61540830008527 57.84048170784895 4.057217066367635 0 0 0
9727 1 15.61540830008527 57.84048170784895 1.568912089767634 0 0 0
9728 1 17.37649409258527 59.08491461984896 5.301362089767634 0 0 0
9729 1 17.37649409258527 61.57402893284898 5.301362089767634 0 0 0
9730 1 15.61544704358527 60.32934753184897 6.545507113167634 0 0 0
9731 1 15.61544704358527 60.32934753184897 4.057217066367635 0 0 0
9732 1 17.37649409258527 61.57402893284898 -7.140135919592366 0 0 1
9733 1 17.37649409258527 64.06314324584896 -7.140135919592366 0 0 1
9734 1 15.61544704358527 62.81846184484893 6.545507113167634 0 0 0
9735 1 17.37649409258527 56.59580030684897 -4.651842886832366 0 0 0
9736 1 15.61540830008527 55.35136739484896 -3.407682933632366 0 0 0
9737 1 15.61540830008527 55.35136739484896 -5.895987910232366 0 0 0
9738 1 17.37649409258527 56.59580030684897 -2.163537910232366 0 0 0
9739 1 17.37649409258527 59.08491461984896 -2.163537910232366 0 0 0
9740 1 15.61540830008527 57.84048170784895 -0.919392886832366 0 0 0
9741 1 15.61540830008527 57.84048170784895 -3.407682933632366 0 0 0
9742 1 17.37649409258527 59.08491461984896 0.3247670663676345 0 0 0
9743 1 17.37649409258527 61.57402893284898 0.3247670663676345 0 0 0
9744 1 15.61544704358527 60.32934753184897 1.568912089767634 0 0 0
9745 1 15.61544704358527 60.32934753184897 -0.919392886832366 0 0 0
9746 1 17.37649409258527 61.57402893284898 2.813057113167634 0 0 0
9747 1 17.37649409258527 64.06314324584896 2.813057113167634 0 0 0
9748 1 15.61544704358527 62.81846184484893 4.057217066367635 0 0 0
9749 1 15.61544704358527 62.81846184484893 1.568912089767634 0 0 0
9750 1 17.37649409258527 64.06314324584896 5.301362089767634 0 0 0
9751 1 17.37653283608526 66.55200906984895 5.301362089767634 0 0 0
9752 1 15.61544704358527 65.30757615784894 6.545507113167634 0 0 0
9753 1 15.61544704358527 65.30757615784894 4.057217066367635 0 0 0
9754 1 17.37653283608526 66.55200906984895 -7.140135919592366 0 0 1
9755 1 15.61544704358527 67.79669047084893 6.545507113167634 0 0 0
9756 1 15.61540830008527 57.84048170784895 -5.895987910232366 0 0 0
9757 1 17.37649409258527 59.08491461984896 -4.651842886832366 0 0 0
9758 1 17.37649409258527 61.57402893284898 -4.651842886832366 0 0 0
9759 1 15.61544704358527 60.32934753184897 -3.407682933632366 0 0 0
9760 1 15.61544704358527 60.32934753184897 -5.895987910232366 0 0 0
9761 1 17.37649409258527 61.57402893284898 -2.163537910232366 0 0 0
9762 1 17.37649409258527 64.06314324584896 -2.163537910232366 0 0 0
9763 1 15.61544704358527 62.81846184484893 -0.919392886832366 0 0 0
9764 1 15.61544704358527 62.81846184484893 -3.407682933632366 0 0 0
9765 1 17.37649409258527 64.06314324584896 0.3247670663676345 0 0 0
9766 1 17.37653283608526 66.55200906984895 0.3247670663676345 0 0 0
9767 1 15.61544704358527 65.30757615784894 1.568912089767634 0 0 0
9768 1 15.61544704358527 65.30757615784894 -0.919392886832366 0 0 0
9769 1 17.37653283608526 66.55200906984895 2.813057113167634 0 0 0
9770 1 15.61544704358527 67.79669047084893 4.057217066367635 0 0 0
9771 1 15.61544704358527 67.79669047084893 1.568912089767634 0 0 0
9772 1 15.61544704358527 62.81846184484893 -5.895987910232366 0 0 0
9773 1 17.37649409258527 64.06314324584896 -4.651842886832366 0 0 0
9774 1 17.37653283608526 66.55200906984895 -4.651842886832366 0 0 0
9775 1 15.61544704358527 65.30757615784894 -3.407682933632366 0 0 0
9776 1 15.61544704358527 65.30757615784894 -5.895987910232366 0 0 0
9777 1 17.37653283608526 66.55200906984895 -2.163537910232366 0 0 0
9778 1 15.61544704358527 67.79669047084893 -0.919392886832366 0 0 0
9779 1 15.61544704358527 67.79669047084893 -3.407682933632366 0 0 0
9780 1 15.61544704358527 67.79669047084893 -5.895987910232366 0 0 0
9781 1 13.85436125108527 56.59580030684897 5.301362089767634 0 0 0
9782 1 12.09331420208527 55.35136739484896 6.545507113167634 0 0 0
9783 1 12.09331420208527 55.35136739484896 4.057217066367635 0 0 0
9784 1 13.85436125108527 56.59580030684897 -7.140135919592366 0 0 1
9785 1 13.85436125108527 59.08491461984896 -7.140135919592366 0 0 1
9786 1 12.09331420208527 57.84048170784895 6.545507113167634 0 0 0
9787 1 13.85436125108527 56.59580030684897 0.3247670663676345 0 0 0
9788 1 12.09331420208527 55.35136739484896 1.568912089767634 0 0 0
9789 1 12.09331420208527 55.35136739484896 -0.919392886832366 0 0 0
9790 1 13.85436125108527 56.59580030684897 2.813057113167634 0 0 0
9791 1 13.85436125108527 59.08491461984896 2.813057113167634 0 0 0
9792 1 12.09331420208527 57.84048170784895 4.057217066367635 0 0 0
9793 1 12.09331420208527 57.84048170784895 1.568912089767634 0 0 0
9794 1 13.85436125108527 59.08491461984896 5.301362089767634 0 0 0
9795 1 13.85436125108527 61.57402893284898 5.301362089767634 0 0 0
9796 1 12.09331420208527 60.32934753184897 6.545507113167634 0 0 0
9797 1 12.09331420208527 60.32934753184897 4.057217066367635 0 0 0
9798 1 13.85436125108527 61.57402893284898 -7.140135919592366 0 0 1
9799 1 13.85439999458527 64.06314324584896 -7.140135919592366 0 0 1
9800 1 12.09331420208527 62.81846184484893 6.545507113167634 0 0 0
9801 1 13.85436125108527 56.59580030684897 -4.651842886832366 0 0 0
9802 1 12.09331420208527 55.35136739484896 -3.407682933632366 0 0 0
9803 1 12.09331420208527 55.35136739484896 -5.895987910232366 0 0 0
9804 1 13.85436125108527 56.59580030684897 -2.163537910232366 0 0 0
9805 1 13.85436125108527 59.08491461984896 -2.163537910232366 0 0 0
9806 1 12.09331420208527 57.84048170784895 -0.919392886832366 0 0 0
9807 1 12.09331420208527 57.84048170784895 -3.407682933632366 0 0 0
9808 1 13.85436125108527 59.08491461984896 0.3247670663676345 0 0 0
9809 1 13.85436125108527 61.57402893284898 0.3247670663676345 0 0 0
9810 1 12.09331420208527 60.32934753184897 1.568912089767634 0 0 0
9811 1 12.09331420208527 60.32934753184897 -0.919392886832366 0 0 0
9812 1 13.85436125108527 61.57402893284898 2.813057113167634 0 0 0
9813 1 13.85439999458527 64.06314324584896 2.813057113167634 0 0 0
9814 1 12.09331420208527 62.81846184484893 4.057217066367635 0 0 0
9815 1 12.09331420208527 62.81846184484893 1.568912089767634 0 0 0
9816 1 13.85439999458527 64.06314324584896 5.301362089767634 0 0 0
9817 1 13.85439999458527 66.55200906984895 5.301362089767634 0 0 0
9818 1 12.09331420208527 65.30757615784894 6.545507113167634 0 0 0
9819 1 12.09331420208527 65.30757615784894 4.057217066367635 0 0 0
9820 1 13.85439999458527 66.55200906984895 -7.140135919592366 0 0 1
9821 1 12.09331420208527 67.79669047084893 6.545507113167634 0 0 0
9822 1 12.09331420208527 57.84048170784895 -5.895987910232366 0 0 0
9823 1 13.85436125108527 59.08491461984896 -4.651842886832366 0 0 0
9824 1 13.85436125108527 61.57402893284898 -4.651842886832366 0 0 0
9825 1 12.09331420208527 60.32934753184897 -3.407682933632366 0 0 0
9826 1 12.09331420208527 60.32934753184897 -5.895987910232366 0 0 0
9827 1 13.85436125108527 61.57402893284898 -2.163537910232366 0 0 0
9828 1 13.85439999458527 64.06314324584896 -2.163537910232366 0 0 0
9829 1 12.09331420208527 62.81846184484893 -0.919392886832366 0 0 0
9830 1 12.09331420208527 62.81846184484893 -3.407682933632366 0 0 0
9831 1 13.85439999458527 64.06314324584896 0.3247670663676345 0 0 0
9832 1 13.85439999458527 66.55200906984895 0.3247670663676345 0 0 0
9833 1 12.09331420208527 65.30757615784894 1.568912089767634 0 0 0
9834 1 12.09331420208527 65.30757615784894 -0.919392886832366 0 0 0
9835 1 13.85439999458527 66.55200906984895 2.813057113167634 0 0 0
9836 1 12.09331420208527 67.79669047084893 4.057217066367635 0 0 0
9837 1 12.09331420208527 67.79669047084893 1.568912089767634 0 0 0
9838 1 12.09331420208527 62.81846184484893 -5.895987910232366 0 0 0
9839 1 13.85439999458527 64.06314324584896 -4.651842886832366 0 0 0
9840 1 13.85439999458527 66.55200906984895 -4.651842886832366 0 0 0
9841 1 12.09331420208527 65.30757615784894 -3.407682933632366 0 0 0
9842 1 12.09331420208527 65.30757615784894 -5.895987910232366 0 0 0
9843 1 13.85439999458527 66.55200906984895 -2.163537910232366 0 0 0
9844 1 12.09331420208527 67.79669047084893 -0.919392886832366 0 0 0
9845 1 12.09331420208527 67.79669047084893 -3.407682933632366 0 0 0
9846 1 12.09331420208527 67.79669047084893 -5.895987910232366 0 0 0
9847 1 10.33222840958527 56.59580030684897 5.301362089767634 0 0 0
9848 1 8.571181360585271 55.35136739484896 6.545507113167634 0 0 0
9849 1 8.571181360585271 55.35136739484896 4.057217066367635 0 0 0
9850 1 10.33222840958527 56.59580030684897 -7.140135919592366 0 0 1
9851 1 10.33222840958527 59.08491461984896 -7.140135919592366 0 0 1
9852 1 8.571181360585271 57.84048170784895 6.545507113167634 0 0 0
9853 1 10.33222840958527 56.59580030684897 0.3247670663676345 0 0 0
9854 1 8.571181360585271 55.35136739484896 1.568912089767634 0 0 0
9855 1 8.571181360585271 55.35136739484896 -0.919392886832366 0 0 0
9856 1 10.33222840958527 56.59580030684897 2.813057113167634 0 0 0
9857 1 10.33222840958527 59.08491461984896 2.813057113167634 0 0 0
9858 1 8.571181360585271 57.84048170784895 4.057217066367635 0 0 0
9859 1 8.571181360585271 57.84048170784895 1.568912089767634 0 0 0
9860 1 10.33222840958527 59.08491461984896 5.301362089767634 0 0 0
9861 1 10.33226715308527 61.57402893284898 5.301362089767634 0 0 0
9862 1 8.571181360585271 60.32934753184897 6.545507113167634 0 0 0
9863 1 8.571181360585271 60.32934753184897 4.057217066367635 0 0 0
9864 1 10.33226715308527 61.57402893284898 -7.140135919592366 0 0 1
9865 1 10.33226715308527 64.06314324584896 -7.140135919592366 0 0 1
9866 1 8.571181360585271 62.81846184484893 6.545507113167634 0 0 0
9867 1 10.33222840958527 56.59580030684897 -4.651842886832366 0 0 0
9868 1 8.571181360585271 55.35136739484896 -3.407682933632366 0 0 0
9869 1 8.571181360585271 55.35136739484896 -5.895987910232366 0 0 0
9870 1 10.33222840958527 56.59580030684897 -2.163537910232366 0 0 0
9871 1 10.33222840958527 59.08491461984896 -2.163537910232366 0 0 0
9872 1 8.571181360585271 57.84048170784895 -0.919392886832366 0 0 0
9873 1 8.571181360585271 57.84048170784895 -3.407682933632366 0 0 0
9874 1 10.33222840958527 59.08491461984896 0.3247670663676345 0 0 0
9875 1 10.33226715308527 61.57402893284898 0.3247670663676345 0 0 0
9876 1 8.571181360585271 60.32934753184897 1.568912089767634 0 0 0
9877 1 8.571181360585271 60.32934753184897 -0.919392886832366 0 0 0
9878 1 10.33226715308527 61.57402893284898 2.813057113167634 0 0 0
9879 1 10.33226715308527 64.06314324584896 2.813057113167634 0 0 0
9880 1 8.571181360585271 62.81846184484893 4.057217066367635 0 0 0
9881 1 8.571181360585271 62.81846184484893 1.568912089767634 0 0 0
9882 1 10.33226715308527 64.06314324584896 5.301362089767634 0 0 0
9883 1 10.33226715308527 66.55200906984895 5.301362089767634 0 0 0
9884 1 8.571181360585271 65.30757615784894 6.545507113167634 0 0 0
9885 1 8.571181360585271 65.30757615784894 4.057217066367635 0 0 0
9886 1 10.33226715308527 66.55200906984895 -7.140135919592366 0 0 1
9887 1 8.571181360585271 67.79669047084893 6.545507113167634 0 0 0
9888 1 8.571181360585271 57.84048170784895 -5.895987910232366 0 0 0
9889 1 10.33222840958527 59.08491461984896 -4.651842886832366 0 0 0
9890 1 10.33226715308527 61.57402893284898 -4.651842886832366 0 0 0
9891 1 8.571181360585271 60.32934753184897 -3.407682933632366 0 0 0
9892 1 8.571181360585271 60.32934753184897 -5.895987910232366 0 0 0
9893 1 10.33226715308527 61.57402893284898 -2.163537910232366 0 0 0
9894 1 10.33226715308527 64.06314324584896 -2.163537910232366 0 0 0
9895 1 8.571181360585271 62.81846184484893 -0.919392886832366 0 0 0
9896 1 8.571181360585271 62.81846184484893 -3.407682933632366 0 0 0
9897 1 10.33226715308527 64.06314324584896 0.3247670663676345 0 0 0
9898 1 10.33226715308527 66.55200906984895 0.3247670663676345 0 0 0
9899 1 8.571181360585271 65.30757615784894 1.568912089767634 0 0 0
9900 1 8.571181360585271 65.30757615784894 -0.919392886832366 0 0 0
9901 1 10.33226715308527 66.55200906984895 2.813057113167634 0 0 0
9902 1 8.571181360585271 67.79669047084893 4.057217066367635 0 0 0
9903 1 8.571181360585271 67.79669047084893 1.568912089767634 0 0 0
9904 1 8.571181360585271 62.81846184484893 -5.895987910232366 0 0 0
9905 1 10.33226715308527 64.06314324584896 -4.651842886832366 0 0 0
9906 1 10.33226715308527 66.55200906984895 -4.651842886832366 0 0 0
9907 1 8.571181360585271 65.30757615784894 -3.407682933632366 0 0 0
9908 1 8.571181360585271 65.30757615784894 -5.895987910232366 0 0 0
9909 1 10.33226715308527 66.55200906984895 -2.163537910232366 0 0 0
9910 1 8.571181360585271 67.79669047084893 -0.919392886832366 0 0 0
9911 1 8.571181360585271 67.79669047084893 -3.407682933632366 0 0 0
9912 1 8.571181360585271 67.79669047084893 -5.895987910232366 0 0 0
9913 1 6.810134311585269 56.59580030684897 5.301362089767634 0 0 0
9914 1 5.049048519085268 55.35136739484896 6.545507113167634 0 0 0
9915 1 5.049048519085268 55.35136739484896 4.057217066367635 0 0 0
9916 1 6.810134311585269 56.59580030684897 -7.140135919592366 0 0 1
9917 1 6.810134311585269 59.08491461984896 -7.140135919592366 0 0 1
9918 1 5.049048519085268 57.84048170784895 6.545507113167634 0 0 0
9919 1 6.810134311585269 56.59580030684897 0.3247670663676345 0 0 0
9920 1 5.049048519085268 55.35136739484896 1.568912089767634 0 0 0
9921 1 5.049048519085268 55.35136739484896 -0.919392886832366 0 0 0
9922 1 6.810134311585269 56.59580030684897 2.813057113167634 0 0 0
9923 1 6.810134311585269 59.08491461984896 2.813057113167634 0 0 0
9924 1 5.049048519085268 57.84048170784895 4.057217066367635 0 0 0
9925 1 5.049048519085268 57.84048170784895 1.568912089767634 0 0 0
9926 1 6.810134311585269 59.08491461984896 5.301362089767634 0 0 0
9927 1 6.810134311585269 61.57402893284898 5.301362089767634 0 0 0
9928 1 5.049048519085268 60.32934753184897 6.545507113167634 0 0 0
9929 1 5.049048519085268 60.32934753184897 4.057217066367635 0 0 0
9930 1 6.810134311585269 61.57402893284898 -7.140135919592366 0 0 1
9931 1 6.810134311585269 64.06314324584896 -7.140135919592366 0 0 1
9932 1 5.049048519085268 62.81846184484893 6.545507113167634 0 0 0
9933 1 6.810134311585269 56.59580030684897 -4.651842886832366 0 0 0
9934 1 5.049048519085268 55.35136739484896 -3.407682933632366 0 0 0
9935 1 5.049048519085268 55.35136739484896 -5.895987910232366 0 0 0
9936 1 6.810134311585269 56.59580030684897 -2.163537910232366 0 0 0
9937 1 6.810134311585269 59.08491461984896 -2.163537910232366 0 0 0
9938 1 5.049048519085268 57.84048170784895 -0.919392886832366 0 0 0
9939 1 5.049048519085268 57.84048170784895 -3.407682933632366 0 0 0
9940 1 6.810134311585269 59.08491461984896 0.3247670663676345 0 0 0
9941 1 6.810134311585269 61.57402893284898 0.3247670663676345 0 0 0
9942 1 5.049048519085268 60.32934753184897 1.568912089767634 0 0 0
9943 1 5.049048519085268 60.32934753184897 -0.919392886832366 0 0 0
9944 1 6.810134311585269 61.57402893284898 2.813057113167634 0 0 0
9945 1 6.810134311585269 64.06314324584896 2.813057113167634 0 0 0
9946 1 5.049048519085268 62.81846184484893 4.057217066367635 0 0 0
9947 1 5.049048519085268 62.81846184484893 1.568912089767634 0 0 0
9948 1 6.810134311585269 64.06314324584896 5.301362089767634 0 0 0
9949 1 6.810134311585269 66.55200906984895 5.301362089767634 0 0 0
9950 1 5.049048519085268 65.30757615784894 6.545507113167634 0 0 0
9951 1 5.049048519085268 65.30757615784894 4.057217066367635 0 0 0
9952 1 6.810134311585269 66.55200906984895 -7.140135919592366 0 0 1
9953 1 5.049048519085268 67.79669047084893 6.545507113167634 0 0 0
9954 1 5.049048519085268 57.84048170784895 -5.895987910232366 0 0 0
9955 1 6.810134311585269 59.08491461984896 -4.651842886832366 0 0 0
9956 1 6.810134311585269 61.57402893284898 -4.651842886832366 0 0 0
9957 1 5.049048519085268 60.32934753184897 -3.407682933632366 0 0 0
9958 1 5.049048519085268 60.32934753184897 -5.895987910232366 0 0 0
9959 1 6.810134311585269 61.57402893284898 -2.163537910232366 0 0 0
9960 1 6.810134311585269 64.06314324584896 -2.163537910232366 0 0 0
9961 1 5.049048519085268 62.81846184484893 -0.919392886832366 0 0 0
9962 1 5.049048519085268 62.81846184484893 -3.407682933632366 0 0 0
9963 1 6.810134311585269 64.06314324584896 0.3247670663676345 0 0 0
9964 1 6.810134311585269 66.55200906984895 0.3247670663676345 0 0 0
9965 1 5.049048519085268 65.30757615784894 1.568912089767634 0 0 0
9966 1 5.049048519085268 65.30757615784894 -0.919392886832366 0 0 0
9967 1 6.810134311585269 66.55200906984895 2.813057113167634 0 0 0
9968 1 5.049048519085268 67.79669047084893 4.057217066367635 0 0 0
9969 1 5.049048519085268 67.79669047084893 1.568912089767634 0 0 0
9970 1 5.049048519085268 62.81846184484893 -5.895987910232366 0 0 0
9971 1 6.810134311585269 64.06314324584896 -4.651842886832366 0 0 0
9972 1 6.810134311585269 66.55200906984895 -4.651842886832366 0 0 0
9973 1 5.049048519085268 65.30757615784894 -3.407682933632366 0 0 0
9974 1 5.049048519085268 65.30757615784894 -5.895987910232366 0 0 0
9975 1 6.810134311585269 66.55200906984895 -2.163537910232366 0 0 0
9976 1 5.049048519085268 67.79669047084893 -0.919392886832366 0 0 0
9977 1 5.049048519085268 67.79669047084893 -3.407682933632366 0 0 0
9978 1 5.049048519085268 67.79669047084893 -5.895987910232366 0 0 0
9979 1 3.28800147008527 56.59580030684897 5.301362089767634 0 0 0
9980 1 3.28800147008527 56.59580030684897 -7.140135919592366 0 0 1
9981 1 3.28800147008527 59.08491461984896 -7.140135919592366 0 0 1
9982 1 3.28800147008527 56.59580030684897 0.3247670663676345 0 0 0
9983 1 3.28800147008527 56.59580030684897 2.813057113167634 0 0 0
9984 1 3.28800147008527 59.08491461984896 2.813057113167634 0 0 0
9985 1 3.28800147008527 59.08491461984896 5.301362089767634 0 0 0
9986 1 3.28800147008527 61.57402893284898 5.301362089767634 0 0 0
9987 1 3.28800147008527 61.57402893284898 -7.140135919592366 0 0 1
9988 1 3.28800147008527 64.06314324584896 -7.140135919592366 0 0 1
9989 1 3.28800147008527 56.59580030684897 -4.651842886832366 0 0 0
9990 1 3.28800147008527 56.59580030684897 -2.163537910232366 0 0 0
9991 1 3.28800147008527 59.08491461984896 -2.163537910232366 0 0 0
9992 1 3.28800147008527 59.08491461984896 0.3247670663676345 0 0 0
9993 1 3.28800147008527 61.57402893284898 0.3247670663676345 0 0 0
9994 1 3.28800147008527 61.57402893284898 2.813057113167634 0 0 0
9995 1 3.28800147008527 64.06314324584896 2.813057113167634 0 0 0
9996 1 3.28800147008527 64.06314324584896 5.301362089767634 0 0 0
9997 1 3.28800147008527 66.55200906984895 5.301362089767634 0 0 0
9998 1 3.28800147008527 66.55200906984895 -7.140135919592366 0 0 1
9999 1 3.28800147008527 59.08491461984896 -4.651842886832366 0 0 0
10000 1 3.28800147008527 61.57402893284898 -4.651842886832366 0 0 0
10001 1 3.28800147008527 61.57402893284898 -2.163537910232366 0 0 0
10002 1 3.28800147008527 64.06314324584896 -2.163537910232366 0 0 0
10003 1 3.28800147008527 64.06314324584896 0.3247670663676345 0 0 0
10004 1 3.28800147008527 66.55200906984895 0.3247670663676345 0 0 0
10005 1 3.28800147008527 66.55200906984895 2.813057113167634 0 0 0
10006 1 3.28800147008527 64.06314324584896 -4.651842886832366 0 0 0
10007 1 3.28800147008527 66.55200906984895 -4.651842886832366 0 0 0
10008 1 3.28800147008527 66.55200906984895 -2.163537910232366 0 0 0
10009 1 -16.08376402731473 70.28580478384895 6.545507113167634 1 0 0
10010 1 -16.08376402731473 70.28580478384895 4.057217066367635 1 0 0
10011 1 -16.08375627861473 72.77467060784896 6.545507113167634 1 0 0
10012 1 -16.08376402731473 70.28580478384895 1.568912089767634 1 0 0
10013 1 -16.08376402731473 70.28580478384895 -0.919392886832366 1 0 0
10014 1 -16.08375627861473 72.77467060784896 4.057217066367635 1 0 0
10015 1 -16.08375627861473 72.77467060784896 1.568912089767634 1 0 0
10016 1 -16.08374852991473 75.26378492084895 6.545507113167634 1 0 0
10017 1 -16.08374852991473 75.26378492084895 4.057217066367635 1 0 0
10018 1 -16.08374078121473 77.75289923384896 6.545507113167634 1 0 0
10019 1 -16.08376402731473 70.28580478384895 -3.407682933632366 1 0 0
10020 1 -16.08376402731473 70.28580478384895 -5.895987910232366 1 0 0
10021 1 -16.08375627861473 72.77467060784896 -0.919392886832366 1 0 0
10022 1 -16.08375627861473 72.77467060784896 -3.407682933632366 1 0 0
10023 1 -16.08374852991473 75.26378492084895 1.568912089767634 1 0 0
10024 1 -16.08374852991473 75.26378492084895 -0.919392886832366 1 0 0
10025 1 -16.08374078121473 77.75289923384896 4.057217066367635 1 0 0
10026 1 -16.08374078121473 77.75289923384896 1.568912089767634 1 0 0
10027 1 -16.08373690686473 80.24201354684895 6.545507113167634 1 0 0
10028 1 -16.08373690686473 80.24201354684895 4.057217066367635 1 0 0
10029 1 -16.08375627861473 72.77467060784896 -5.895987910232366 1 0 0
10030 1 -16.08374852991473 75.26378492084895 -3.407682933632366 1 0 0
10031 1 -16.08374852991473 75.26378492084895 -5.895987910232366 1 0 0
10032 1 -16.08374078121473 77.75289923384896 -0.919392886832366 1 0 0
10033 1 -16.08374078121473 77.75289923384896 -3.407682933632366 1 0 0
10034 1 -16.08373690686473 80.24201354684895 1.568912089767634 1 0 0
10035 1 -16.08373690686473 80.24201354684895 -0.919392886832366 1 0 0
10036 1 -16.08374078121473 77.75289923384896 -5.895987910232366 1 0 0
10037 1 -16.08373690686473 80.24201354684895 -3.407682933632366 1 0 0
10038 1 -16.08373690686473 80.24201354684895 -5.895987910232366 1 0 0
10039 1 -17.84483432241473 69.04112338284894 -7.140135919592366 1 0 1
10040 1 -17.84483432241473 69.04112338284894 2.813057113167634 1 0 0
10041 1 -17.84483432241473 69.04112338284894 5.301362089767634 1 0 0
10042 1 -17.84482657371473 71.53023769584895 5.301362089767634 1 0 0
10043 1 19.13761862858527 70.28580478384895 6.545507113167634 0 0 0
10044 1 19.13761862858527 70.28580478384895 4.057217066367635 0 0 0
10045 1 -17.84482657371473 71.53023769584895 -7.140135919592366 1 0 1
10046 1 -17.84481882501473 74.01935200884894 -7.140135919592366 1 0 1
10047 1 19.13761862858527 72.77467060784896 6.545507113167634 0 0 0
10048 1 -17.84483432241473 69.04112338284894 -2.163537910232366 1 0 0
10049 1 -17.84483432241473 69.04112338284894 0.3247670663676345 1 0 0
10050 1 -17.84482657371473 71.53023769584895 0.3247670663676345 1 0 0
10051 1 19.13761862858527 70.28580478384895 1.568912089767634 0 0 0
10052 1 19.13761862858527 70.28580478384895 -0.919392886832366 0 0 0
10053 1 -17.84482657371473 71.53023769584895 2.813057113167634 1 0 0
10054 1 -17.84481882501473 74.01935200884894 2.813057113167634 1 0 0
10055 1 19.13761862858527 72.77467060784896 4.057217066367635 0 0 0
10056 1 19.13761862858527 72.77467060784896 1.568912089767634 0 0 0
10057 1 -17.84481882501473 74.01935200884894 5.301362089767634 1 0 0
10058 1 -17.84481495066473 76.50846632184896 5.301362089767634 1 0 0
10059 1 19.13761862858527 75.26378492084895 6.545507113167634 0 0 0
10060 1 19.13761862858527 75.26378492084895 4.057217066367635 0 0 0
10061 1 -17.84481495066473 76.50846632184896 -7.140135919592366 1 0 1
10062 1 -17.84480720196473 78.99758063484894 -7.140135919592366 1 0 1
10063 1 19.13761862858527 77.75289923384896 6.545507113167634 0 0 0
10064 1 -17.84483432241473 69.04112338284894 -4.651842886832366 1 0 0
10065 1 -17.84482657371473 71.53023769584895 -4.651842886832366 1 0 0
10066 1 19.13761862858527 70.28580478384895 -3.407682933632366 0 0 0
10067 1 19.13761862858527 70.28580478384895 -5.895987910232366 0 0 0
10068 1 -17.84482657371473 71.53023769584895 -2.163537910232366 1 0 0
10069 1 -17.84481882501473 74.01935200884894 -2.163537910232366 1 0 0
10070 1 19.13761862858527 72.77467060784896 -0.919392886832366 0 0 0
10071 1 19.13761862858527 72.77467060784896 -3.407682933632366 0 0 0
10072 1 -17.84481882501473 74.01935200884894 0.3247670663676345 1 0 0
10073 1 -17.84481495066473 76.50846632184896 0.3247670663676345 1 0 0
10074 1 19.13761862858527 75.26378492084895 1.568912089767634 0 0 0
10075 1 19.13761862858527 75.26378492084895 -0.919392886832366 0 0 0
10076 1 -17.84481495066473 76.50846632184896 2.813057113167634 1 0 0
10077 1 -17.84480720196473 78.99758063484894 2.813057113167634 1 0 0
10078 1 19.13761862858527 77.75289923384896 4.057217066367635 0 0 0
10079 1 19.13761862858527 77.75289923384896 1.568912089767634 0 0 0
10080 1 -17.84480720196473 78.99758063484894 5.301362089767634 1 0 0
10081 1 -17.84479945326473 81.48644645884896 5.301362089767634 1 0 0
10082 1 19.13761862858527 80.24201354684895 6.545507113167634 0 0 0
10083 1 19.13761862858527 80.24201354684895 4.057217066367635 0 0 0
10084 1 -17.84479945326473 81.48644645884896 -7.140135919592366 1 0 1
10085 1 19.13761862858527 72.77467060784896 -5.895987910232366 0 0 0
10086 1 -17.84481882501473 74.01935200884894 -4.651842886832366 1 0 0
10087 1 -17.84481495066473 76.50846632184896 -4.651842886832366 1 0 0
10088 1 19.13761862858527 75.26378492084895 -3.407682933632366 0 0 0
10089 1 19.13761862858527 75.26378492084895 -5.895987910232366 0 0 0
10090 1 -17.84481495066473 76.50846632184896 -2.163537910232366 1 0 0
10091 1 -17.84480720196473 78.99758063484894 -2.163537910232366 1 0 0
10092 1 19.13761862858527 77.75289923384896 -0.919392886832366 0 0 0
10093 1 19.13761862858527 77.75289923384896 -3.407682933632366 0 0 0
10094 1 -17.84480720196473 78.99758063484894 0.3247670663676345 1 0 0
10095 1 -17.84479945326473 81.48644645884896 0.3247670663676345 1 0 0
10096 1 19.13761862858527 80.24201354684895 1.568912089767634 0 0 0
10097 1 19.13761862858527 80.24201354684895 -0.919392886832366 0 0 0
10098 1 -17.84479945326473 81.48644645884896 2.813057113167634 1 0 0
10099 1 19.13761862858527 77.75289923384896 -5.895987910232366 0 0 0
10100 1 -17.84480720196473 78.99758063484894 -4.651842886832366 1 0 0
10101 1 -17.84479945326473 81.48644645884896 -4.651842886832366 1 0 0
10102 1 19.13761862858527 80.24201354684895 -3.407682933632366 0 0 0
10103 1 19.13761862858527 80.24201354684895 -5.895987910232366 0 0 0
10104 1 -17.84479945326473 81.48644645884896 -2.163537910232366 1 0 0
10105 1 17.37653283608526 69.04112338284894 -7.140135919592366 0 0 1
10106 1 17.37653283608526 69.04112338284894 2.813057113167634 0 0 0
10107 1 17.37653283608526 69.04112338284894 5.301362089767634 0 0 0
10108 1 17.37653283608526 71.53023769584895 5.301362089767634 0 0 0
10109 1 15.61544704358527 70.28580478384895 6.545507113167634 0 0 0
10110 1 15.61544704358527 70.28580478384895 4.057217066367635 0 0 0
10111 1 17.37653283608526 71.53023769584895 -7.140135919592366 0 0 1
10112 1 17.37653283608526 74.01935200884894 -7.140135919592366 0 0 1
10113 1 15.61548578708527 72.77467060784896 6.545507113167634 0 0 0
10114 1 17.37653283608526 69.04112338284894 -2.163537910232366 0 0 0
10115 1 17.37653283608526 69.04112338284894 0.3247670663676345 0 0 0
10116 1 17.37653283608526 71.53023769584895 0.3247670663676345 0 0 0
10117 1 15.61544704358527 70.28580478384895 1.568912089767634 0 0 0
10118 1 15.61544704358527 70.28580478384895 -0.919392886832366 0 0 0
10119 1 17.37653283608526 71.53023769584895 2.813057113167634 0 0 0
10120 1 17.37653283608526 74.01935200884894 2.813057113167634 0 0 0
10121 1 15.61548578708527 72.77467060784896 4.057217066367635 0 0 0
10122 1 15.61548578708527 72.77467060784896 1.568912089767634 0 0 0
10123 1 17.37653283608526 74.01935200884894 5.301362089767634 0 0 0
10124 1 17.37653283608526 76.50846632184896 5.301362089767634 0 0 0
10125 1 15.61548578708527 75.26378492084895 6.545507113167634 0 0 0
10126 1 15.61548578708527 75.26378492084895 4.057217066367635 0 0 0
10127 1 17.37653283608526 76.50846632184896 -7.140135919592366 0 0 1
10128 1 17.37657157958527 78.99758063484894 -7.140135919592366 0 0 1
10129 1 15.61548578708527 77.75289923384896 6.545507113167634 0 0 0
10130 1 17.37653283608526 69.04112338284894 -4.651842886832366 0 0 0
10131 1 17.37653283608526 71.53023769584895 -4.651842886832366 0 0 0
10132 1 15.61544704358527 70.28580478384895 -3.407682933632366 0 0 0
10133 1 15.61544704358527 70.28580478384895 -5.895987910232366 0 0 0
10134 1 17.37653283608526 71.53023769584895 -2.163537910232366 0 0 0
10135 1 17.37653283608526 74.01935200884894 -2.163537910232366 0 0 0
10136 1 15.61548578708527 72.77467060784896 -0.919392886832366 0 0 0
10137 1 15.61548578708527 72.77467060784896 -3.407682933632366 0 0 0
10138 1 17.37653283608526 74.01935200884894 0.3247670663676345 0 0 0
10139 1 17.37653283608526 76.50846632184896 0.3247670663676345 0 0 0
10140 1 15.61548578708527 75.26378492084895 1.568912089767634 0 0 0
10141 1 15.61548578708527 75.26378492084895 -0.919392886832366 0 0 0
10142 1 17.37653283608526 76.50846632184896 2.813057113167634 0 0 0
10143 1 17.37657157958527 78.99758063484894 2.813057113167634 0 0 0
10144 1 15.61548578708527 77.75289923384896 4.057217066367635 0 0 0
10145 1 15.61548578708527 77.75289923384896 1.568912089767634 0 0 0
10146 1 17.37657157958527 78.99758063484894 5.301362089767634 0 0 0
10147 1 17.37657157958527 81.48644645884896 5.301362089767634 0 0 0
10148 1 15.61548578708527 80.24201354684895 6.545507113167634 0 0 0
10149 1 15.61548578708527 80.24201354684895 4.057217066367635 0 0 0
10150 1 17.37657157958527 81.48644645884896 -7.140135919592366 0 0 1
10151 1 15.61548578708527 72.77467060784896 -5.895987910232366 0 0 0
10152 1 17.37653283608526 74.01935200884894 -4.651842886832366 0 0 0
10153 1 17.37653283608526 76.50846632184896 -4.651842886832366 0 0 0
10154 1 15.61548578708527 75.26378492084895 -3.407682933632366 0 0 0
10155 1 15.61548578708527 75.26378492084895 -5.895987910232366 0 0 0
10156 1 17.37653283608526 76.50846632184896 -2.163537910232366 0 0 0
10157 1 17.37657157958527 78.99758063484894 -2.163537910232366 0 0 0
10158 1 15.61548578708527 77.75289923384896 -0.919392886832366 0 0 0
10159 1 15.61548578708527 77.75289923384896 -3.407682933632366 0 0 0
10160 1 17.37657157958527 78.99758063484894 0.3247670663676345 0 0 0
10161 1 17.37657157958527 81.48644645884896 0.3247670663676345 0 0 0
10162 1 15.61548578708527 80.24201354684895 1.568912089767634 0 0 0
10163 1 15.61548578708527 80.24201354684895 -0.919392886832366 0 0 0
10164 1 17.37657157958527 81.48644645884896 2.813057113167634 0 0 0
10165 1 15.61548578708527 77.75289923384896 -5.895987910232366 0 0 0
10166 1 17.37657157958527 78.99758063484894 -4.651842886832366 0 0 0
10167 1 17.37657157958527 81.48644645884896 -4.651842886832366 0 0 0
10168 1 15.61548578708527 80.24201354684895 -3.407682933632366 0 0 0
10169 1 15.61548578708527 80.24201354684895 -5.895987910232366 0 0 0
10170 1 17.37657157958527 81.48644645884896 -2.163537910232366 0 0 0
10171 1 13.85439999458527 69.04112338284894 -7.140135919592366 0 0 1
10172 1 13.85439999458527 69.04112338284894 2.813057113167634 0 0 0
10173 1 13.85439999458527 69.04112338284894 5.301362089767634 0 0 0
10174 1 13.85439999458527 71.53023769584895 5.301362089767634 0 0 0
10175 1 12.09331420208527 70.28580478384895 6.545507113167634 0 0 0
10176 1 12.09331420208527 70.28580478384895 4.057217066367635 0 0 0
10177 1 13.85439999458527 71.53023769584895 -7.140135919592366 0 0 1
10178 1 13.85439999458527 74.01935200884894 -7.140135919592366 0 0 1
10179 1 12.09335294558527 72.77467060784896 6.545507113167634 0 0 0
10180 1 13.85439999458527 69.04112338284894 -2.163537910232366 0 0 0
10181 1 13.85439999458527 69.04112338284894 0.3247670663676345 0 0 0
10182 1 13.85439999458527 71.53023769584895 0.3247670663676345 0 0 0
10183 1 12.09331420208527 70.28580478384895 1.568912089767634 0 0 0
10184 1 12.09331420208527 70.28580478384895 -0.919392886832366 0 0 0
10185 1 13.85439999458527 71.53023769584895 2.813057113167634 0 0 0
10186 1 13.85439999458527 74.01935200884894 2.813057113167634 0 0 0
10187 1 12.09335294558527 72.77467060784896 4.057217066367635 0 0 0
10188 1 12.09335294558527 72.77467060784896 1.568912089767634 0 0 0
10189 1 13.85439999458527 74.01935200884894 5.301362089767634 0 0 0
10190 1 13.85439999458527 76.50846632184896 5.301362089767634 0 0 0
10191 1 12.09335294558527 75.26378492084895 6.545507113167634 0 0 0
10192 1 12.09335294558527 75.26378492084895 4.057217066367635 0 0 0
10193 1 13.85439999458527 76.50846632184896 -7.140135919592366 0 0 1
10194 1 13.85443873808527 78.99758063484894 -7.140135919592366 0 0 1
10195 1 12.09335294558527 77.75289923384896 6.545507113167634 0 0 0
10196 1 13.85439999458527 69.04112338284894 -4.651842886832366 0 0 0
10197 1 13.85439999458527 71.53023769584895 -4.651842886832366 0 0 0
10198 1 12.09331420208527 70.28580478384895 -3.407682933632366 0 0 0
10199 1 12.09331420208527 70.28580478384895 -5.895987910232366 0 0 0
10200 1 13.85439999458527 71.53023769584895 -2.163537910232366 0 0 0
10201 1 13.85439999458527 74.01935200884894 -2.163537910232366 0 0 0
10202 1 12.09335294558527 72.77467060784896 -0.919392886832366 0 0 0
10203 1 12.09335294558527 72.77467060784896 -3.407682933632366 0 0 0
10204 1 13.85439999458527 74.01935200884894 0.3247670663676345 0 0 0
10205 1 13.85439999458527 76.50846632184896 0.3247670663676345 0 0 0
10206 1 12.09335294558527 75.26378492084895 1.568912089767634 0 0 0
10207 1 12.09335294558527 75.26378492084895 -0.919392886832366 0 0 0
10208 1 13.85439999458527 76.50846632184896 2.813057113167634 0 0 0
10209 1 13.85443873808527 78.99758063484894 2.813057113167634 0 0 0
10210 1 12.09335294558527 77.75289923384896 4.057217066367635 0 0 0
10211 1 12.09335294558527 77.75289923384896 1.568912089767634 0 0 0
10212 1 13.85443873808527 78.99758063484894 5.301362089767634 0 0 0
10213 1 13.85443873808527 81.48644645884896 5.301362089767634 0 0 0
10214 1 12.09335294558527 80.24201354684895 6.545507113167634 0 0 0
10215 1 12.09335294558527 80.24201354684895 4.057217066367635 0 0 0
10216 1 13.85443873808527 81.48644645884896 -7.140135919592366 0 0 1
10217 1 12.09335294558527 72.77467060784896 -5.895987910232366 0 0 0
10218 1 13.85439999458527 74.01935200884894 -4.651842886832366 0 0 0
10219 1 13.85439999458527 76.50846632184896 -4.651842886832366 0 0 0
10220 1 12.09335294558527 75.26378492084895 -3.407682933632366 0 0 0
10221 1 12.09335294558527 75.26378492084895 -5.895987910232366 0 0 0
10222 1 13.85439999458527 76.50846632184896 -2.163537910232366 0 0 0
10223 1 13.85443873808527 78.99758063484894 -2.163537910232366 0 0 0
10224 1 12.09335294558527 77.75289923384896 -0.919392886832366 0 0 0
10225 1 12.09335294558527 77.75289923384896 -3.407682933632366 0 0 0
10226 1 13.85443873808527 78.99758063484894 0.3247670663676345 0 0 0
10227 1 13.85443873808527 81.48644645884896 0.3247670663676345 0 0 0
10228 1 12.09335294558527 80.24201354684895 1.568912089767634 0 0 0
10229 1 12.09335294558527 80.24201354684895 -0.919392886832366 0 0 0
10230 1 13.85443873808527 81.48644645884896 2.813057113167634 0 0 0
10231 1 12.09335294558527 77.75289923384896 -5.895987910232366 0 0 0
10232 1 13.85443873808527 78.99758063484894 -4.651842886832366 0 0 0
10233 1 13.85443873808527 81.48644645884896 -4.651842886832366 0 0 0
10234 1 12.09335294558527 80.24201354684895 -3.407682933632366 0 0 0
10235 1 12.09335294558527 80.24201354684895 -5.895987910232366 0 0 0
10236 1 13.85443873808527 81.48644645884896 -2.163537910232366 0 0 0
10237 1 10.33226715308527 69.04112338284894 -7.140135919592366 0 0 1
10238 1 10.33226715308527 69.04112338284894 2.813057113167634 0 0 0
10239 1 10.33226715308527 69.04112338284894 5.301362089767634 0 0 0
10240 1 10.33226715308527 71.53023769584895 5.301362089767634 0 0 0
10241 1 8.571181360585271 70.28580478384895 6.545507113167634 0 0 0
10242 1 8.571181360585271 70.28580478384895 4.057217066367635 0 0 0
10243 1 10.33226715308527 71.53023769584895 -7.140135919592366 0 0 1
10244 1 10.33226715308527 74.01935200884894 -7.140135919592366 0 0 1
10245 1 8.57122010408527 72.77467060784896 6.545507113167634 0 0 0
10246 1 10.33226715308527 69.04112338284894 -2.163537910232366 0 0 0
10247 1 10.33226715308527 69.04112338284894 0.3247670663676345 0 0 0
10248 1 10.33226715308527 71.53023769584895 0.3247670663676345 0 0 0
10249 1 8.571181360585271 70.28580478384895 1.568912089767634 0 0 0
10250 1 8.571181360585271 70.28580478384895 -0.919392886832366 0 0 0
10251 1 10.33226715308527 71.53023769584895 2.813057113167634 0 0 0
10252 1 10.33226715308527 74.01935200884894 2.813057113167634 0 0 0
10253 1 8.57122010408527 72.77467060784896 4.057217066367635 0 0 0
10254 1 8.57122010408527 72.77467060784896 1.568912089767634 0 0 0
10255 1 10.33226715308527 74.01935200884894 5.301362089767634 0 0 0
10256 1 10.33226715308527 76.50846632184896 5.301362089767634 0 0 0
10257 1 8.57122010408527 75.26378492084895 6.545507113167634 0 0 0
10258 1 8.57122010408527 75.26378492084895 4.057217066367635 0 0 0
10259 1 10.33226715308527 76.50846632184896 -7.140135919592366 0 0 1
10260 1 10.33226715308527 78.99758063484894 -7.140135919592366 0 0 1
10261 1 8.57122010408527 77.75289923384896 6.545507113167634 0 0 0
10262 1 10.33226715308527 69.04112338284894 -4.651842886832366 0 0 0
10263 1 10.33226715308527 71.53023769584895 -4.651842886832366 0 0 0
10264 1 8.571181360585271 70.28580478384895 -3.407682933632366 0 0 0
10265 1 8.571181360585271 70.28580478384895 -5.895987910232366 0 0 0
10266 1 10.33226715308527 71.53023769584895 -2.163537910232366 0 0 0
10267 1 10.33226715308527 74.01935200884894 -2.163537910232366 0 0 0
10268 1 8.57122010408527 72.77467060784896 -0.919392886832366 0 0 0
10269 1 8.57122010408527 72.77467060784896 -3.407682933632366 0 0 0
10270 1 10.33226715308527 74.01935200884894 0.3247670663676345 0 0 0
10271 1 10.33226715308527 76.50846632184896 0.3247670663676345 0 0 0
10272 1 8.57122010408527 75.26378492084895 1.568912089767634 0 0 0
10273 1 8.57122010408527 75.26378492084895 -0.919392886832366 0 0 0
10274 1 10.33226715308527 76.50846632184896 2.813057113167634 0 0 0
10275 1 10.33226715308527 78.99758063484894 2.813057113167634 0 0 0
10276 1 8.57122010408527 77.75289923384896 4.057217066367635 0 0 0
10277 1 8.57122010408527 77.75289923384896 1.568912089767634 0 0 0
10278 1 10.33226715308527 78.99758063484894 5.301362089767634 0 0 0
10279 1 10.33230589658527 81.48644645884896 5.301362089767634 0 0 0
10280 1 8.57122010408527 80.24201354684895 6.545507113167634 0 0 0
10281 1 8.57122010408527 80.24201354684895 4.057217066367635 0 0 0
10282 1 10.33230589658527 81.48644645884896 -7.140135919592366 0 0 1
10283 1 8.57122010408527 72.77467060784896 -5.895987910232366 0 0 0
10284 1 10.33226715308527 74.01935200884894 -4.651842886832366 0 0 0
10285 1 10.33226715308527 76.50846632184896 -4.651842886832366 0 0 0
10286 1 8.57122010408527 75.26378492084895 -3.407682933632366 0 0 0
10287 1 8.57122010408527 75.26378492084895 -5.895987910232366 0 0 0
10288 1 10.33226715308527 76.50846632184896 -2.163537910232366 0 0 0
10289 1 10.33226715308527 78.99758063484894 -2.163537910232366 0 0 0
10290 1 8.57122010408527 77.75289923384896 -0.919392886832366 0 0 0
10291 1 8.57122010408527 77.75289923384896 -3.407682933632366 0 0 0
10292 1 10.33226715308527 78.99758063484894 0.3247670663676345 0 0 0
10293 1 10.33230589658527 81.48644645884896 0.3247670663676345 0 0 0
10294 1 8.57122010408527 80.24201354684895 1.568912089767634 0 0 0
10295 1 8.57122010408527 80.24201354684895 -0.919392886832366 0 0 0
10296 1 10.33230589658527 81.48644645884896 2.813057113167634 0 0 0
10297 1 8.57122010408527 77.75289923384896 -5.895987910232366 0 0 0
10298 1 10.33226715308527 78.99758063484894 -4.651842886832366 0 0 0
10299 1 10.33230589658527 81.48644645884896 -4.651842886832366 0 0 0
10300 1 8.57122010408527 80.24201354684895 -3.407682933632366 0 0 0
10301 1 8.57122010408527 80.24201354684895 -5.895987910232366 0 0 0
10302 1 10.33230589658527 81.48644645884896 -2.163537910232366 0 0 0
10303 1 6.810134311585269 69.04112338284894 -7.140135919592366 0 0 1
10304 1 6.810134311585269 69.04112338284894 2.813057113167634 0 0 0
10305 1 6.810134311585269 69.04112338284894 5.301362089767634 0 0 0
10306 1 6.810134311585269 71.53023769584895 5.301362089767634 0 0 0
10307 1 5.049048519085268 70.28580478384895 6.545507113167634 0 0 0
10308 1 5.049048519085268 70.28580478384895 4.057217066367635 0 0 0
10309 1 6.810134311585269 71.53023769584895 -7.140135919592366 0 0 1
10310 1 6.810134311585269 74.01935200884894 -7.140135919592366 0 0 1
10311 1 5.049048519085268 72.77467060784896 6.545507113167634 0 0 0
10312 1 6.810134311585269 69.04112338284894 -2.163537910232366 0 0 0
10313 1 6.810134311585269 69.04112338284894 0.3247670663676345 0 0 0
10314 1 6.810134311585269 71.53023769584895 0.3247670663676345 0 0 0
10315 1 5.049048519085268 70.28580478384895 1.568912089767634 0 0 0
10316 1 5.049048519085268 70.28580478384895 -0.919392886832366 0 0 0
10317 1 6.810134311585269 71.53023769584895 2.813057113167634 0 0 0
10318 1 6.810134311585269 74.01935200884894 2.813057113167634 0 0 0
10319 1 5.049048519085268 72.77467060784896 4.057217066367635 0 0 0
10320 1 5.049048519085268 72.77467060784896 1.568912089767634 0 0 0
10321 1 6.810134311585269 74.01935200884894 5.301362089767634 0 0 0
10322 1 6.810134311585269 76.50846632184896 5.301362089767634 0 0 0
10323 1 5.049087262585271 75.26378492084895 6.545507113167634 0 0 0
10324 1 5.049087262585271 75.26378492084895 4.057217066367635 0 0 0
10325 1 6.810134311585269 76.50846632184896 -7.140135919592366 0 0 1
10326 1 6.810134311585269 78.99758063484894 -7.140135919592366 0 0 1
10327 1 5.049087262585271 77.75289923384896 6.545507113167634 0 0 0
10328 1 6.810134311585269 69.04112338284894 -4.651842886832366 0 0 0
10329 1 6.810134311585269 71.53023769584895 -4.651842886832366 0 0 0
10330 1 5.049048519085268 70.28580478384895 -3.407682933632366 0 0 0
10331 1 5.049048519085268 70.28580478384895 -5.895987910232366 0 0 0
10332 1 6.810134311585269 71.53023769584895 -2.163537910232366 0 0 0
10333 1 6.810134311585269 74.01935200884894 -2.163537910232366 0 0 0
10334 1 5.049048519085268 72.77467060784896 -0.919392886832366 0 0 0
10335 1 5.049048519085268 72.77467060784896 -3.407682933632366 0 0 0
10336 1 6.810134311585269 74.01935200884894 0.3247670663676345 0 0 0
10337 1 6.810134311585269 76.50846632184896 0.3247670663676345 0 0 0
10338 1 5.049087262585271 75.26378492084895 1.568912089767634 0 0 0
10339 1 5.049087262585271 75.26378492084895 -0.919392886832366 0 0 0
10340 1 6.810134311585269 76.50846632184896 2.813057113167634 0 0 0
10341 1 6.810134311585269 78.99758063484894 2.813057113167634 0 0 0
10342 1 5.049087262585271 77.75289923384896 4.057217066367635 0 0 0
10343 1 5.049087262585271 77.75289923384896 1.568912089767634 0 0 0
10344 1 6.810134311585269 78.99758063484894 5.301362089767634 0 0 0
10345 1 6.810134311585269 81.48644645884896 5.301362089767634 0 0 0
10346 1 5.049087262585271 80.24201354684895 6.545507113167634 0 0 0
10347 1 5.049087262585271 80.24201354684895 4.057217066367635 0 0 0
10348 1 6.810134311585269 81.48644645884896 -7.140135919592366 0 0 1
10349 1 5.049048519085268 72.77467060784896 -5.895987910232366 0 0 0
10350 1 6.810134311585269 74.01935200884894 -4.651842886832366 0 0 0
10351 1 6.810134311585269 76.50846632184896 -4.651842886832366 0 0 0
10352 1 5.049087262585271 75.26378492084895 -3.407682933632366 0 0 0
10353 1 5.049087262585271 75.26378492084895 -5.895987910232366 0 0 0
10354 1 6.810134311585269 76.50846632184896 -2.163537910232366 0 0 0
10355 1 6.810134311585269 78.99758063484894 -2.163537910232366 0 0 0
10356 1 5.049087262585271 77.75289923384896 -0.919392886832366 0 0 0
10357 1 5.049087262585271 77.75289923384896 -3.407682933632366 0 0 0
10358 1 6.810134311585269 78.99758063484894 0.3247670663676345 0 0 0
10359 1 6.810134311585269 81.48644645884896 0.3247670663676345 0 0 0
10360 1 5.049087262585271 80.24201354684895 1.568912089767634 0 0 0
10361 1 5.049087262585271 80.24201354684895 -0.919392886832366 0 0 0
10362 1 6.810134311585269 81.48644645884896 2.813057113167634 0 0 0
10363 1 5.049087262585271 77.75289923384896 -5.895987910232366 0 0 0
10364 1 6.810134311585269 78.99758063484894 -4.651842886832366 0 0 0
10365 1 6.810134311585269 81.48644645884896 -4.651842886832366 0 0 0
10366 1 5.049087262585271 80.24201354684895 -3.407682933632366 0 0 0
10367 1 5.049087262585271 80.24201354684895 -5.895987910232366 0 0 0
10368 1 6.810134311585269 81.48644645884896 -2.163537910232366 0 0 0
10369 1 3.28800147008527 69.04112338284894 -7.140135919592366 0 0 1
10370 1 3.28800147008527 69.04112338284894 2.813057113167634 0 0 0
10371 1 3.28800147008527 69.04112338284894 5.301362089767634 0 0 0
10372 1 3.28800147008527 71.53023769584895 5.301362089767634 0 0 0
10373 1 3.28800147008527 71.53023769584895 -7.140135919592366 0 0 1
10374 1 3.28800147008527 74.01935200884894 -7.140135919592366 0 0 1
10375 1 3.28800147008527 69.04112338284894 -2.163537910232366 0 0 0
10376 1 3.28800147008527 69.04112338284894 0.3247670663676345 0 0 0
10377 1 3.28800147008527 71.53023769584895 0.3247670663676345 0 0 0
10378 1 3.28800147008527 71.53023769584895 2.813057113167634 0 0 0
10379 1 3.28800147008527 74.01935200884894 2.813057113167634 0 0 0
10380 1 3.28800147008527 74.01935200884894 5.301362089767634 0 0 0
10381 1 3.28800147008527 76.50846632184896 5.301362089767634 0 0 0
10382 1 3.28800147008527 76.50846632184896 -7.140135919592366 0 0 1
10383 1 3.28800147008527 78.99758063484894 -7.140135919592366 0 0 1
10384 1 3.28800147008527 69.04112338284894 -4.651842886832366 0 0 0
10385 1 3.28800147008527 71.53023769584895 -4.651842886832366 0 0 0
10386 1 3.28800147008527 71.53023769584895 -2.163537910232366 0 0 0
10387 1 3.28800147008527 74.01935200884894 -2.163537910232366 0 0 0
10388 1 3.28800147008527 74.01935200884894 0.3247670663676345 0 0 0
10389 1 3.28800147008527 76.50846632184896 0.3247670663676345 0 0 0
10390 1 3.28800147008527 76.50846632184896 2.813057113167634 0 0 0
10391 1 3.28800147008527 78.99758063484894 2.813057113167634 0 0 0
10392 1 3.28800147008527 78.99758063484894 5.301362089767634 0 0 0
10393 1 3.28800147008527 81.48644645884896 5.301362089767634 0 0 0
10394 1 3.28800147008527 81.48644645884896 -7.140135919592366 0 0 1
10395 1 3.28800147008527 74.01935200884894 -4.651842886832366 0 0 0
10396 1 3.28800147008527 76.50846632184896 -4.651842886832366 0 0 0
10397 1 3.28800147008527 76.50846632184896 -2.163537910232366 0 0 0
10398 1 3.28800147008527 78.99758063484894 -2.163537910232366 0 0 0
10399 1 3.28800147008527 78.99758063484894 0.3247670663676345 0 0 0
10400 1 3.28800147008527 81.48644645884896 0.3247670663676345 0 0 0
10401 1 3.28800147008527 81.48644645884896 2.813057113167634 0 0 0
10402 1 3.28800147008527 78.99758063484894 -4.651842886832366 0 0 0
10403 1 3.28800147008527 81.48644645884896 -4.651842886832366 0 0 0
10404 1 3.28800147008527 81.48644645884896 -2.163537910232366 0 0 0
10405 1 -16.08372915816473 82.73112785984897 6.545507113167634 1 0 0
10406 1 -16.08372915816473 82.73112785984897 4.057217066367635 1 0 0
10407 1 -16.08372915816473 82.73112785984897 1.568912089767634 1 0 0
10408 1 -16.08372140946473 85.22024217284896 6.545507113167634 1 0 0
10409 1 -16.08372140946473 85.22024217284896 4.057217066367635 1 0 0
10410 1 -16.08371753511473 87.70910799684894 6.545507113167634 1 0 0
10411 1 -16.08372915816473 82.73112785984897 -0.919392886832366 1 0 0
10412 1 -16.08372915816473 82.73112785984897 -3.407682933632366 1 0 0
10413 1 -16.08372140946473 85.22024217284896 1.568912089767634 1 0 0
10414 1 -16.08372140946473 85.22024217284896 -0.919392886832366 1 0 0
10415 1 -16.08371753511473 87.70910799684894 4.057217066367635 1 0 0
10416 1 -16.08371753511473 87.70910799684894 1.568912089767634 1 0 0
10417 1 -16.08370978641473 90.19822230984896 6.545507113167634 1 0 0
10418 1 -16.08370978641473 90.19822230984896 4.057217066367635 1 0 0
10419 1 -16.08370203771473 92.68733662284895 6.545507113167634 1 0 0
10420 1 -16.08372915816473 82.73112785984897 -5.895987910232366 1 0 0
10421 1 -16.08372140946473 85.22024217284896 -3.407682933632366 1 0 0
10422 1 -16.08372140946473 85.22024217284896 -5.895987910232366 1 0 0
10423 1 -16.08371753511473 87.70910799684894 -0.919392886832366 1 0 0
10424 1 -16.08371753511473 87.70910799684894 -3.407682933632366 1 0 0
10425 1 -16.08370978641473 90.19822230984896 1.568912089767634 1 0 0
10426 1 -16.08370978641473 90.19822230984896 -0.919392886832366 1 0 0
10427 1 -16.08370203771473 92.68733662284895 4.057217066367635 1 0 0
10428 1 -16.08370203771473 92.68733662284895 1.568912089767634 1 0 0
10429 1 -16.08369816336473 95.17645093584896 6.545507113167634 1 0 0
10430 1 -16.08369816336473 95.17645093584896 4.057217066367635 1 0 0
10431 1 -16.08371753511473 87.70910799684894 -5.895987910232366 1 0 0
10432 1 -16.08370978641473 90.19822230984896 -3.407682933632366 1 0 0
10433 1 -16.08370978641473 90.19822230984896 -5.895987910232366 1 0 0
10434 1 -16.08370203771473 92.68733662284895 -0.919392886832366 1 0 0
10435 1 -16.08370203771473 92.68733662284895 -3.407682933632366 1 0 0
10436 1 -16.08369816336473 95.17645093584896 1.568912089767634 1 0 0
10437 1 -16.08369816336473 95.17645093584896 -0.919392886832366 1 0 0
10438 1 -16.08370203771473 92.68733662284895 -5.895987910232366 1 0 0
10439 1 -16.08369816336473 95.17645093584896 -3.407682933632366 1 0 0
10440 1 -16.08369816336473 95.17645093584896 -5.895987910232366 1 0 0
10441 1 -17.84479557891473 83.97556077184895 -7.140135919592366 1 0 1
10442 1 19.13761862858527 82.73112785984897 6.545507113167634 0 0 0
10443 1 -17.84479557891473 83.97556077184895 2.813057113167634 1 0 0
10444 1 19.13761862858527 82.73112785984897 4.057217066367635 0 0 0
10445 1 19.13761862858527 82.73112785984897 1.568912089767634 0 0 0
10446 1 -17.84479557891473 83.97556077184895 5.301362089767634 1 0 0
10447 1 -17.84478783021473 86.46467508484893 5.301362089767634 1 0 0
10448 1 19.13765737208527 85.22024217284896 6.545507113167634 0 0 0
10449 1 19.13765737208527 85.22024217284896 4.057217066367635 0 0 0
10450 1 -17.84478783021473 86.46467508484893 -7.140135919592366 1 0 1
10451 1 -17.84478008151473 88.95378939784895 -7.140135919592366 1 0 1
10452 1 19.13765737208527 87.70910799684894 6.545507113167634 0 0 0
10453 1 -17.84479557891473 83.97556077184895 -2.163537910232366 1 0 0
10454 1 19.13761862858527 82.73112785984897 -0.919392886832366 0 0 0
10455 1 19.13761862858527 82.73112785984897 -3.407682933632366 0 0 0
10456 1 -17.84479557891473 83.97556077184895 0.3247670663676345 1 0 0
10457 1 -17.84478783021473 86.46467508484893 0.3247670663676345 1 0 0
10458 1 19.13765737208527 85.22024217284896 1.568912089767634 0 0 0
10459 1 19.13765737208527 85.22024217284896 -0.919392886832366 0 0 0
10460 1 -17.84478783021473 86.46467508484893 2.813057113167634 1 0 0
10461 1 -17.84478008151473 88.95378939784895 2.813057113167634 1 0 0
10462 1 19.13765737208527 87.70910799684894 4.057217066367635 0 0 0
10463 1 19.13765737208527 87.70910799684894 1.568912089767634 0 0 0
10464 1 -17.84478008151473 88.95378939784895 5.301362089767634 1 0 0
10465 1 -17.84477620716473 91.44265522184897 5.301362089767634 1 0 0
10466 1 19.13765737208527 90.19822230984896 6.545507113167634 0 0 0
10467 1 19.13765737208527 90.19822230984896 4.057217066367635 0 0 0
10468 1 -17.84477620716473 91.44265522184897 -7.140135919592366 1 0 1
10469 1 -17.84476845846473 93.93176953484895 -7.140135919592366 1 0 1
10470 1 19.13765737208527 92.68733662284895 6.545507113167634 0 0 0
10471 1 19.13761862858527 82.73112785984897 -5.895987910232366 0 0 0
10472 1 -17.84479557891473 83.97556077184895 -4.651842886832366 1 0 0
10473 1 -17.84478783021473 86.46467508484893 -4.651842886832366 1 0 0
10474 1 19.13765737208527 85.22024217284896 -3.407682933632366 0 0 0
10475 1 19.13765737208527 85.22024217284896 -5.895987910232366 0 0 0
10476 1 -17.84478783021473 86.46467508484893 -2.163537910232366 1 0 0
10477 1 -17.84478008151473 88.95378939784895 -2.163537910232366 1 0 0
10478 1 19.13765737208527 87.70910799684894 -0.919392886832366 0 0 0
10479 1 19.13765737208527 87.70910799684894 -3.407682933632366 0 0 0
10480 1 -17.84478008151473 88.95378939784895 0.3247670663676345 1 0 0
10481 1 -17.84477620716473 91.44265522184897 0.3247670663676345 1 0 0
10482 1 19.13765737208527 90.19822230984896 1.568912089767634 0 0 0
10483 1 19.13765737208527 90.19822230984896 -0.919392886832366 0 0 0
10484 1 -17.84477620716473 91.44265522184897 2.813057113167634 1 0 0
10485 1 -17.84476845846473 93.93176953484895 2.813057113167634 1 0 0
10486 1 19.13765737208527 92.68733662284895 4.057217066367635 0 0 0
10487 1 19.13765737208527 92.68733662284895 1.568912089767634 0 0 0
10488 1 -17.84476845846473 93.93176953484895 5.301362089767634 1 0 0
10489 1 19.13765737208527 95.17645093584896 6.545507113167634 0 0 0
10490 1 19.13765737208527 95.17645093584896 4.057217066367635 0 0 0
10491 1 19.13765737208527 87.70910799684894 -5.895987910232366 0 0 0
10492 1 -17.84478008151473 88.95378939784895 -4.651842886832366 1 0 0
10493 1 -17.84477620716473 91.44265522184897 -4.651842886832366 1 0 0
10494 1 19.13765737208527 90.19822230984896 -3.407682933632366 0 0 0
10495 1 19.13765737208527 90.19822230984896 -5.895987910232366 0 0 0
10496 1 -17.84477620716473 91.44265522184897 -2.163537910232366 1 0 0
10497 1 -17.84476845846473 93.93176953484895 -2.163537910232366 1 0 0
10498 1 19.13765737208527 92.68733662284895 -0.919392886832366 0 0 0
10499 1 19.13765737208527 92.68733662284895 -3.407682933632366 0 0 0
10500 1 -17.84476845846473 93.93176953484895 0.3247670663676345 1 0 0
10501 1 19.13765737208527 95.17645093584896 1.568912089767634 0 0 0
10502 1 19.13765737208527 95.17645093584896 -0.919392886832366 0 0 0
10503 1 19.13765737208527 92.68733662284895 -5.895987910232366 0 0 0
10504 1 -17.84476845846473 93.93176953484895 -4.651842886832366 1 0 0
10505 1 19.13765737208527 95.17645093584896 -3.407682933632366 0 0 0
10506 1 19.13765737208527 95.17645093584896 -5.895987910232366 0 0 0
10507 1 17.37657157958527 83.97556077184895 -7.140135919592366 0 0 1
10508 1 15.61548578708527 82.73112785984897 6.545507113167634 0 0 0
10509 1 17.37657157958527 83.97556077184895 2.813057113167634 0 0 0
10510 1 15.61548578708527 82.73112785984897 4.057217066367635 0 0 0
10511 1 15.61548578708527 82.73112785984897 1.568912089767634 0 0 0
10512 1 17.37657157958527 83.97556077184895 5.301362089767634 0 0 0
10513 1 17.37657157958527 86.46467508484893 5.301362089767634 0 0 0
10514 1 15.61548578708527 85.22024217284896 6.545507113167634 0 0 0
10515 1 15.61548578708527 85.22024217284896 4.057217066367635 0 0 0
10516 1 17.37657157958527 86.46467508484893 -7.140135919592366 0 0 1
10517 1 17.37657157958527 88.95378939784895 -7.140135919592366 0 0 1
10518 1 15.61552453058527 87.70910799684894 6.545507113167634 0 0 0
10519 1 17.37657157958527 83.97556077184895 -2.163537910232366 0 0 0
10520 1 15.61548578708527 82.73112785984897 -0.919392886832366 0 0 0
10521 1 15.61548578708527 82.73112785984897 -3.407682933632366 0 0 0
10522 1 17.37657157958527 83.97556077184895 0.3247670663676345 0 0 0
10523 1 17.37657157958527 86.46467508484893 0.3247670663676345 0 0 0
10524 1 15.61548578708527 85.22024217284896 1.568912089767634 0 0 0
10525 1 15.61548578708527 85.22024217284896 -0.919392886832366 0 0 0
10526 1 17.37657157958527 86.46467508484893 2.813057113167634 0 0 0
10527 1 17.37657157958527 88.95378939784895 2.813057113167634 0 0 0
10528 1 15.61552453058527 87.70910799684894 4.057217066367635 0 0 0
10529 1 15.61552453058527 87.70910799684894 1.568912089767634 0 0 0
10530 1 17.37657157958527 88.95378939784895 5.301362089767634 0 0 0
10531 1 17.37657157958527 91.44265522184897 5.301362089767634 0 0 0
10532 1 15.61552453058527 90.19822230984896 6.545507113167634 0 0 0
10533 1 15.61552453058527 90.19822230984896 4.057217066367635 0 0 0
10534 1 17.37657157958527 91.44265522184897 -7.140135919592366 0 0 1
10535 1 17.37661032308527 93.93176953484895 -7.140135919592366 0 0 1
10536 1 15.61552453058527 92.68733662284895 6.545507113167634 0 0 0
10537 1 15.61548578708527 82.73112785984897 -5.895987910232366 0 0 0
10538 1 17.37657157958527 83.97556077184895 -4.651842886832366 0 0 0
10539 1 17.37657157958527 86.46467508484893 -4.651842886832366 0 0 0
10540 1 15.61548578708527 85.22024217284896 -3.407682933632366 0 0 0
10541 1 15.61548578708527 85.22024217284896 -5.895987910232366 0 0 0
10542 1 17.37657157958527 86.46467508484893 -2.163537910232366 0 0 0
10543 1 17.37657157958527 88.95378939784895 -2.163537910232366 0 0 0
10544 1 15.61552453058527 87.70910799684894 -0.919392886832366 0 0 0
10545 1 15.61552453058527 87.70910799684894 -3.407682933632366 0 0 0
10546 1 17.37657157958527 88.95378939784895 0.3247670663676345 0 0 0
10547 1 17.37657157958527 91.44265522184897 0.3247670663676345 0 0 0
10548 1 15.61552453058527 90.19822230984896 1.568912089767634 0 0 0
10549 1 15.61552453058527 90.19822230984896 -0.919392886832366 0 0 0
10550 1 17.37657157958527 91.44265522184897 2.813057113167634 0 0 0
10551 1 17.37661032308527 93.93176953484895 2.813057113167634 0 0 0
10552 1 15.61552453058527 92.68733662284895 4.057217066367635 0 0 0
10553 1 15.61552453058527 92.68733662284895 1.568912089767634 0 0 0
10554 1 17.37661032308527 93.93176953484895 5.301362089767634 0 0 0
10555 1 15.61552453058527 95.17645093584896 6.545507113167634 0 0 0
10556 1 15.61552453058527 95.17645093584896 4.057217066367635 0 0 0
10557 1 15.61552453058527 87.70910799684894 -5.895987910232366 0 0 0
10558 1 17.37657157958527 88.95378939784895 -4.651842886832366 0 0 0
10559 1 17.37657157958527 91.44265522184897 -4.651842886832366 0 0 0
10560 1 15.61552453058527 90.19822230984896 -3.407682933632366 0 0 0
10561 1 15.61552453058527 90.19822230984896 -5.895987910232366 0 0 0
10562 1 17.37657157958527 91.44265522184897 -2.163537910232366 0 0 0
10563 1 17.37661032308527 93.93176953484895 -2.163537910232366 0 0 0
10564 1 15.61552453058527 92.68733662284895 -0.919392886832366 0 0 0
10565 1 15.61552453058527 92.68733662284895 -3.407682933632366 0 0 0
10566 1 17.37661032308527 93.93176953484895 0.3247670663676345 0 0 0
10567 1 15.61552453058527 95.17645093584896 1.568912089767634 0 0 0
10568 1 15.61552453058527 95.17645093584896 -0.919392886832366 0 0 0
10569 1 15.61552453058527 92.68733662284895 -5.895987910232366 0 0 0
10570 1 17.37661032308527 93.93176953484895 -4.651842886832366 0 0 0
10571 1 15.61552453058527 95.17645093584896 -3.407682933632366 0 0 0
10572 1 15.61552453058527 95.17645093584896 -5.895987910232366 0 0 0
10573 1 13.85443873808527 83.97556077184895 -7.140135919592366 0 0 1
10574 1 12.09335294558527 82.73112785984897 6.545507113167634 0 0 0
10575 1 13.85443873808527 83.97556077184895 2.813057113167634 0 0 0
10576 1 12.09335294558527 82.73112785984897 4.057217066367635 0 0 0
10577 1 12.09335294558527 82.73112785984897 1.568912089767634 0 0 0
10578 1 13.85443873808527 83.97556077184895 5.301362089767634 0 0 0
10579 1 13.85443873808527 86.46467508484893 5.301362089767634 0 0 0
10580 1 12.09335294558527 85.22024217284896 6.545507113167634 0 0 0
10581 1 12.09335294558527 85.22024217284896 4.057217066367635 0 0 0
10582 1 13.85443873808527 86.46467508484893 -7.140135919592366 0 0 1
10583 1 13.85443873808527 88.95378939784895 -7.140135919592366 0 0 1
10584 1 12.09339168908527 87.70910799684894 6.545507113167634 0 0 0
10585 1 13.85443873808527 83.97556077184895 -2.163537910232366 0 0 0
10586 1 12.09335294558527 82.73112785984897 -0.919392886832366 0 0 0
10587 1 12.09335294558527 82.73112785984897 -3.407682933632366 0 0 0
10588 1 13.85443873808527 83.97556077184895 0.3247670663676345 0 0 0
10589 1 13.85443873808527 86.46467508484893 0.3247670663676345 0 0 0
10590 1 12.09335294558527 85.22024217284896 1.568912089767634 0 0 0
10591 1 12.09335294558527 85.22024217284896 -0.919392886832366 0 0 0
10592 1 13.85443873808527 86.46467508484893 2.813057113167634 0 0 0
10593 1 13.85443873808527 88.95378939784895 2.813057113167634 0 0 0
10594 1 12.09339168908527 87.70910799684894 4.057217066367635 0 0 0
10595 1 12.09339168908527 87.70910799684894 1.568912089767634 0 0 0
10596 1 13.85443873808527 88.95378939784895 5.301362089767634 0 0 0
10597 1 13.85443873808527 91.44265522184897 5.301362089767634 0 0 0
10598 1 12.09339168908527 90.19822230984896 6.545507113167634 0 0 0
10599 1 12.09339168908527 90.19822230984896 4.057217066367635 0 0 0
10600 1 13.85443873808527 91.44265522184897 -7.140135919592366 0 0 1
10601 1 13.85443873808527 93.93176953484895 -7.140135919592366 0 0 1
10602 1 12.09339168908527 92.68733662284895 6.545507113167634 0 0 0
10603 1 12.09335294558527 82.73112785984897 -5.895987910232366 0 0 0
10604 1 13.85443873808527 83.97556077184895 -4.651842886832366 0 0 0
10605 1 13.85443873808527 86.46467508484893 -4.651842886832366 0 0 0
10606 1 12.09335294558527 85.22024217284896 -3.407682933632366 0 0 0
10607 1 12.09335294558527 85.22024217284896 -5.895987910232366 0 0 0
10608 1 13.85443873808527 86.46467508484893 -2.163537910232366 0 0 0
10609 1 13.85443873808527 88.95378939784895 -2.163537910232366 0 0 0
10610 1 12.09339168908527 87.70910799684894 -0.919392886832366 0 0 0
10611 1 12.09339168908527 87.70910799684894 -3.407682933632366 0 0 0
10612 1 13.85443873808527 88.95378939784895 0.3247670663676345 0 0 0
10613 1 13.85443873808527 91.44265522184897 0.3247670663676345 0 0 0
10614 1 12.09339168908527 90.19822230984896 1.568912089767634 0 0 0
10615 1 12.09339168908527 90.19822230984896 -0.919392886832366 0 0 0
10616 1 13.85443873808527 91.44265522184897 2.813057113167634 0 0 0
10617 1 13.85443873808527 93.93176953484895 2.813057113167634 0 0 0
10618 1 12.09339168908527 92.68733662284895 4.057217066367635 0 0 0
10619 1 12.09339168908527 92.68733662284895 1.568912089767634 0 0 0
10620 1 13.85443873808527 93.93176953484895 5.301362089767634 0 0 0
10621 1 12.09339168908527 95.17645093584896 6.545507113167634 0 0 0
10622 1 12.09339168908527 95.17645093584896 4.057217066367635 0 0 0
10623 1 12.09339168908527 87.70910799684894 -5.895987910232366 0 0 0
10624 1 13.85443873808527 88.95378939784895 -4.651842886832366 0 0 0
10625 1 13.85443873808527 91.44265522184897 -4.651842886832366 0 0 0
10626 1 12.09339168908527 90.19822230984896 -3.407682933632366 0 0 0
10627 1 12.09339168908527 90.19822230984896 -5.895987910232366 0 0 0
10628 1 13.85443873808527 91.44265522184897 -2.163537910232366 0 0 0
10629 1 13.85443873808527 93.93176953484895 -2.163537910232366 0 0 0
10630 1 12.09339168908527 92.68733662284895 -0.919392886832366 0 0 0
10631 1 12.09339168908527 92.68733662284895 -3.407682933632366 0 0 0
10632 1 13.85443873808527 93.93176953484895 0.3247670663676345 0 0 0
10633 1 12.09339168908527 95.17645093584896 1.568912089767634 0 0 0
10634 1 12.09339168908527 95.17645093584896 -0.919392886832366 0 0 0
10635 1 12.09339168908527 92.68733662284895 -5.895987910232366 0 0 0
10636 1 13.85443873808527 93.93176953484895 -4.651842886832366 0 0 0
10637 1 12.09339168908527 95.17645093584896 -3.407682933632366 0 0 0
10638 1 12.09339168908527 95.17645093584896 -5.895987910232366 0 0 0
10639 1 10.33230589658527 83.97556077184895 -7.140135919592366 0 0 1
10640 1 8.57122010408527 82.73112785984897 6.545507113167634 0 0 0
10641 1 10.33230589658527 83.97556077184895 2.813057113167634 0 0 0
10642 1 8.57122010408527 82.73112785984897 4.057217066367635 0 0 0
10643 1 8.57122010408527 82.73112785984897 1.568912089767634 0 0 0
10644 1 10.33230589658527 83.97556077184895 5.301362089767634 0 0 0
10645 1 10.33230589658527 86.46467508484893 5.301362089767634 0 0 0
10646 1 8.57122010408527 85.22024217284896 6.545507113167634 0 0 0
10647 1 8.57122010408527 85.22024217284896 4.057217066367635 0 0 0
10648 1 10.33230589658527 86.46467508484893 -7.140135919592366 0 0 1
10649 1 10.33230589658527 88.95378939784895 -7.140135919592366 0 0 1
10650 1 8.57122010408527 87.70910799684894 6.545507113167634 0 0 0
10651 1 10.33230589658527 83.97556077184895 -2.163537910232366 0 0 0
10652 1 8.57122010408527 82.73112785984897 -0.919392886832366 0 0 0
10653 1 8.57122010408527 82.73112785984897 -3.407682933632366 0 0 0
10654 1 10.33230589658527 83.97556077184895 0.3247670663676345 0 0 0
10655 1 10.33230589658527 86.46467508484893 0.3247670663676345 0 0 0
10656 1 8.57122010408527 85.22024217284896 1.568912089767634 0 0 0
10657 1 8.57122010408527 85.22024217284896 -0.919392886832366 0 0 0
10658 1 10.33230589658527 86.46467508484893 2.813057113167634 0 0 0
10659 1 10.33230589658527 88.95378939784895 2.813057113167634 0 0 0
10660 1 8.57122010408527 87.70910799684894 4.057217066367635 0 0 0
10661 1 8.57122010408527 87.70910799684894 1.568912089767634 0 0 0
10662 1 10.33230589658527 88.95378939784895 5.301362089767634 0 0 0
10663 1 10.33230589658527 91.44265522184897 5.301362089767634 0 0 0
10664 1 8.57125884758527 90.19822230984896 6.545507113167634 0 0 0
10665 1 8.57125884758527 90.19822230984896 4.057217066367635 0 0 0
10666 1 10.33230589658527 91.44265522184897 -7.140135919592366 0 0 1
10667 1 10.33230589658527 93.93176953484895 -7.140135919592366 0 0 1
10668 1 8.57125884758527 92.68733662284895 6.545507113167634 0 0 0
10669 1 8.57122010408527 82.73112785984897 -5.895987910232366 0 0 0
10670 1 10.33230589658527 83.97556077184895 -4.651842886832366 0 0 0
10671 1 10.33230589658527 86.46467508484893 -4.651842886832366 0 0 0
10672 1 8.57122010408527 85.22024217284896 -3.407682933632366 0 0 0
10673 1 8.57122010408527 85.22024217284896 -5.895987910232366 0 0 0
10674 1 10.33230589658527 86.46467508484893 -2.163537910232366 0 0 0
10675 1 10.33230589658527 88.95378939784895 -2.163537910232366 0 0 0
10676 1 8.57122010408527 87.70910799684894 -0.919392886832366 0 0 0
10677 1 8.57122010408527 87.70910799684894 -3.407682933632366 0 0 0
10678 1 10.33230589658527 88.95378939784895 0.3247670663676345 0 0 0
10679 1 10.33230589658527 91.44265522184897 0.3247670663676345 0 0 0
10680 1 8.57125884758527 90.19822230984896 1.568912089767634 0 0 0
10681 1 8.57125884758527 90.19822230984896 -0.919392886832366 0 0 0
10682 1 10.33230589658527 91.44265522184897 2.813057113167634 0 0 0
10683 1 10.33230589658527 93.93176953484895 2.813057113167634 0 0 0
10684 1 8.57125884758527 92.68733662284895 4.057217066367635 0 0 0
10685 1 8.57125884758527 92.68733662284895 1.568912089767634 0 0 0
10686 1 10.33230589658527 93.93176953484895 5.301362089767634 0 0 0
10687 1 8.57125884758527 95.17645093584896 6.545507113167634 0 0 0
10688 1 8.57125884758527 95.17645093584896 4.057217066367635 0 0 0
10689 1 8.57122010408527 87.70910799684894 -5.895987910232366 0 0 0
10690 1 10.33230589658527 88.95378939784895 -4.651842886832366 0 0 0
10691 1 10.33230589658527 91.44265522184897 -4.651842886832366 0 0 0
10692 1 8.57125884758527 90.19822230984896 -3.407682933632366 0 0 0
10693 1 8.57125884758527 90.19822230984896 -5.895987910232366 0 0 0
10694 1 10.33230589658527 91.44265522184897 -2.163537910232366 0 0 0
10695 1 10.33230589658527 93.93176953484895 -2.163537910232366 0 0 0
10696 1 8.57125884758527 92.68733662284895 -0.919392886832366 0 0 0
10697 1 8.57125884758527 92.68733662284895 -3.407682933632366 0 0 0
10698 1 10.33230589658527 93.93176953484895 0.3247670663676345 0 0 0
10699 1 8.57125884758527 95.17645093584896 1.568912089767634 0 0 0
10700 1 8.57125884758527 95.17645093584896 -0.919392886832366 0 0 0
10701 1 8.57125884758527 92.68733662284895 -5.895987910232366 0 0 0
10702 1 10.33230589658527 93.93176953484895 -4.651842886832366 0 0 0
10703 1 8.57125884758527 95.17645093584896 -3.407682933632366 0 0 0
10704 1 8.57125884758527 95.17645093584896 -5.895987910232366 0 0 0
10705 1 6.810173055085272 83.97556077184895 -7.140135919592366 0 0 1
10706 1 5.049087262585271 82.73112785984897 6.545507113167634 0 0 0
10707 1 6.810173055085272 83.97556077184895 2.813057113167634 0 0 0
10708 1 5.049087262585271 82.73112785984897 4.057217066367635 0 0 0
10709 1 5.049087262585271 82.73112785984897 1.568912089767634 0 0 0
10710 1 6.810173055085272 83.97556077184895 5.301362089767634 0 0 0
10711 1 6.810173055085272 86.46467508484893 5.301362089767634 0 0 0
10712 1 5.049087262585271 85.22024217284896 6.545507113167634 0 0 0
10713 1 5.049087262585271 85.22024217284896 4.057217066367635 0 0 0
10714 1 6.810173055085272 86.46467508484893 -7.140135919592366 0 0 1
10715 1 6.810173055085272 88.95378939784895 -7.140135919592366 0 0 1
10716 1 5.049087262585271 87.70910799684894 6.545507113167634 0 0 0
10717 1 6.810173055085272 83.97556077184895 -2.163537910232366 0 0 0
10718 1 5.049087262585271 82.73112785984897 -0.919392886832366 0 0 0
10719 1 5.049087262585271 82.73112785984897 -3.407682933632366 0 0 0
10720 1 6.810173055085272 83.97556077184895 0.3247670663676345 0 0 0
10721 1 6.810173055085272 86.46467508484893 0.3247670663676345 0 0 0
10722 1 5.049087262585271 85.22024217284896 1.568912089767634 0 0 0
10723 1 5.049087262585271 85.22024217284896 -0.919392886832366 0 0 0
10724 1 6.810173055085272 86.46467508484893 2.813057113167634 0 0 0
10725 1 6.810173055085272 88.95378939784895 2.813057113167634 0 0 0
10726 1 5.049087262585271 87.70910799684894 4.057217066367635 0 0 0
10727 1 5.049087262585271 87.70910799684894 1.568912089767634 0 0 0
10728 1 6.810173055085272 88.95378939784895 5.301362089767634 0 0 0
10729 1 6.810173055085272 91.44265522184897 5.301362089767634 0 0 0
10730 1 5.04912600608527 90.19822230984896 6.545507113167634 0 0 0
10731 1 5.04912600608527 90.19822230984896 4.057217066367635 0 0 0
10732 1 6.810173055085272 91.44265522184897 -7.140135919592366 0 0 1
10733 1 6.810173055085272 93.93176953484895 -7.140135919592366 0 0 1
10734 1 5.04912600608527 92.68733662284895 6.545507113167634 0 0 0
10735 1 5.049087262585271 82.73112785984897 -5.895987910232366 0 0 0
10736 1 6.810173055085272 83.97556077184895 -4.651842886832366 0 0 0
10737 1 6.810173055085272 86.46467508484893 -4.651842886832366 0 0 0
10738 1 5.049087262585271 85.22024217284896 -3.407682933632366 0 0 0
10739 1 5.049087262585271 85.22024217284896 -5.895987910232366 0 0 0
10740 1 6.810173055085272 86.46467508484893 -2.163537910232366 0 0 0
10741 1 6.810173055085272 88.95378939784895 -2.163537910232366 0 0 0
10742 1 5.049087262585271 87.70910799684894 -0.919392886832366 0 0 0
10743 1 5.049087262585271 87.70910799684894 -3.407682933632366 0 0 0
10744 1 6.810173055085272 88.95378939784895 0.3247670663676345 0 0 0
10745 1 6.810173055085272 91.44265522184897 0.3247670663676345 0 0 0
10746 1 5.04912600608527 90.19822230984896 1.568912089767634 0 0 0
10747 1 5.04912600608527 90.19822230984896 -0.919392886832366 0 0 0
10748 1 6.810173055085272 91.44265522184897 2.813057113167634 0 0 0
10749 1 6.810173055085272 93.93176953484895 2.813057113167634 0 0 0
10750 1 5.04912600608527 92.68733662284895 4.057217066367635 0 0 0
10751 1 5.04912600608527 92.68733662284895 1.568912089767634 0 0 0
10752 1 6.810173055085272 93.93176953484895 5.301362089767634 0 0 0
10753 1 5.04912600608527 95.17645093584896 6.545507113167634 0 0 0
10754 1 5.04912600608527 95.17645093584896 4.057217066367635 0 0 0
10755 1 5.049087262585271 87.70910799684894 -5.895987910232366 0 0 0
10756 1 6.810173055085272 88.95378939784895 -4.651842886832366 0 0 0
10757 1 6.810173055085272 91.44265522184897 -4.651842886832366 0 0 0
10758 1 5.04912600608527 90.19822230984896 -3.407682933632366 0 0 0
10759 1 5.04912600608527 90.19822230984896 -5.895987910232366 0 0 0
10760 1 6.810173055085272 91.44265522184897 -2.163537910232366 0 0 0
10761 1 6.810173055085272 93.93176953484895 -2.163537910232366 0 0 0
10762 1 5.04912600608527 92.68733662284895 -0.919392886832366 0 0 0
10763 1 5.04912600608527 92.68733662284895 -3.407682933632366 0 0 0
10764 1 6.810173055085272 93.93176953484895 0.3247670663676345 0 0 0
10765 1 5.04912600608527 95.17645093584896 1.568912089767634 0 0 0
10766 1 5.04912600608527 95.17645093584896 -0.919392886832366 0 0 0
10767 1 5.04912600608527 92.68733662284895 -5.895987910232366 0 0 0
10768 1 6.810173055085272 93.93176953484895 -4.651842886832366 0 0 0
10769 1 5.04912600608527 95.17645093584896 -3.407682933632366 0 0 0
10770 1 5.04912600608527 95.17645093584896 -5.895987910232366 0 0 0
10771 1 3.288040213585273 83.97556077184895 -7.140135919592366 0 0 1
10772 1 3.288040213585273 83.97556077184895 2.813057113167634 0 0 0
10773 1 3.288040213585273 83.97556077184895 5.301362089767634 0 0 0
10774 1 3.288040213585273 86.46467508484893 5.301362089767634 0 0 0
10775 1 3.288040213585273 86.46467508484893 -7.140135919592366 0 0 1
10776 1 3.288040213585273 88.95378939784895 -7.140135919592366 0 0 1
10777 1 3.288040213585273 83.97556077184895 -2.163537910232366 0 0 0
10778 1 3.288040213585273 83.97556077184895 0.3247670663676345 0 0 0
10779 1 3.288040213585273 86.46467508484893 0.3247670663676345 0 0 0
10780 1 3.288040213585273 86.46467508484893 2.813057113167634 0 0 0
10781 1 3.288040213585273 88.95378939784895 2.813057113167634 0 0 0
10782 1 3.288040213585273 88.95378939784895 5.301362089767634 0 0 0
10783 1 3.288040213585273 91.44265522184897 5.301362089767634 0 0 0
10784 1 3.288040213585273 91.44265522184897 -7.140135919592366 0 0 1
10785 1 3.288040213585273 93.93176953484895 -7.140135919592366 0 0 1
10786 1 3.288040213585273 83.97556077184895 -4.651842886832366 0 0 0
10787 1 3.288040213585273 86.46467508484893 -4.651842886832366 0 0 0
10788 1 3.288040213585273 86.46467508484893 -2.163537910232366 0 0 0
10789 1 3.288040213585273 88.95378939784895 -2.163537910232366 0 0 0
10790 1 3.288040213585273 88.95378939784895 0.3247670663676345 0 0 0
10791 1 3.288040213585273 91.44265522184897 0.3247670663676345 0 0 0
10792 1 3.288040213585273 91.44265522184897 2.813057113167634 0 0 0
10793 1 3.288040213585273 93.93176953484895 2.813057113167634 0 0 0
10794 1 3.288040213585273 93.93176953484895 5.301362089767634 0 0 0
10795 1 3.288040213585273 88.95378939784895 -4.651842886832366 0 0 0
10796 1 3.288040213585273 91.44265522184897 -4.651842886832366 0 0 0
10797 1 3.288040213585273 91.44265522184897 -2.163537910232366 0 0 0
10798 1 3.288040213585273 93.93176953484895 -2.163537910232366 0 0 0
10799 1 3.288040213585273 93.93176953484895 0.3247670663676345 0 0 0
10800 1 3.288040213585273 93.93176953484895 -4.651842886832366 0 0 0
10801 1 -16.08369041466473 97.66606222684895 6.545507113167634 1 0 0
10802 1 -16.08369041466473 97.66606222684895 4.057217066367635 1 0 0
10803 1 -16.08369041466473 97.66606222684895 1.568912089767634 1 0 0
10804 1 -16.08368654031473 100.1569159628489 6.545507113167634 1 0 0
10805 1 -16.08368654031473 100.1569159628489 4.057217066367635 1 0 0
10806 1 -16.08368266596473 102.6505030778489 6.545507113167634 1 0 0
10807 1 -16.08369041466473 97.66606222684895 -0.919392886832366 1 0 0
10808 1 -16.08369041466473 97.66606222684895 -3.407682933632366 1 0 0
10809 1 -16.08368654031473 100.1569159628489 1.568912089767634 1 0 0
10810 1 -16.08368654031473 100.1569159628489 -0.919392886832366 1 0 0
10811 1 -16.08368266596473 102.6505030778489 4.057217066367635 1 0 0
10812 1 -16.08368266596473 102.6505030778489 1.568912089767634 1 0 0
10813 1 -16.08369041466473 97.66606222684895 -5.895987910232366 1 0 0
10814 1 -16.08368654031473 100.1569159628489 -3.407682933632366 1 0 0
10815 1 -16.08368654031473 100.1569159628489 -5.895987910232366 1 0 0
10816 1 -16.08368266596473 102.6505030778489 -0.919392886832366 1 0 0
10817 1 -16.08368266596473 102.6505030778489 -3.407682933632366 1 0 0
10818 1 -16.08368266596473 102.6505030778489 -5.895987910232366 1 0 0
10819 1 -17.84476458411473 96.42063535884897 5.301362089767634 1 0 0
10820 1 -17.84476458411473 96.42063535884897 -7.140135919592366 1 0 1
10821 1 -17.84475683541473 98.90825873784895 -7.140135919592366 1 0 1
10822 1 19.13765737208527 97.66606222684895 6.545507113167634 0 0 0
10823 1 -17.84476458411473 96.42063535884897 0.3247670663676345 1 0 0
10824 1 -17.84476458411473 96.42063535884897 2.813057113167634 1 0 0
10825 1 -17.84475683541473 98.90825873784895 2.813057113167634 1 0 0
10826 1 19.13765737208527 97.66606222684895 4.057217066367635 0 0 0
10827 1 19.13765737208527 97.66606222684895 1.568912089767634 0 0 0
10828 1 -17.84475683541473 98.90825873784895 5.301362089767634 1 0 0
10829 1 -17.84474908671473 101.390912336849 5.301362089767634 1 0 0
10830 1 19.13769611558527 100.1569159628489 6.545507113167634 0 0 0
10831 1 19.13769611558527 100.1569159628489 4.057217066367635 0 0 0
10832 1 -17.84474908671473 101.390912336849 -7.140135919592366 1 0 1
10833 1 -17.84474908671473 103.874311402849 -7.140135919592366 1 0 1
10834 1 19.13769611558527 102.6505030778489 6.545507113167634 0 0 0
10835 1 -17.84476458411473 96.42063535884897 -4.651842886832366 1 0 0
10836 1 -17.84476458411473 96.42063535884897 -2.163537910232366 1 0 0
10837 1 -17.84475683541473 98.90825873784895 -2.163537910232366 1 0 0
10838 1 19.13765737208527 97.66606222684895 -0.919392886832366 0 0 0
10839 1 19.13765737208527 97.66606222684895 -3.407682933632366 0 0 0
10840 1 -17.84475683541473 98.90825873784895 0.3247670663676345 1 0 0
10841 1 -17.84474908671473 101.390912336849 0.3247670663676345 1 0 0
10842 1 19.13769611558527 100.1569159628489 1.568912089767634 0 0 0
10843 1 19.13769611558527 100.1569159628489 -0.919392886832366 0 0 0
10844 1 -17.84474908671473 101.390912336849 2.813057113167634 1 0 0
10845 1 -17.84474908671473 103.874311402849 2.813057113167634 1 0 0
10846 1 19.13769611558527 102.6505030778489 4.057217066367635 0 0 0
10847 1 19.13769611558527 102.6505030778489 1.568912089767634 0 0 0
10848 1 -17.84474908671473 103.874311402849 5.301362089767634 1 0 0
10849 1 19.13765737208527 97.66606222684895 -5.895987910232366 0 0 0
10850 1 -17.84475683541473 98.90825873784895 -4.651842886832366 1 0 0
10851 1 -17.84474908671473 101.390912336849 -4.651842886832366 1 0 0
10852 1 19.13769611558527 100.1569159628489 -3.407682933632366 0 0 0
10853 1 19.13769611558527 100.1569159628489 -5.895987910232366 0 0 0
10854 1 -17.84474908671473 101.390912336849 -2.163537910232366 1 0 0
10855 1 -17.84474908671473 103.874311402849 -2.163537910232366 1 0 0
10856 1 19.13769611558527 102.6505030778489 -0.919392886832366 0 0 0
10857 1 19.13769611558527 102.6505030778489 -3.407682933632366 0 0 0
10858 1 -17.84474908671473 103.874311402849 0.3247670663676345 1 0 0
10859 1 19.13769611558527 102.6505030778489 -5.895987910232366 0 0 0
10860 1 -17.84474908671473 103.874311402849 -4.651842886832366 1 0 0
10861 1 17.37661032308527 96.42063535884897 5.301362089767634 0 0 0
10862 1 17.37661032308527 96.42063535884897 -7.140135919592366 0 0 1
10863 1 17.37661032308527 98.90825873784895 -7.140135919592366 0 0 1
10864 1 15.61552453058527 97.66606222684895 6.545507113167634 0 0 0
10865 1 17.37661032308527 96.42063535884897 0.3247670663676345 0 0 0
10866 1 17.37661032308527 96.42063535884897 2.813057113167634 0 0 0
10867 1 17.37661032308527 98.90825873784895 2.813057113167634 0 0 0
10868 1 15.61552453058527 97.66606222684895 4.057217066367635 0 0 0
10869 1 15.61552453058527 97.66606222684895 1.568912089767634 0 0 0
10870 1 17.37661032308527 98.90825873784895 5.301362089767634 0 0 0
10871 1 17.37661032308527 101.390912336849 5.301362089767634 0 0 0
10872 1 15.61552453058527 100.1569159628489 6.545507113167634 0 0 0
10873 1 15.61552453058527 100.1569159628489 4.057217066367635 0 0 0
10874 1 17.37661032308527 101.390912336849 -7.140135919592366 0 0 1
10875 1 17.37661032308527 103.874311402849 -7.140135919592366 0 0 1
10876 1 15.61556327408527 102.6505030778489 6.545507113167634 0 0 0
10877 1 17.37661032308527 96.42063535884897 -4.651842886832366 0 0 0
10878 1 17.37661032308527 96.42063535884897 -2.163537910232366 0 0 0
10879 1 17.37661032308527 98.90825873784895 -2.163537910232366 0 0 0
10880 1 15.61552453058527 97.66606222684895 -0.919392886832366 0 0 0
10881 1 15.61552453058527 97.66606222684895 -3.407682933632366 0 0 0
10882 1 17.37661032308527 98.90825873784895 0.3247670663676345 0 0 0
10883 1 17.37661032308527 101.390912336849 0.3247670663676345 0 0 0
10884 1 15.61552453058527 100.1569159628489 1.568912089767634 0 0 0
10885 1 15.61552453058527 100.1569159628489 -0.919392886832366 0 0 0
10886 1 17.37661032308527 101.390912336849 2.813057113167634 0 0 0
10887 1 17.37661032308527 103.874311402849 2.813057113167634 0 0 0
10888 1 15.61556327408527 102.6505030778489 4.057217066367635 0 0 0
10889 1 15.61556327408527 102.6505030778489 1.568912089767634 0 0 0
10890 1 17.37661032308527 103.874311402849 5.301362089767634 0 0 0
10891 1 15.61552453058527 97.66606222684895 -5.895987910232366 0 0 0
10892 1 17.37661032308527 98.90825873784895 -4.651842886832366 0 0 0
10893 1 17.37661032308527 101.390912336849 -4.651842886832366 0 0 0
10894 1 15.61552453058527 100.1569159628489 -3.407682933632366 0 0 0
10895 1 15.61552453058527 100.1569159628489 -5.895987910232366 0 0 0
10896 1 17.37661032308527 101.390912336849 -2.163537910232366 0 0 0
10897 1 17.37661032308527 103.874311402849 -2.163537910232366 0 0 0
10898 1 15.61556327408527 102.6505030778489 -0.919392886832366 0 0 0
10899 1 15.61556327408527 102.6505030778489 -3.407682933632366 0 0 0
10900 1 17.37661032308527 103.874311402849 0.3247670663676345 0 0 0
10901 1 15.61556327408527 102.6505030778489 -5.895987910232366 0 0 0
10902 1 17.37661032308527 103.874311402849 -4.651842886832366 0 0 0
10903 1 13.85447748158527 96.42063535884897 5.301362089767634 0 0 0
10904 1 13.85447748158527 96.42063535884897 -7.140135919592366 0 0 1
10905 1 13.85447748158527 98.90825873784895 -7.140135919592366 0 0 1
10906 1 12.09339168908527 97.66606222684895 6.545507113167634 0 0 0
10907 1 13.85447748158527 96.42063535884897 0.3247670663676345 0 0 0
10908 1 13.85447748158527 96.42063535884897 2.813057113167634 0 0 0
10909 1 13.85447748158527 98.90825873784895 2.813057113167634 0 0 0
10910 1 12.09339168908527 97.66606222684895 4.057217066367635 0 0 0
10911 1 12.09339168908527 97.66606222684895 1.568912089767634 0 0 0
10912 1 13.85447748158527 98.90825873784895 5.301362089767634 0 0 0
10913 1 13.85447748158527 101.390912336849 5.301362089767634 0 0 0
10914 1 12.09339168908527 100.1569159628489 6.545507113167634 0 0 0
10915 1 12.09339168908527 100.1569159628489 4.057217066367635 0 0 0
10916 1 13.85447748158527 101.390912336849 -7.140135919592366 0 0 1
10917 1 13.85447748158527 103.874311402849 -7.140135919592366 0 0 1
10918 1 12.09339168908527 102.6505030778489 6.545507113167634 0 0 0
10919 1 13.85447748158527 96.42063535884897 -4.651842886832366 0 0 0
10920 1 13.85447748158527 96.42063535884897 -2.163537910232366 0 0 0
10921 1 13.85447748158527 98.90825873784895 -2.163537910232366 0 0 0
10922 1 12.09339168908527 97.66606222684895 -0.919392886832366 0 0 0
10923 1 12.09339168908527 97.66606222684895 -3.407682933632366 0 0 0
10924 1 13.85447748158527 98.90825873784895 0.3247670663676345 0 0 0
10925 1 13.85447748158527 101.390912336849 0.3247670663676345 0 0 0
10926 1 12.09339168908527 100.1569159628489 1.568912089767634 0 0 0
10927 1 12.09339168908527 100.1569159628489 -0.919392886832366 0 0 0
10928 1 13.85447748158527 101.390912336849 2.813057113167634 0 0 0
10929 1 13.85447748158527 103.874311402849 2.813057113167634 0 0 0
10930 1 12.09339168908527 102.6505030778489 4.057217066367635 0 0 0
10931 1 12.09339168908527 102.6505030778489 1.568912089767634 0 0 0
10932 1 13.85447748158527 103.874311402849 5.301362089767634 0 0 0
10933 1 12.09339168908527 97.66606222684895 -5.895987910232366 0 0 0
10934 1 13.85447748158527 98.90825873784895 -4.651842886832366 0 0 0
10935 1 13.85447748158527 101.390912336849 -4.651842886832366 0 0 0
10936 1 12.09339168908527 100.1569159628489 -3.407682933632366 0 0 0
10937 1 12.09339168908527 100.1569159628489 -5.895987910232366 0 0 0
10938 1 13.85447748158527 101.390912336849 -2.163537910232366 0 0 0
10939 1 13.85447748158527 103.874311402849 -2.163537910232366 0 0 0
10940 1 12.09339168908527 102.6505030778489 -0.919392886832366 0 0 0
10941 1 12.09339168908527 102.6505030778489 -3.407682933632366 0 0 0
10942 1 13.85447748158527 103.874311402849 0.3247670663676345 0 0 0
10943 1 12.09339168908527 102.6505030778489 -5.895987910232366 0 0 0
10944 1 13.85447748158527 103.874311402849 -4.651842886832366 0 0 0
10945 1 10.33234464008527 96.42063535884897 5.301362089767634 0 0 0
10946 1 10.33234464008527 96.42063535884897 -7.140135919592366 0 0 1
10947 1 10.33234464008527 98.90825873784895 -7.140135919592366 0 0 1
10948 1 8.57125884758527 97.66606222684895 6.545507113167634 0 0 0
10949 1 10.33234464008527 96.42063535884897 0.3247670663676345 0 0 0
10950 1 10.33234464008527 96.42063535884897 2.813057113167634 0 0 0
10951 1 10.33234464008527 98.90825873784895 2.813057113167634 0 0 0
10952 1 8.57125884758527 97.66606222684895 4.057217066367635 0 0 0
10953 1 8.57125884758527 97.66606222684895 1.568912089767634 0 0 0
10954 1 10.33234464008527 98.90825873784895 5.301362089767634 0 0 0
10955 1 10.33234464008527 101.390912336849 5.301362089767634 0 0 0
10956 1 8.57125884758527 100.1569159628489 6.545507113167634 0 0 0
10957 1 8.57125884758527 100.1569159628489 4.057217066367635 0 0 0
10958 1 10.33234464008527 101.390912336849 -7.140135919592366 0 0 1
10959 1 10.33234464008527 103.874311402849 -7.140135919592366 0 0 1
10960 1 8.57125884758527 102.6505030778489 6.545507113167634 0 0 0
10961 1 10.33234464008527 96.42063535884897 -4.651842886832366 0 0 0
10962 1 10.33234464008527 96.42063535884897 -2.163537910232366 0 0 0
10963 1 10.33234464008527 98.90825873784895 -2.163537910232366 0 0 0
10964 1 8.57125884758527 97.66606222684895 -0.919392886832366 0 0 0
10965 1 8.57125884758527 97.66606222684895 -3.407682933632366 0 0 0
10966 1 10.33234464008527 98.90825873784895 0.3247670663676345 0 0 0
10967 1 10.33234464008527 101.390912336849 0.3247670663676345 0 0 0
10968 1 8.57125884758527 100.1569159628489 1.568912089767634 0 0 0
10969 1 8.57125884758527 100.1569159628489 -0.919392886832366 0 0 0
10970 1 10.33234464008527 101.390912336849 2.813057113167634 0 0 0
10971 1 10.33234464008527 103.874311402849 2.813057113167634 0 0 0
10972 1 8.57125884758527 102.6505030778489 4.057217066367635 0 0 0
10973 1 8.57125884758527 102.6505030778489 1.568912089767634 0 0 0
10974 1 10.33234464008527 103.874311402849 5.301362089767634 0 0 0
10975 1 8.57125884758527 97.66606222684895 -5.895987910232366 0 0 0
10976 1 10.33234464008527 98.90825873784895 -4.651842886832366 0 0 0
10977 1 10.33234464008527 101.390912336849 -4.651842886832366 0 0 0
10978 1 8.57125884758527 100.1569159628489 -3.407682933632366 0 0 0
10979 1 8.57125884758527 100.1569159628489 -5.895987910232366 0 0 0
10980 1 10.33234464008527 101.390912336849 -2.163537910232366 0 0 0
10981 1 10.33234464008527 103.874311402849 -2.163537910232366 0 0 0
10982 1 8.57125884758527 102.6505030778489 -0.919392886832366 0 0 0
10983 1 8.57125884758527 102.6505030778489 -3.407682933632366 0 0 0
10984 1 10.33234464008527 103.874311402849 0.3247670663676345 0 0 0
10985 1 8.57125884758527 102.6505030778489 -5.895987910232366 0 0 0
10986 1 10.33234464008527 103.874311402849 -4.651842886832366 0 0 0
10987 1 6.810173055085272 96.42063535884897 5.301362089767634 0 0 0
10988 1 6.810173055085272 96.42063535884897 -7.140135919592366 0 0 1
10989 1 6.810211798585268 98.90825873784895 -7.140135919592366 0 0 1
10990 1 5.04912600608527 97.66606222684895 6.545507113167634 0 0 0
10991 1 6.810173055085272 96.42063535884897 0.3247670663676345 0 0 0
10992 1 6.810173055085272 96.42063535884897 2.813057113167634 0 0 0
10993 1 6.810211798585268 98.90825873784895 2.813057113167634 0 0 0
10994 1 5.04912600608527 97.66606222684895 4.057217066367635 0 0 0
10995 1 5.04912600608527 97.66606222684895 1.568912089767634 0 0 0
10996 1 6.810211798585268 98.90825873784895 5.301362089767634 0 0 0
10997 1 6.810211798585268 101.390912336849 5.301362089767634 0 0 0
10998 1 5.04912600608527 100.1569159628489 6.545507113167634 0 0 0
10999 1 5.04912600608527 100.1569159628489 4.057217066367635 0 0 0
11000 1 6.810211798585268 101.390912336849 -7.140135919592366 0 0 1
11001 1 6.810211798585268 103.874311402849 -7.140135919592366 0 0 1
11002 1 5.04912600608527 102.6505030778489 6.545507113167634 0 0 0
11003 1 6.810173055085272 96.42063535884897 -4.651842886832366 0 0 0
11004 1 6.810173055085272 96.42063535884897 -2.163537910232366 0 0 0
11005 1 6.810211798585268 98.90825873784895 -2.163537910232366 0 0 0
11006 1 5.04912600608527 97.66606222684895 -0.919392886832366 0 0 0
11007 1 5.04912600608527 97.66606222684895 -3.407682933632366 0 0 0
11008 1 6.810211798585268 98.90825873784895 0.3247670663676345 0 0 0
11009 1 6.810211798585268 101.390912336849 0.3247670663676345 0 0 0
11010 1 5.04912600608527 100.1569159628489 1.568912089767634 0 0 0
11011 1 5.04912600608527 100.1569159628489 -0.919392886832366 0 0 0
11012 1 6.810211798585268 101.390912336849 2.813057113167634 0 0 0
11013 1 6.810211798585268 103.874311402849 2.813057113167634 0 0 0
11014 1 5.04912600608527 102.6505030778489 4.057217066367635 0 0 0
11015 1 5.04912600608527 102.6505030778489 1.568912089767634 0 0 0
11016 1 6.810211798585268 103.874311402849 5.301362089767634 0 0 0
11017 1 5.04912600608527 97.66606222684895 -5.895987910232366 0 0 0
11018 1 6.810211798585268 98.90825873784895 -4.651842886832366 0 0 0
11019 1 6.810211798585268 101.390912336849 -4.651842886832366 0 0 0
11020 1 5.04912600608527 100.1569159628489 -3.407682933632366 0 0 0
11021 1 5.04912600608527 100.1569159628489 -5.895987910232366 0 0 0
11022 1 6.810211798585268 101.390912336849 -2.163537910232366 0 0 0
11023 1 6.810211798585268 103.874311402849 -2.163537910232366 0 0 0
11024 1 5.04912600608527 102.6505030778489 -0.919392886832366 0 0 0
11025 1 5.04912600608527 102.6505030778489 -3.407682933632366 0 0 0
11026 1 6.810211798585268 103.874311402849 0.3247670663676345 0 0 0
11027 1 5.04912600608527 102.6505030778489 -5.895987910232366 0 0 0
11028 1 6.810211798585268 103.874311402849 -4.651842886832366 0 0 0
11029 1 3.288040213585273 96.42063535884897 5.301362089767634 0 0 0
11030 1 3.288040213585273 96.42063535884897 -7.140135919592366 0 0 1
11031 1 3.288078957085272 98.90825873784895 -7.140135919592366 0 0 1
11032 1 3.288040213585273 96.42063535884897 0.3247670663676345 0 0 0
11033 1 3.288040213585273 96.42063535884897 2.813057113167634 0 0 0
11034 1 3.288078957085272 98.90825873784895 2.813057113167634 0 0 0
11035 1 3.288078957085272 98.90825873784895 5.301362089767634 0 0 0
11036 1 3.288078957085272 101.390912336849 5.301362089767634 0 0 0
11037 1 3.288078957085272 101.390912336849 -7.140135919592366 0 0 1
11038 1 3.288078957085272 103.874311402849 -7.140135919592366 0 0 1
11039 1 3.288040213585273 96.42063535884897 -4.651842886832366 0 0 0
11040 1 3.288040213585273 96.42063535884897 -2.163537910232366 0 0 0
11041 1 3.288078957085272 98.90825873784895 -2.163537910232366 0 0 0
11042 1 3.288078957085272 98.90825873784895 0.3247670663676345 0 0 0
11043 1 3.288078957085272 101.390912336849 0.3247670663676345 0 0 0
11044 1 3.288078957085272 101.390912336849 2.813057113167634 0 0 0
11045 1 3.288078957085272 103.874311402849 2.813057113167634 0 0 0
11046 1 3.288078957085272 103.874311402849 5.301362089767634 0 0 0
11047 1 3.288078957085272 98.90825873784895 -4.651842886832366 0 0 0
11048 1 3.288078957085272 101.390912336849 -4.651842886832366 0 0 0
11049 1 3.288078957085272 101.390912336849 -2.163537910232366 0 0 0
11050 1 3.288078957085272 103.874311402849 -2.163537910232366 0 0 0
11051 1 3.288078957085272 103.874311402849 0.3247670663676345 0 0 0
11052 1 3.288078957085272 103.874311402849 -4.651842886832366 0 0 0
