# Converted from 004_gb_shear_step_0021.cfg; coordinate origin: source_lammps_box

11052 atoms
1 atom types

-19.37175440091473 19.37174559908527 xlo xhi
-123.7982680891511 124.690731910849 ylo yhi
-7.464885943232366 7.464914056767634 zlo zhi

Masses

1 58.6934 # Ni

Atoms # atomic

1 1 -2.20179750591473 -103.0341296667511 5.892298503567634 0 0 0
2 1 -2.20179750591473 -103.0341296667511 3.404008456767635 0 0 0
3 1 -2.20179750591473 -103.0341296667511 0.9157034801676343 0 0 0
4 1 -0.7654597304147295 -100.9930907185511 5.892298503567634 0 0 0
5 1 -0.7654597304147295 -100.9930907185511 3.404008456767635 0 0 0
6 1 -2.20179750591473 -103.0341296667511 -1.572601496432365 0 0 0
7 1 -2.20179750591473 -103.0341296667511 -4.060891543232366 0 0 0
8 1 -0.7654597304147295 -100.9930907185511 0.9157034801676343 0 0 0
9 1 -0.7654597304147295 -100.9930907185511 -1.572601496432365 0 0 0
10 1 -2.20179750591473 -103.0341296667511 -6.549198012812366 0 0 0
11 1 -0.7654597304147295 -100.9930907185511 -4.060891543232366 0 0 0
12 1 -0.7654597304147295 -100.9930907185511 -6.549198012812366 0 0 0
13 1 -4.354192648414729 -103.0341296667511 4.648153480167634 0 0 0
14 1 -6.50662653441473 -103.034104817851 5.892298503567634 0 0 0
15 1 -6.50662653441473 -103.034104817851 3.404008456767635 0 0 0
16 1 -4.354192648414729 -103.0341296667511 7.136458456767635 0 0 0
17 1 -2.91789361641473 -100.993065869651 7.136458456767635 0 0 0
18 1 -5.070327502414729 -100.993065869651 5.892298503567634 0 0 0
19 1 -4.354192648414729 -103.0341296667511 -0.3284415432323664 0 0 0
20 1 -6.50662653441473 -103.034104817851 0.9157034801676343 0 0 0
21 1 -6.50662653441473 -103.034104817851 -1.572601496432365 0 0 0
22 1 -4.354192648414729 -103.0341296667511 2.159848503567634 0 0 0
23 1 -2.91789361641473 -100.993065869651 2.159848503567634 0 0 0
24 1 -5.070327502414729 -100.993065869651 3.404008456767635 0 0 0
25 1 -5.070327502414729 -100.993065869651 0.9157034801676343 0 0 0
26 1 -2.91789361641473 -100.993065869651 4.648153480167634 0 0 0
27 1 -1.48155584091473 -98.95881067115106 4.648153480167634 0 0 0
28 1 -3.633989726914729 -98.95878582225106 5.892298503567634 0 0 0
29 1 -3.633989726914729 -98.95878582225106 3.404008456767635 0 0 0
30 1 -1.48155584091473 -98.95881067115106 7.136458456767635 0 0 0
31 1 -2.197651951414731 -96.92617065115105 5.892298503567634 0 0 0
32 1 -4.354192648414729 -103.0341296667511 -5.305051496432366 0 0 0
33 1 -6.50662653441473 -103.034104817851 -4.060891543232366 0 0 0
34 1 -6.50662653441473 -103.034104817851 -6.549198012812366 0 0 0
35 1 -4.354192648414729 -103.0341296667511 -2.816746519832365 0 0 0
36 1 -2.91789361641473 -100.993065869651 -2.816746519832365 0 0 0
37 1 -5.070327502414729 -100.993065869651 -1.572601496432365 0 0 0
38 1 -5.070327502414729 -100.993065869651 -4.060891543232366 0 0 0
39 1 -2.91789361641473 -100.993065869651 -0.3284415432323664 0 0 0
40 1 -1.48155584091473 -98.95881067115106 -0.3284415432323664 0 0 0
41 1 -3.633989726914729 -98.95878582225106 0.9157034801676343 0 0 0
42 1 -3.633989726914729 -98.95878582225106 -1.572601496432365 0 0 0
43 1 -1.48155584091473 -98.95881067115106 2.159848503567634 0 0 0
44 1 -2.197651951414731 -96.92617065115105 3.404008456767635 0 0 0
45 1 -2.197651951414731 -96.92617065115105 0.9157034801676343 0 0 0
46 1 -5.070327502414729 -100.993065869651 -6.549198012812366 0 0 0
47 1 -2.91789361641473 -100.993065869651 -5.305051496432366 0 0 0
48 1 -1.48155584091473 -98.95881067115106 -5.305051496432366 0 0 0
49 1 -3.633989726914729 -98.95878582225106 -4.060891543232366 0 0 0
50 1 -3.633989726914729 -98.95878582225106 -6.549198012812366 0 0 0
51 1 -1.48155584091473 -98.95881067115106 -2.816746519832365 0 0 0
52 1 -2.197651951414731 -96.92617065115105 -1.572601496432365 0 0 0
53 1 -2.197651951414731 -96.92617065115105 -4.060891543232366 0 0 0
54 1 -2.197651951414731 -96.92617065115105 -6.549198012812366 0 0 0
55 1 -8.659060420414729 -103.034104817851 7.136458456767635 0 0 0
56 1 -10.81145556291473 -103.034104817851 5.892298503567634 0 0 0
57 1 -8.659060420414729 -103.034104817851 2.159848503567634 0 0 0
58 1 -10.81145556291473 -103.034104817851 3.404008456767635 0 0 0
59 1 -10.81145556291473 -103.034104817851 0.9157034801676343 0 0 0
60 1 -8.659060420414729 -103.034104817851 4.648153480167634 0 0 0
61 1 -7.222722644914729 -100.993065869651 4.648153480167634 0 0 0
62 1 -9.375156530914728 -100.9930410207511 5.892298503567634 0 0 0
63 1 -9.375156530914728 -100.9930410207511 3.404008456767635 0 0 0
64 1 -7.222722644914729 -100.993065869651 7.136458456767635 0 0 0
65 1 -5.78638486941473 -98.95878582225106 7.136458456767635 0 0 0
66 1 -7.938818755414729 -98.95878582225106 5.892298503567634 0 0 0
67 1 -8.659060420414729 -103.034104817851 -2.816746519832365 0 0 0
68 1 -10.81145556291473 -103.034104817851 -1.572601496432365 0 0 0
69 1 -10.81145556291473 -103.034104817851 -4.060891543232366 0 0 0
70 1 -8.659060420414729 -103.034104817851 -0.3284415432323664 0 0 0
71 1 -7.222722644914729 -100.993065869651 -0.3284415432323664 0 0 0
72 1 -9.375156530914728 -100.9930410207511 0.9157034801676343 0 0 0
73 1 -9.375156530914728 -100.9930410207511 -1.572601496432365 0 0 0
74 1 -7.222722644914729 -100.993065869651 2.159848503567634 0 0 0
75 1 -5.78638486941473 -98.95878582225106 2.159848503567634 0 0 0
76 1 -7.938818755414729 -98.95878582225106 3.404008456767635 0 0 0
77 1 -7.938818755414729 -98.95878582225106 0.9157034801676343 0 0 0
78 1 -5.78638486941473 -98.95878582225106 4.648153480167634 0 0 0
79 1 -4.35008583741473 -96.92617065115105 4.648153480167634 0 0 0
80 1 -6.502480979914729 -96.92617065115105 5.892298503567634 0 0 0
81 1 -6.502480979914729 -96.92617065115105 3.404008456767635 0 0 0
82 1 -4.35008583741473 -96.92617065115105 7.136458456767635 0 0 0
83 1 -10.81145556291473 -103.034104817851 -6.549198012812366 0 0 0
84 1 -8.659060420414729 -103.034104817851 -5.305051496432366 0 0 0
85 1 -7.222722644914729 -100.993065869651 -5.305051496432366 0 0 0
86 1 -9.375156530914728 -100.9930410207511 -4.060891543232366 0 0 0
87 1 -9.375156530914728 -100.9930410207511 -6.549198012812366 0 0 0
88 1 -7.222722644914729 -100.993065869651 -2.816746519832365 0 0 0
89 1 -5.78638486941473 -98.95878582225106 -2.816746519832365 0 0 0
90 1 -7.938818755414729 -98.95878582225106 -1.572601496432365 0 0 0
91 1 -7.938818755414729 -98.95878582225106 -4.060891543232366 0 0 0
92 1 -5.78638486941473 -98.95878582225106 -0.3284415432323664 0 0 0
93 1 -4.35008583741473 -96.92617065115105 -0.3284415432323664 0 0 0
94 1 -6.502480979914729 -96.92617065115105 0.9157034801676343 0 0 0
95 1 -6.502480979914729 -96.92617065115105 -1.572601496432365 0 0 0
96 1 -4.35008583741473 -96.92617065115105 2.159848503567634 0 0 0
97 1 -7.938818755414729 -98.95878582225106 -6.549198012812366 0 0 0
98 1 -5.78638486941473 -98.95878582225106 -5.305051496432366 0 0 0
99 1 -4.35008583741473 -96.92617065115105 -5.305051496432366 0 0 0
100 1 -6.502480979914729 -96.92617065115105 -4.060891543232366 0 0 0
101 1 -6.502480979914729 -96.92617065115105 -6.549198012812366 0 0 0
102 1 -4.35008583741473 -96.92617065115105 -2.816746519832365 0 0 0
103 1 -12.96388944891473 -103.034079968951 4.648153480167634 0 0 0
104 1 -15.11628459141473 -103.034079968951 5.892298503567634 0 0 0
105 1 -15.11628459141473 -103.034079968951 3.404008456767635 0 0 0
106 1 -12.96388944891473 -103.034079968951 7.136458456767635 0 0 0
107 1 -11.52755167341473 -100.9930410207511 7.136458456767635 0 0 0
108 1 -13.67998555941473 -100.9930410207511 5.892298503567634 0 0 0
109 1 -12.96388944891473 -103.034079968951 -0.3284415432323664 0 0 0
110 1 -15.11628459141473 -103.034079968951 0.9157034801676343 0 0 0
111 1 -15.11628459141473 -103.034079968951 -1.572601496432365 0 0 0
112 1 -12.96388944891473 -103.034079968951 2.159848503567634 0 0 0
113 1 -11.52755167341473 -100.9930410207511 2.159848503567634 0 0 0
114 1 -13.67998555941473 -100.9930410207511 3.404008456767635 0 0 0
115 1 -13.67998555941473 -100.9930410207511 0.9157034801676343 0 0 0
116 1 -11.52755167341473 -100.9930410207511 4.648153480167634 0 0 0
117 1 -10.09121389791473 -98.95876097335105 4.648153480167634 0 0 0
118 1 -12.24364778391473 -98.95876097335105 5.892298503567634 0 0 0
119 1 -12.24364778391473 -98.95876097335105 3.404008456767635 0 0 0
120 1 -10.09121389791473 -98.95876097335105 7.136458456767635 0 0 0
121 1 -8.654914865914728 -96.92592216215105 7.136458456767635 0 0 0
122 1 -10.80731000841473 -96.92592216215105 5.892298503567634 0 0 0
123 1 -12.96388944891473 -103.034079968951 -5.305051496432366 0 0 0
124 1 -15.11628459141473 -103.034079968951 -4.060891543232366 0 0 0
125 1 -15.11628459141473 -103.034079968951 -6.549198012812366 0 0 0
126 1 -12.96388944891473 -103.034079968951 -2.816746519832365 0 0 0
127 1 -11.52755167341473 -100.9930410207511 -2.816746519832365 0 0 0
128 1 -13.67998555941473 -100.9930410207511 -1.572601496432365 0 0 0
129 1 -13.67998555941473 -100.9930410207511 -4.060891543232366 0 0 0
130 1 -11.52755167341473 -100.9930410207511 -0.3284415432323664 0 0 0
131 1 -10.09121389791473 -98.95876097335105 -0.3284415432323664 0 0 0
132 1 -12.24364778391473 -98.95876097335105 0.9157034801676343 0 0 0
133 1 -12.24364778391473 -98.95876097335105 -1.572601496432365 0 0 0
134 1 -10.09121389791473 -98.95876097335105 2.159848503567634 0 0 0
135 1 -8.654914865914728 -96.92592216215105 2.159848503567634 0 0 0
136 1 -10.80731000841473 -96.92592216215105 3.404008456767635 0 0 0
137 1 -10.80731000841473 -96.92592216215105 0.9157034801676343 0 0 0
138 1 -8.654914865914728 -96.92592216215105 4.648153480167634 0 0 0
139 1 -13.67998555941473 -100.9930410207511 -6.549198012812366 0 0 0
140 1 -11.52755167341473 -100.9930410207511 -5.305051496432366 0 0 0
141 1 -10.09121389791473 -98.95876097335105 -5.305051496432366 0 0 0
142 1 -12.24364778391473 -98.95876097335105 -4.060891543232366 0 0 0
143 1 -12.24364778391473 -98.95876097335105 -6.549198012812366 0 0 0
144 1 -10.09121389791473 -98.95876097335105 -2.816746519832365 0 0 0
145 1 -8.654914865914728 -96.92592216215105 -2.816746519832365 0 0 0
146 1 -10.80731000841473 -96.92592216215105 -1.572601496432365 0 0 0
147 1 -10.80731000841473 -96.92592216215105 -4.060891543232366 0 0 0
148 1 -8.654914865914728 -96.92592216215105 -0.3284415432323664 0 0 0
149 1 -10.80731000841473 -96.92592216215105 -6.549198012812366 0 0 0
150 1 -8.654914865914728 -96.92592216215105 -5.305051496432366 0 0 0
151 1 -17.26870298001473 -103.034079968951 7.136458456767635 0 0 0
152 1 -17.26870298001473 -103.034079968951 2.159848503567634 0 0 0
153 1 -17.26870298001473 -103.034079968951 4.648153480167634 0 0 0
154 1 -15.83239232496473 -100.9930410207511 4.648153480167634 0 0 0
155 1 -17.98480683921473 -100.9930410207511 5.892298503567634 0 0 0
156 1 -17.98480683921473 -100.9930410207511 3.404008456767635 0 0 0
157 1 -15.83239232496473 -100.9930410207511 7.136458456767635 0 0 0
158 1 -14.39604292641473 -98.95876097335105 7.136458456767635 0 0 0
159 1 -16.54847681241473 -98.95876097335105 5.892298503567634 0 0 0
160 1 -17.26870298001473 -103.034079968951 -2.816746519832365 0 0 0
161 1 -17.26870298001473 -103.034079968951 -0.3284415432323664 0 0 0
162 1 -15.83239232496473 -100.9930410207511 -0.3284415432323664 0 0 0
163 1 -17.98480683921473 -100.9930410207511 0.9157034801676343 0 0 0
164 1 -17.98480683921473 -100.9930410207511 -1.572601496432365 0 0 0
165 1 -15.83239232496473 -100.9930410207511 2.159848503567634 0 0 0
166 1 -14.39604292641473 -98.95876097335105 2.159848503567634 0 0 0
167 1 -16.54847681241473 -98.95876097335105 3.404008456767635 0 0 0
168 1 -16.54847681241473 -98.95876097335105 0.9157034801676343 0 0 0
169 1 -14.39604292641473 -98.95876097335105 4.648153480167634 0 0 0
170 1 -12.95974389441473 -96.92592216215105 4.648153480167634 0 0 0
171 1 -15.11213903691473 -96.92592216215105 5.892298503567634 0 0 0
172 1 -15.11213903691473 -96.92592216215105 3.404008456767635 0 0 0
173 1 -12.95974389441473 -96.92592216215105 7.136458456767635 0 0 0
174 1 -17.26870298001473 -103.034079968951 -5.305051496432366 0 0 0
175 1 -15.83239232496473 -100.9930410207511 -5.305051496432366 0 0 0
176 1 -17.98480683921473 -100.9930410207511 -4.060891543232366 0 0 0
177 1 -17.98480683921473 -100.9930410207511 -6.549198012812366 0 0 0
178 1 -15.83239232496473 -100.9930410207511 -2.816746519832365 0 0 0
179 1 -14.39604292641473 -98.95876097335105 -2.816746519832365 0 0 0
180 1 -16.54847681241473 -98.95876097335105 -1.572601496432365 0 0 0
181 1 -16.54847681241473 -98.95876097335105 -4.060891543232366 0 0 0
182 1 -14.39604292641473 -98.95876097335105 -0.3284415432323664 0 0 0
183 1 -12.95974389441473 -96.92592216215105 -0.3284415432323664 0 0 0
184 1 -15.11213903691473 -96.92592216215105 0.9157034801676343 0 0 0
185 1 -15.11213903691473 -96.92592216215105 -1.572601496432365 0 0 0
186 1 -12.95974389441473 -96.92592216215105 2.159848503567634 0 0 0
187 1 -16.54847681241473 -98.95876097335105 -6.549198012812366 0 0 0
188 1 -14.39604292641473 -98.95876097335105 -5.305051496432366 0 0 0
189 1 -12.95974389441473 -96.92592216215105 -5.305051496432366 0 0 0
190 1 -15.11213903691473 -96.92592216215105 -4.060891543232366 0 0 0
191 1 -15.11213903691473 -96.92592216215105 -6.549198012812366 0 0 0
192 1 -12.95974389441473 -96.92592216215105 -2.816746519832365 0 0 0
193 1 -18.70089132666473 -98.95876097335105 4.648153480167634 0 0 0
194 1 -18.70089132666473 -98.95876097335105 7.136458456767635 0 0 0
195 1 -17.26457292291473 -96.92592216215105 7.136458456767635 0 0 0
196 1 -18.70089132666473 -98.95876097335105 -0.3284415432323664 0 0 0
197 1 -18.70089132666473 -98.95876097335105 2.159848503567634 0 0 0
198 1 -17.26457292291473 -96.92592216215105 2.159848503567634 0 0 0
199 1 -17.26457292291473 -96.92592216215105 4.648153480167634 0 0 0
200 1 -18.70089132666473 -98.95876097335105 -5.305051496432366 0 0 0
201 1 -18.70089132666473 -98.95876097335105 -2.816746519832365 0 0 0
202 1 -17.26457292291473 -96.92592216215105 -2.816746519832365 0 0 0
203 1 -17.26457292291473 -96.92592216215105 -0.3284415432323664 0 0 0
204 1 -17.26457292291473 -96.92592216215105 -5.305051496432366 0 0 0
205 1 -0.7613141759147304 -94.89228818615105 5.892298503567634 0 0 0
206 1 -0.7613141759147304 -94.89228818615105 3.404008456767635 0 0 0
207 1 -0.7613141759147304 -94.89228818615105 0.9157034801676343 0 0 0
208 1 -0.7613141759147304 -94.89228818615105 -1.572601496432365 0 0 0
209 1 -0.7613141759147304 -94.89228818615105 -4.060891543232366 0 0 0
210 1 -0.7613141759147304 -94.89228818615105 -6.549198012812366 0 0 0
211 1 -2.913748061914728 -94.89228818615105 7.136458456767635 0 0 0
212 1 -5.066181947914728 -94.89228818615105 5.892298503567634 0 0 0
213 1 -2.913748061914728 -94.89228818615105 2.159848503567634 0 0 0
214 1 -5.066181947914728 -94.89228818615105 3.404008456767635 0 0 0
215 1 -5.066181947914728 -94.89228818615105 0.9157034801676343 0 0 0
216 1 -2.913748061914728 -94.89228818615105 4.648153480167634 0 0 0
217 1 -1.477410286414727 -92.85865421015106 4.648153480167634 0 0 0
218 1 -3.62984417241473 -92.85865421015106 5.892298503567634 0 0 0
219 1 -3.62984417241473 -92.85865421015106 3.404008456767635 0 0 0
220 1 -1.477410286414727 -92.85865421015106 7.136458456767635 0 0 0
221 1 -2.193545140414727 -90.82502023415105 5.892298503567634 0 0 0
222 1 -2.913748061914728 -94.89228818615105 -2.816746519832365 0 0 0
223 1 -5.066181947914728 -94.89228818615105 -1.572601496432365 0 0 0
224 1 -5.066181947914728 -94.89228818615105 -4.060891543232366 0 0 0
225 1 -2.913748061914728 -94.89228818615105 -0.3284415432323664 0 0 0
226 1 -1.477410286414727 -92.85865421015106 -0.3284415432323664 0 0 0
227 1 -3.62984417241473 -92.85865421015106 0.9157034801676343 0 0 0
228 1 -3.62984417241473 -92.85865421015106 -1.572601496432365 0 0 0
229 1 -1.477410286414727 -92.85865421015106 2.159848503567634 0 0 0
230 1 -2.193545140414727 -90.82502023415105 3.404008456767635 0 0 0
231 1 -2.193545140414727 -90.82502023415105 0.9157034801676343 0 0 0
232 1 -0.7572073649147306 -88.79138625815105 5.892298503567634 0 0 0
233 1 -0.7572073649147306 -88.79138625815105 3.404008456767635 0 0 0
234 1 -5.066181947914728 -94.89228818615105 -6.549198012812366 0 0 0
235 1 -2.913748061914728 -94.89228818615105 -5.305051496432366 0 0 0
236 1 -1.477410286414727 -92.85865421015106 -5.305051496432366 0 0 0
237 1 -3.62984417241473 -92.85865421015106 -4.060891543232366 0 0 0
238 1 -3.62984417241473 -92.85865421015106 -6.549198012812366 0 0 0
239 1 -1.477410286414727 -92.85865421015106 -2.816746519832365 0 0 0
240 1 -2.193545140414727 -90.82502023415105 -1.572601496432365 0 0 0
241 1 -2.193545140414727 -90.82502023415105 -4.060891543232366 0 0 0
242 1 -0.7572073649147306 -88.79138625815105 0.9157034801676343 0 0 0
243 1 -0.7572073649147306 -88.79138625815105 -1.572601496432365 0 0 0
244 1 -2.193545140414727 -90.82502023415105 -6.549198012812366 0 0 0
245 1 -0.7572073649147306 -88.79138625815105 -4.060891543232366 0 0 0
246 1 -0.7572073649147306 -88.79138625815105 -6.549198012812366 0 0 0
247 1 -7.21857709041473 -94.89228818615105 4.648153480167634 0 0 0
248 1 -9.371010976414729 -94.89228818615105 5.892298503567634 0 0 0
249 1 -9.371010976414729 -94.89228818615105 3.404008456767635 0 0 0
250 1 -7.21857709041473 -94.89228818615105 7.136458456767635 0 0 0
251 1 -5.782278058414731 -92.85865421015106 7.136458456767635 0 0 0
252 1 -7.934673200914728 -92.85865421015106 5.892298503567634 0 0 0
253 1 -7.21857709041473 -94.89228818615105 -0.3284415432323664 0 0 0
254 1 -9.371010976414729 -94.89228818615105 0.9157034801676343 0 0 0
255 1 -9.371010976414729 -94.89228818615105 -1.572601496432365 0 0 0
256 1 -7.21857709041473 -94.89228818615105 2.159848503567634 0 0 0
257 1 -5.782278058414731 -92.85865421015106 2.159848503567634 0 0 0
258 1 -7.934673200914728 -92.85865421015106 3.404008456767635 0 0 0
259 1 -7.934673200914728 -92.85865421015106 0.9157034801676343 0 0 0
260 1 -5.782278058414731 -92.85865421015106 4.648153480167634 0 0 0
261 1 -4.345940282914729 -90.82502023415105 4.648153480167634 0 0 0
262 1 -6.498374168914729 -90.82502023415105 5.892298503567634 0 0 0
263 1 -6.498374168914729 -90.82502023415105 3.404008456767635 0 0 0
264 1 -4.345940282914729 -90.82502023415105 7.136458456767635 0 0 0
265 1 -2.909641250914728 -88.79138625815105 7.136458456767635 0 0 0
266 1 -5.062036393414729 -88.79138625815105 5.892298503567634 0 0 0
267 1 -7.21857709041473 -94.89228818615105 -5.305051496432366 0 0 0
268 1 -9.371010976414729 -94.89228818615105 -4.060891543232366 0 0 0
269 1 -9.371010976414729 -94.89228818615105 -6.549198012812366 0 0 0
270 1 -7.21857709041473 -94.89228818615105 -2.816746519832365 0 0 0
271 1 -5.782278058414731 -92.85865421015106 -2.816746519832365 0 0 0
272 1 -7.934673200914728 -92.85865421015106 -1.572601496432365 0 0 0
273 1 -7.934673200914728 -92.85865421015106 -4.060891543232366 0 0 0
274 1 -5.782278058414731 -92.85865421015106 -0.3284415432323664 0 0 0
275 1 -4.345940282914729 -90.82502023415105 -0.3284415432323664 0 0 0
276 1 -6.498374168914729 -90.82502023415105 0.9157034801676343 0 0 0
277 1 -6.498374168914729 -90.82502023415105 -1.572601496432365 0 0 0
278 1 -4.345940282914729 -90.82502023415105 2.159848503567634 0 0 0
279 1 -2.909641250914728 -88.79138625815105 2.159848503567634 0 0 0
280 1 -5.062036393414729 -88.79138625815105 3.404008456767635 0 0 0
281 1 -5.062036393414729 -88.79138625815105 0.9157034801676343 0 0 0
282 1 -2.909641250914728 -88.79138625815105 4.648153480167634 0 0 0
283 1 -1.473303475414728 -86.75775228215105 4.648153480167634 0 0 0
284 1 -3.62573736141473 -86.75775228215105 5.892298503567634 0 0 0
285 1 -3.62573736141473 -86.75775228215105 3.404008456767635 0 0 0
286 1 -1.473303475414728 -86.75775228215105 7.136458456767635 0 0 0
287 1 -2.189399585914728 -84.72411830615104 5.892298503567634 0 0 0
288 1 -7.934673200914728 -92.85865421015106 -6.549198012812366 0 0 0
289 1 -5.782278058414731 -92.85865421015106 -5.305051496432366 0 0 0
290 1 -4.345940282914729 -90.82502023415105 -5.305051496432366 0 0 0
291 1 -6.498374168914729 -90.82502023415105 -4.060891543232366 0 0 0
292 1 -6.498374168914729 -90.82502023415105 -6.549198012812366 0 0 0
293 1 -4.345940282914729 -90.82502023415105 -2.816746519832365 0 0 0
294 1 -2.909641250914728 -88.79138625815105 -2.816746519832365 0 0 0
295 1 -5.062036393414729 -88.79138625815105 -1.572601496432365 0 0 0
296 1 -5.062036393414729 -88.79138625815105 -4.060891543232366 0 0 0
297 1 -2.909641250914728 -88.79138625815105 -0.3284415432323664 0 0 0
298 1 -1.473303475414728 -86.75775228215105 -0.3284415432323664 0 0 0
299 1 -3.62573736141473 -86.75775228215105 0.9157034801676343 0 0 0
300 1 -3.62573736141473 -86.75775228215105 -1.572601496432365 0 0 0
301 1 -1.473303475414728 -86.75775228215105 2.159848503567634 0 0 0
302 1 -2.189399585914728 -84.72411830615104 3.404008456767635 0 0 0
303 1 -2.189399585914728 -84.72411830615104 0.9157034801676343 0 0 0
304 1 -0.7531005539147309 -82.69048433015105 5.892298503567634 0 0 0
305 1 -0.7531005539147309 -82.69048433015105 3.404008456767635 0 0 0
306 1 -5.062036393414729 -88.79138625815105 -6.549198012812366 0 0 0
307 1 -2.909641250914728 -88.79138625815105 -5.305051496432366 0 0 0
308 1 -1.473303475414728 -86.75775228215105 -5.305051496432366 0 0 0
309 1 -3.62573736141473 -86.75775228215105 -4.060891543232366 0 0 0
310 1 -3.62573736141473 -86.75775228215105 -6.549198012812366 0 0 0
311 1 -1.473303475414728 -86.75775228215105 -2.816746519832365 0 0 0
312 1 -2.189399585914728 -84.72411830615104 -1.572601496432365 0 0 0
313 1 -2.189399585914728 -84.72411830615104 -4.060891543232366 0 0 0
314 1 -0.7531005539147309 -82.69048433015105 0.9157034801676343 0 0 0
315 1 -0.7531005539147309 -82.69048433015105 -1.572601496432365 0 0 0
316 1 -2.189399585914728 -84.72411830615104 -6.549198012812366 0 0 0
317 1 -0.7531005539147309 -82.69048433015105 -4.060891543232366 0 0 0
318 1 -0.7531005539147309 -82.69048433015105 -6.549198012812366 0 0 0
319 1 -11.52340611891473 -94.89228818615105 7.136458456767635 0 0 0
320 1 -13.67584000491473 -94.89228818615105 5.892298503567634 0 0 0
321 1 -11.52340611891473 -94.89228818615105 2.159848503567634 0 0 0
322 1 -13.67584000491473 -94.89228818615105 3.404008456767635 0 0 0
323 1 -13.67584000491473 -94.89228818615105 0.9157034801676343 0 0 0
324 1 -11.52340611891473 -94.89228818615105 4.648153480167634 0 0 0
325 1 -10.08710708691473 -92.85865421015106 4.648153480167634 0 0 0
326 1 -12.23950222941473 -92.85865421015106 5.892298503567634 0 0 0
327 1 -12.23950222941473 -92.85865421015106 3.404008456767635 0 0 0
328 1 -10.08710708691473 -92.85865421015106 7.136458456767635 0 0 0
329 1 -8.650769311414729 -90.82502023415105 7.136458456767635 0 0 0
330 1 -10.80320319741473 -90.82502023415105 5.892298503567634 0 0 0
331 1 -11.52340611891473 -94.89228818615105 -2.816746519832365 0 0 0
332 1 -13.67584000491473 -94.89228818615105 -1.572601496432365 0 0 0
333 1 -13.67584000491473 -94.89228818615105 -4.060891543232366 0 0 0
334 1 -11.52340611891473 -94.89228818615105 -0.3284415432323664 0 0 0
335 1 -10.08710708691473 -92.85865421015106 -0.3284415432323664 0 0 0
336 1 -12.23950222941473 -92.85865421015106 0.9157034801676343 0 0 0
337 1 -12.23950222941473 -92.85865421015106 -1.572601496432365 0 0 0
338 1 -10.08710708691473 -92.85865421015106 2.159848503567634 0 0 0
339 1 -8.650769311414729 -90.82502023415105 2.159848503567634 0 0 0
340 1 -10.80320319741473 -90.82502023415105 3.404008456767635 0 0 0
341 1 -10.80320319741473 -90.82502023415105 0.9157034801676343 0 0 0
342 1 -8.650769311414729 -90.82502023415105 4.648153480167634 0 0 0
343 1 -7.21447027941473 -88.79138625815105 4.648153480167634 0 0 0
344 1 -9.366865421914728 -88.79138625815105 5.892298503567634 0 0 0
345 1 -9.366865421914728 -88.79138625815105 3.404008456767635 0 0 0
346 1 -7.21447027941473 -88.79138625815105 7.136458456767635 0 0 0
347 1 -5.778132503914728 -86.75775228215105 7.136458456767635 0 0 0
348 1 -7.930566389914729 -86.75775228215105 5.892298503567634 0 0 0
349 1 -13.67584000491473 -94.89228818615105 -6.549198012812366 0 0 0
350 1 -11.52340611891473 -94.89228818615105 -5.305051496432366 0 0 0
351 1 -10.08710708691473 -92.85865421015106 -5.305051496432366 0 0 0
352 1 -12.23950222941473 -92.85865421015106 -4.060891543232366 0 0 0
353 1 -12.23950222941473 -92.85865421015106 -6.549198012812366 0 0 0
354 1 -10.08710708691473 -92.85865421015106 -2.816746519832365 0 0 0
355 1 -8.650769311414729 -90.82502023415105 -2.816746519832365 0 0 0
356 1 -10.80320319741473 -90.82502023415105 -1.572601496432365 0 0 0
357 1 -10.80320319741473 -90.82502023415105 -4.060891543232366 0 0 0
358 1 -8.650769311414729 -90.82502023415105 -0.3284415432323664 0 0 0
359 1 -7.21447027941473 -88.79138625815105 -0.3284415432323664 0 0 0
360 1 -9.366865421914728 -88.79138625815105 0.9157034801676343 0 0 0
361 1 -9.366865421914728 -88.79138625815105 -1.572601496432365 0 0 0
362 1 -7.21447027941473 -88.79138625815105 2.159848503567634 0 0 0
363 1 -5.778132503914728 -86.75775228215105 2.159848503567634 0 0 0
364 1 -7.930566389914729 -86.75775228215105 3.404008456767635 0 0 0
365 1 -7.930566389914729 -86.75775228215105 0.9157034801676343 0 0 0
366 1 -5.778132503914728 -86.75775228215105 4.648153480167634 0 0 0
367 1 -4.341833471914729 -84.72411830615104 4.648153480167634 0 0 0
368 1 -6.49422861441473 -84.72411830615104 5.892298503567634 0 0 0
369 1 -6.49422861441473 -84.72411830615104 3.404008456767635 0 0 0
370 1 -4.341833471914729 -84.72411830615104 7.136458456767635 0 0 0
371 1 -2.905495696414729 -82.69048433015105 7.136458456767635 0 0 0
372 1 -5.057929582414729 -82.69048433015105 5.892298503567634 0 0 0
373 1 -10.80320319741473 -90.82502023415105 -6.549198012812366 0 0 0
374 1 -8.650769311414729 -90.82502023415105 -5.305051496432366 0 0 0
375 1 -7.21447027941473 -88.79138625815105 -5.305051496432366 0 0 0
376 1 -9.366865421914728 -88.79138625815105 -4.060891543232366 0 0 0
377 1 -9.366865421914728 -88.79138625815105 -6.549198012812366 0 0 0
378 1 -7.21447027941473 -88.79138625815105 -2.816746519832365 0 0 0
379 1 -5.778132503914728 -86.75775228215105 -2.816746519832365 0 0 0
380 1 -7.930566389914729 -86.75775228215105 -1.572601496432365 0 0 0
381 1 -7.930566389914729 -86.75775228215105 -4.060891543232366 0 0 0
382 1 -5.778132503914728 -86.75775228215105 -0.3284415432323664 0 0 0
383 1 -4.341833471914729 -84.72411830615104 -0.3284415432323664 0 0 0
384 1 -6.49422861441473 -84.72411830615104 0.9157034801676343 0 0 0
385 1 -6.49422861441473 -84.72411830615104 -1.572601496432365 0 0 0
386 1 -4.341833471914729 -84.72411830615104 2.159848503567634 0 0 0
387 1 -2.905495696414729 -82.69048433015105 2.159848503567634 0 0 0
388 1 -5.057929582414729 -82.69048433015105 3.404008456767635 0 0 0
389 1 -5.057929582414729 -82.69048433015105 0.9157034801676343 0 0 0
390 1 -2.905495696414729 -82.69048433015105 4.648153480167634 0 0 0
391 1 -7.930566389914729 -86.75775228215105 -6.549198012812366 0 0 0
392 1 -5.778132503914728 -86.75775228215105 -5.305051496432366 0 0 0
393 1 -4.341833471914729 -84.72411830615104 -5.305051496432366 0 0 0
394 1 -6.49422861441473 -84.72411830615104 -4.060891543232366 0 0 0
395 1 -6.49422861441473 -84.72411830615104 -6.549198012812366 0 0 0
396 1 -4.341833471914729 -84.72411830615104 -2.816746519832365 0 0 0
397 1 -2.905495696414729 -82.69048433015105 -2.816746519832365 0 0 0
398 1 -5.057929582414729 -82.69048433015105 -1.572601496432365 0 0 0
399 1 -5.057929582414729 -82.69048433015105 -4.060891543232366 0 0 0
400 1 -2.905495696414729 -82.69048433015105 -0.3284415432323664 0 0 0
401 1 -5.057929582414729 -82.69048433015105 -6.549198012812366 0 0 0
402 1 -2.905495696414729 -82.69048433015105 -5.305051496432366 0 0 0
403 1 -15.82825451916473 -94.89228818615105 4.648153480167634 0 0 0
404 1 -17.98067290776473 -94.89228818615105 5.892298503567634 0 0 0
405 1 -17.98067290776473 -94.89228818615105 3.404008456767635 0 0 0
406 1 -15.82825451916473 -94.89228818615105 7.136458456767635 0 0 0
407 1 -14.39193611541473 -92.85865421015106 7.136458456767635 0 0 0
408 1 -16.54435450401473 -92.85865421015106 5.892298503567634 0 0 0
409 1 -15.82825451916473 -94.89228818615105 -0.3284415432323664 0 0 0
410 1 -17.98067290776473 -94.89228818615105 0.9157034801676343 0 0 0
411 1 -17.98067290776473 -94.89228818615105 -1.572601496432365 0 0 0
412 1 -15.82825451916473 -94.89228818615105 2.159848503567634 0 0 0
413 1 -14.39193611541473 -92.85865421015106 2.159848503567634 0 0 0
414 1 -16.54435450401473 -92.85865421015106 3.404008456767635 0 0 0
415 1 -16.54435450401473 -92.85865421015106 0.9157034801676343 0 0 0
416 1 -14.39193611541473 -92.85865421015106 4.648153480167634 0 0 0
417 1 -12.95559833991473 -90.82502023415105 4.648153480167634 0 0 0
418 1 -15.10803222591473 -90.82502023415105 5.892298503567634 0 0 0
419 1 -15.10803222591473 -90.82502023415105 3.404008456767635 0 0 0
420 1 -12.95559833991473 -90.82502023415105 7.136458456767635 0 0 0
421 1 -11.51929930791473 -88.79138625815105 7.136458456767635 0 0 0
422 1 -13.67173319391473 -88.79138625815105 5.892298503567634 0 0 0
423 1 -15.82825451916473 -94.89228818615105 -5.305051496432366 0 0 0
424 1 -17.98067290776473 -94.89228818615105 -4.060891543232366 0 0 0
425 1 -17.98067290776473 -94.89228818615105 -6.549198012812366 0 0 0
426 1 -15.82825451916473 -94.89228818615105 -2.816746519832365 0 0 0
427 1 -14.39193611541473 -92.85865421015106 -2.816746519832365 0 0 0
428 1 -16.54435450401473 -92.85865421015106 -1.572601496432365 0 0 0
429 1 -16.54435450401473 -92.85865421015106 -4.060891543232366 0 0 0
430 1 -14.39193611541473 -92.85865421015106 -0.3284415432323664 0 0 0
431 1 -12.95559833991473 -90.82502023415105 -0.3284415432323664 0 0 0
432 1 -15.10803222591473 -90.82502023415105 0.9157034801676343 0 0 0
433 1 -15.10803222591473 -90.82502023415105 -1.572601496432365 0 0 0
434 1 -12.95559833991473 -90.82502023415105 2.159848503567634 0 0 0
435 1 -11.51929930791473 -88.79138625815105 2.159848503567634 0 0 0
436 1 -13.67173319391473 -88.79138625815105 3.404008456767635 0 0 0
437 1 -13.67173319391473 -88.79138625815105 0.9157034801676343 0 0 0
438 1 -11.51929930791473 -88.79138625815105 4.648153480167634 0 0 0
439 1 -10.08296153241473 -86.75775228215105 4.648153480167634 0 0 0
440 1 -12.23539541841473 -86.75775228215105 5.892298503567634 0 0 0
441 1 -12.23539541841473 -86.75775228215105 3.404008456767635 0 0 0
442 1 -10.08296153241473 -86.75775228215105 7.136458456767635 0 0 0
443 1 -8.646662500414729 -84.72411830615104 7.136458456767635 0 0 0
444 1 -10.79909638641473 -84.72411830615104 5.892298503567634 0 0 0
445 1 -16.54435450401473 -92.85865421015106 -6.549198012812366 0 0 0
446 1 -14.39193611541473 -92.85865421015106 -5.305051496432366 0 0 0
447 1 -12.95559833991473 -90.82502023415105 -5.305051496432366 0 0 0
448 1 -15.10803222591473 -90.82502023415105 -4.060891543232366 0 0 0
449 1 -15.10803222591473 -90.82502023415105 -6.549198012812366 0 0 0
450 1 -12.95559833991473 -90.82502023415105 -2.816746519832365 0 0 0
451 1 -11.51929930791473 -88.79138625815105 -2.816746519832365 0 0 0
452 1 -13.67173319391473 -88.79138625815105 -1.572601496432365 0 0 0
453 1 -13.67173319391473 -88.79138625815105 -4.060891543232366 0 0 0
454 1 -11.51929930791473 -88.79138625815105 -0.3284415432323664 0 0 0
455 1 -10.08296153241473 -86.75775228215105 -0.3284415432323664 0 0 0
456 1 -12.23539541841473 -86.75775228215105 0.9157034801676343 0 0 0
457 1 -12.23539541841473 -86.75775228215105 -1.572601496432365 0 0 0
458 1 -10.08296153241473 -86.75775228215105 2.159848503567634 0 0 0
459 1 -8.646662500414729 -84.72411830615104 2.159848503567634 0 0 0
460 1 -10.79909638641473 -84.72411830615104 3.404008456767635 0 0 0
461 1 -10.79909638641473 -84.72411830615104 0.9157034801676343 0 0 0
462 1 -8.646662500414729 -84.72411830615104 4.648153480167634 0 0 0
463 1 -7.210324724914729 -82.69048433015105 4.648153480167634 0 0 0
464 1 -9.362758610914728 -82.69048433015105 5.892298503567634 0 0 0
465 1 -9.362758610914728 -82.69048433015105 3.404008456767635 0 0 0
466 1 -7.210324724914729 -82.69048433015105 7.136458456767635 0 0 0
467 1 -13.67173319391473 -88.79138625815105 -6.549198012812366 0 0 0
468 1 -11.51929930791473 -88.79138625815105 -5.305051496432366 0 0 0
469 1 -10.08296153241473 -86.75775228215105 -5.305051496432366 0 0 0
470 1 -12.23539541841473 -86.75775228215105 -4.060891543232366 0 0 0
471 1 -12.23539541841473 -86.75775228215105 -6.549198012812366 0 0 0
472 1 -10.08296153241473 -86.75775228215105 -2.816746519832365 0 0 0
473 1 -8.646662500414729 -84.72411830615104 -2.816746519832365 0 0 0
474 1 -10.79909638641473 -84.72411830615104 -1.572601496432365 0 0 0
475 1 -10.79909638641473 -84.72411830615104 -4.060891543232366 0 0 0
476 1 -8.646662500414729 -84.72411830615104 -0.3284415432323664 0 0 0
477 1 -7.210324724914729 -82.69048433015105 -0.3284415432323664 0 0 0
478 1 -9.362758610914728 -82.69048433015105 0.9157034801676343 0 0 0
479 1 -9.362758610914728 -82.69048433015105 -1.572601496432365 0 0 0
480 1 -7.210324724914729 -82.69048433015105 2.159848503567634 0 0 0
481 1 -10.79909638641473 -84.72411830615104 -6.549198012812366 0 0 0
482 1 -8.646662500414729 -84.72411830615104 -5.305051496432366 0 0 0
483 1 -7.210324724914729 -82.69048433015105 -5.305051496432366 0 0 0
484 1 -9.362758610914728 -82.69048433015105 -4.060891543232366 0 0 0
485 1 -9.362758610914728 -82.69048433015105 -6.549198012812366 0 0 0
486 1 -7.210324724914729 -82.69048433015105 -2.816746519832365 0 0 0
487 1 -18.69676901826473 -92.85865421015106 4.648153480167634 0 0 0
488 1 -18.69676901826473 -92.85865421015106 7.136458456767635 0 0 0
489 1 -17.26045061451473 -90.82502023415105 7.136458456767635 0 0 0
490 1 -18.69676901826473 -92.85865421015106 -0.3284415432323664 0 0 0
491 1 -18.69676901826473 -92.85865421015106 2.159848503567634 0 0 0
492 1 -17.26045061451473 -90.82502023415105 2.159848503567634 0 0 0
493 1 -17.26045061451473 -90.82502023415105 4.648153480167634 0 0 0
494 1 -15.82413221076473 -88.79138625815105 4.648153480167634 0 0 0
495 1 -17.97655059936473 -88.79138625815105 5.892298503567634 0 0 0
496 1 -17.97655059936473 -88.79138625815105 3.404008456767635 0 0 0
497 1 -15.82413221076473 -88.79138625815105 7.136458456767635 0 0 0
498 1 -14.38782930441473 -86.75775228215105 7.136458456767635 0 0 0
499 1 -16.54023219561473 -86.75775228215105 5.892298503567634 0 0 0
500 1 -18.69676901826473 -92.85865421015106 -5.305051496432366 0 0 0
501 1 -18.69676901826473 -92.85865421015106 -2.816746519832365 0 0 0
502 1 -17.26045061451473 -90.82502023415105 -2.816746519832365 0 0 0
503 1 -17.26045061451473 -90.82502023415105 -0.3284415432323664 0 0 0
504 1 -15.82413221076473 -88.79138625815105 -0.3284415432323664 0 0 0
505 1 -17.97655059936473 -88.79138625815105 0.9157034801676343 0 0 0
506 1 -17.97655059936473 -88.79138625815105 -1.572601496432365 0 0 0
507 1 -15.82413221076473 -88.79138625815105 2.159848503567634 0 0 0
508 1 -14.38782930441473 -86.75775228215105 2.159848503567634 0 0 0
509 1 -16.54023219561473 -86.75775228215105 3.404008456767635 0 0 0
510 1 -16.54023219561473 -86.75775228215105 0.9157034801676343 0 0 0
511 1 -14.38782930441473 -86.75775228215105 4.648153480167634 0 0 0
512 1 -12.95149152891473 -84.72411830615104 4.648153480167634 0 0 0
513 1 -15.10392541491473 -84.72411830615104 5.892298503567634 0 0 0
514 1 -15.10392541491473 -84.72411830615104 3.404008456767635 0 0 0
515 1 -12.95149152891473 -84.72411830615104 7.136458456767635 0 0 0
516 1 -11.51519249691473 -82.69023584115105 7.136458456767635 0 0 0
517 1 -13.66758763941473 -82.69023584115105 5.892298503567634 0 0 0
518 1 -17.26045061451473 -90.82502023415105 -5.305051496432366 0 0 0
519 1 -15.82413221076473 -88.79138625815105 -5.305051496432366 0 0 0
520 1 -17.97655059936473 -88.79138625815105 -4.060891543232366 0 0 0
521 1 -17.97655059936473 -88.79138625815105 -6.549198012812366 0 0 0
522 1 -15.82413221076473 -88.79138625815105 -2.816746519832365 0 0 0
523 1 -14.38782930441473 -86.75775228215105 -2.816746519832365 0 0 0
524 1 -16.54023219561473 -86.75775228215105 -1.572601496432365 0 0 0
525 1 -16.54023219561473 -86.75775228215105 -4.060891543232366 0 0 0
526 1 -14.38782930441473 -86.75775228215105 -0.3284415432323664 0 0 0
527 1 -12.95149152891473 -84.72411830615104 -0.3284415432323664 0 0 0
528 1 -15.10392541491473 -84.72411830615104 0.9157034801676343 0 0 0
529 1 -15.10392541491473 -84.72411830615104 -1.572601496432365 0 0 0
530 1 -12.95149152891473 -84.72411830615104 2.159848503567634 0 0 0
531 1 -11.51519249691473 -82.69023584115105 2.159848503567634 0 0 0
532 1 -13.66758763941473 -82.69023584115105 3.404008456767635 0 0 0
533 1 -13.66758763941473 -82.69023584115105 0.9157034801676343 0 0 0
534 1 -11.51519249691473 -82.69023584115105 4.648153480167634 0 0 0
535 1 -16.54023219561473 -86.75775228215105 -6.549198012812366 0 0 0
536 1 -14.38782930441473 -86.75775228215105 -5.305051496432366 0 0 0
537 1 -12.95149152891473 -84.72411830615104 -5.305051496432366 0 0 0
538 1 -15.10392541491473 -84.72411830615104 -4.060891543232366 0 0 0
539 1 -15.10392541491473 -84.72411830615104 -6.549198012812366 0 0 0
540 1 -12.95149152891473 -84.72411830615104 -2.816746519832365 0 0 0
541 1 -11.51519249691473 -82.69023584115105 -2.816746519832365 0 0 0
542 1 -13.66758763941473 -82.69023584115105 -1.572601496432365 0 0 0
543 1 -13.66758763941473 -82.69023584115105 -4.060891543232366 0 0 0
544 1 -11.51519249691473 -82.69023584115105 -0.3284415432323664 0 0 0
545 1 -13.66758763941473 -82.69023584115105 -6.549198012812366 0 0 0
546 1 -11.51519249691473 -82.69023584115105 -5.305051496432366 0 0 0
547 1 -18.69265058421473 -86.75775228215105 4.648153480167634 0 0 0
548 1 -18.69265058421473 -86.75775228215105 7.136458456767635 0 0 0
549 1 -17.25633218046473 -84.72411830615104 7.136458456767635 0 0 0
550 1 -18.69265058421473 -86.75775228215105 -0.3284415432323664 0 0 0
551 1 -18.69265058421473 -86.75775228215105 2.159848503567634 0 0 0
552 1 -17.25633218046473 -84.72411830615104 2.159848503567634 0 0 0
553 1 -17.25633218046473 -84.72411830615104 4.648153480167634 0 0 0
554 1 -15.82000990236473 -82.69023584115105 4.648153480167634 0 0 0
555 1 -17.97242829096473 -82.69023584115105 5.892298503567634 0 0 0
556 1 -17.97242829096473 -82.69023584115105 3.404008456767635 0 0 0
557 1 -15.82000990236473 -82.69023584115105 7.136458456767635 0 0 0
558 1 -18.69265058421473 -86.75775228215105 -5.305051496432366 0 0 0
559 1 -18.69265058421473 -86.75775228215105 -2.816746519832365 0 0 0
560 1 -17.25633218046473 -84.72411830615104 -2.816746519832365 0 0 0
561 1 -17.25633218046473 -84.72411830615104 -0.3284415432323664 0 0 0
562 1 -15.82000990236473 -82.69023584115105 -0.3284415432323664 0 0 0
563 1 -17.97242829096473 -82.69023584115105 0.9157034801676343 0 0 0
564 1 -17.97242829096473 -82.69023584115105 -1.572601496432365 0 0 0
565 1 -15.82000990236473 -82.69023584115105 2.159848503567634 0 0 0
566 1 -17.25633218046473 -84.72411830615104 -5.305051496432366 0 0 0
567 1 -15.82000990236473 -82.69023584115105 -5.305051496432366 0 0 0
568 1 -17.97242829096473 -82.69023584115105 -4.060891543232366 0 0 0
569 1 -17.97242829096473 -82.69023584115105 -6.549198012812366 0 0 0
570 1 -15.82000990236473 -82.69023584115105 -2.816746519832365 0 0 0
571 1 -1.469196664414728 -80.65660186515106 4.648153480167634 0 0 0
572 1 -3.621591806914729 -80.65660186515106 5.892298503567634 0 0 0
573 1 -3.621591806914729 -80.65660186515106 3.404008456767635 0 0 0
574 1 -1.469196664414728 -80.65660186515106 7.136458456767635 0 0 0
575 1 -2.185292774914728 -78.62296788915106 5.892298503567634 0 0 0
576 1 -1.469196664414728 -80.65660186515106 -0.3284415432323664 0 0 0
577 1 -3.621591806914729 -80.65660186515106 0.9157034801676343 0 0 0
578 1 -3.621591806914729 -80.65660186515106 -1.572601496432365 0 0 0
579 1 -1.469196664414728 -80.65660186515106 2.159848503567634 0 0 0
580 1 -2.185292774914728 -78.62296788915106 3.404008456767635 0 0 0
581 1 -2.185292774914728 -78.62296788915106 0.9157034801676343 0 0 0
582 1 -0.7489549994147282 -76.58933391315105 5.892298503567634 0 0 0
583 1 -0.7489549994147282 -76.58933391315105 3.404008456767635 0 0 0
584 1 -1.469196664414728 -80.65660186515106 -5.305051496432366 0 0 0
585 1 -3.621591806914729 -80.65660186515106 -4.060891543232366 0 0 0
586 1 -3.621591806914729 -80.65660186515106 -6.549198012812366 0 0 0
587 1 -1.469196664414728 -80.65660186515106 -2.816746519832365 0 0 0
588 1 -2.185292774914728 -78.62296788915106 -1.572601496432365 0 0 0
589 1 -2.185292774914728 -78.62296788915106 -4.060891543232366 0 0 0
590 1 -0.7489549994147282 -76.58933391315105 0.9157034801676343 0 0 0
591 1 -0.7489549994147282 -76.58933391315105 -1.572601496432365 0 0 0
592 1 -2.185292774914728 -78.62296788915106 -6.549198012812366 0 0 0
593 1 -0.7489549994147282 -76.58933391315105 -4.060891543232366 0 0 0
594 1 -0.7489549994147282 -76.58933391315105 -6.549198012812366 0 0 0
595 1 -5.774025692914728 -80.65660186515106 7.136458456767635 0 0 0
596 1 -7.92642083541473 -80.65660186515106 5.892298503567634 0 0 0
597 1 -5.774025692914728 -80.65660186515106 2.159848503567634 0 0 0
598 1 -7.92642083541473 -80.65660186515106 3.404008456767635 0 0 0
599 1 -7.92642083541473 -80.65660186515106 0.9157034801676343 0 0 0
600 1 -5.774025692914728 -80.65660186515106 4.648153480167634 0 0 0
601 1 -4.337687917414728 -78.62296788915106 4.648153480167634 0 0 0
602 1 -6.490121803414731 -78.62296788915106 5.892298503567634 0 0 0
603 1 -6.490121803414731 -78.62296788915106 3.404008456767635 0 0 0
604 1 -4.337687917414728 -78.62296788915106 7.136458456767635 0 0 0
605 1 -2.901388885414729 -76.58933391315105 7.136458456767635 0 0 0
606 1 -5.053784027914729 -76.58933391315105 5.892298503567634 0 0 0
607 1 -5.774025692914728 -80.65660186515106 -2.816746519832365 0 0 0
608 1 -7.92642083541473 -80.65660186515106 -1.572601496432365 0 0 0
609 1 -7.92642083541473 -80.65660186515106 -4.060891543232366 0 0 0
610 1 -5.774025692914728 -80.65660186515106 -0.3284415432323664 0 0 0
611 1 -4.337687917414728 -78.62296788915106 -0.3284415432323664 0 0 0
612 1 -6.490121803414731 -78.62296788915106 0.9157034801676343 0 0 0
613 1 -6.490121803414731 -78.62296788915106 -1.572601496432365 0 0 0
614 1 -4.337687917414728 -78.62296788915106 2.159848503567634 0 0 0
615 1 -2.901388885414729 -76.58933391315105 2.159848503567634 0 0 0
616 1 -5.053784027914729 -76.58933391315105 3.404008456767635 0 0 0
617 1 -5.053784027914729 -76.58933391315105 0.9157034801676343 0 0 0
618 1 -2.901388885414729 -76.58933391315105 4.648153480167634 0 0 0
619 1 -1.465051109914729 -74.55569993715105 4.648153480167634 0 0 0
620 1 -3.617484995914729 -74.55569993715105 5.892298503567634 0 0 0
621 1 -3.617484995914729 -74.55569993715105 3.404008456767635 0 0 0
622 1 -1.465051109914729 -74.55569993715105 7.136458456767635 0 0 0
623 1 -2.181147220414729 -72.52206596115104 5.892298503567634 0 0 0
624 1 -7.92642083541473 -80.65660186515106 -6.549198012812366 0 0 0
625 1 -5.774025692914728 -80.65660186515106 -5.305051496432366 0 0 0
626 1 -4.337687917414728 -78.62296788915106 -5.305051496432366 0 0 0
627 1 -6.490121803414731 -78.62296788915106 -4.060891543232366 0 0 0
628 1 -6.490121803414731 -78.62296788915106 -6.549198012812366 0 0 0
629 1 -4.337687917414728 -78.62296788915106 -2.816746519832365 0 0 0
630 1 -2.901388885414729 -76.58933391315105 -2.816746519832365 0 0 0
631 1 -5.053784027914729 -76.58933391315105 -1.572601496432365 0 0 0
632 1 -5.053784027914729 -76.58933391315105 -4.060891543232366 0 0 0
633 1 -2.901388885414729 -76.58933391315105 -0.3284415432323664 0 0 0
634 1 -1.465051109914729 -74.55569993715105 -0.3284415432323664 0 0 0
635 1 -3.617484995914729 -74.55569993715105 0.9157034801676343 0 0 0
636 1 -3.617484995914729 -74.55569993715105 -1.572601496432365 0 0 0
637 1 -1.465051109914729 -74.55569993715105 2.159848503567634 0 0 0
638 1 -2.181147220414729 -72.52206596115104 3.404008456767635 0 0 0
639 1 -2.181147220414729 -72.52206596115104 0.9157034801676343 0 0 0
640 1 -0.7448481884147284 -70.48843198515105 5.892298503567634 0 0 0
641 1 -0.7448481884147284 -70.48843198515105 3.404008456767635 0 0 0
642 1 -5.053784027914729 -76.58933391315105 -6.549198012812366 0 0 0
643 1 -2.901388885414729 -76.58933391315105 -5.305051496432366 0 0 0
644 1 -1.465051109914729 -74.55569993715105 -5.305051496432366 0 0 0
645 1 -3.617484995914729 -74.55569993715105 -4.060891543232366 0 0 0
646 1 -3.617484995914729 -74.55569993715105 -6.549198012812366 0 0 0
647 1 -1.465051109914729 -74.55569993715105 -2.816746519832365 0 0 0
648 1 -2.181147220414729 -72.52206596115104 -1.572601496432365 0 0 0
649 1 -2.181147220414729 -72.52206596115104 -4.060891543232366 0 0 0
650 1 -0.7448481884147284 -70.48843198515105 0.9157034801676343 0 0 0
651 1 -0.7448481884147284 -70.48843198515105 -1.572601496432365 0 0 0
652 1 -2.181147220414729 -72.52206596115104 -6.549198012812366 0 0 0
653 1 -0.7448481884147284 -70.48843198515105 -4.060891543232366 0 0 0
654 1 -0.7448481884147284 -70.48843198515105 -6.549198012812366 0 0 0
655 1 -10.07885472141473 -80.65660186515106 4.648153480167634 0 0 0
656 1 -12.23128860741473 -80.65660186515106 5.892298503567634 0 0 0
657 1 -12.23128860741473 -80.65660186515106 3.404008456767635 0 0 0
658 1 -10.07885472141473 -80.65660186515106 7.136458456767635 0 0 0
659 1 -8.64255568941473 -78.62296788915106 7.136458456767635 0 0 0
660 1 -10.79495083191473 -78.62296788915106 5.892298503567634 0 0 0
661 1 -10.07885472141473 -80.65660186515106 -0.3284415432323664 0 0 0
662 1 -12.23128860741473 -80.65660186515106 0.9157034801676343 0 0 0
663 1 -12.23128860741473 -80.65660186515106 -1.572601496432365 0 0 0
664 1 -10.07885472141473 -80.65660186515106 2.159848503567634 0 0 0
665 1 -8.64255568941473 -78.62296788915106 2.159848503567634 0 0 0
666 1 -10.79495083191473 -78.62296788915106 3.404008456767635 0 0 0
667 1 -10.79495083191473 -78.62296788915106 0.9157034801676343 0 0 0
668 1 -8.64255568941473 -78.62296788915106 4.648153480167634 0 0 0
669 1 -7.206217913914729 -76.58933391315105 4.648153480167634 0 0 0
670 1 -9.358651799914728 -76.58933391315105 5.892298503567634 0 0 0
671 1 -9.358651799914728 -76.58933391315105 3.404008456767635 0 0 0
672 1 -7.206217913914729 -76.58933391315105 7.136458456767635 0 0 0
673 1 -5.769918881914728 -74.55569993715105 7.136458456767635 0 0 0
674 1 -7.92231402441473 -74.55569993715105 5.892298503567634 0 0 0
675 1 -10.07885472141473 -80.65660186515106 -5.305051496432366 0 0 0
676 1 -12.23128860741473 -80.65660186515106 -4.060891543232366 0 0 0
677 1 -12.23128860741473 -80.65660186515106 -6.549198012812366 0 0 0
678 1 -10.07885472141473 -80.65660186515106 -2.816746519832365 0 0 0
679 1 -8.64255568941473 -78.62296788915106 -2.816746519832365 0 0 0
680 1 -10.79495083191473 -78.62296788915106 -1.572601496432365 0 0 0
681 1 -10.79495083191473 -78.62296788915106 -4.060891543232366 0 0 0
682 1 -8.64255568941473 -78.62296788915106 -0.3284415432323664 0 0 0
683 1 -7.206217913914729 -76.58933391315105 -0.3284415432323664 0 0 0
684 1 -9.358651799914728 -76.58933391315105 0.9157034801676343 0 0 0
685 1 -9.358651799914728 -76.58933391315105 -1.572601496432365 0 0 0
686 1 -7.206217913914729 -76.58933391315105 2.159848503567634 0 0 0
687 1 -5.769918881914728 -74.55569993715105 2.159848503567634 0 0 0
688 1 -7.92231402441473 -74.55569993715105 3.404008456767635 0 0 0
689 1 -7.92231402441473 -74.55569993715105 0.9157034801676343 0 0 0
690 1 -5.769918881914728 -74.55569993715105 4.648153480167634 0 0 0
691 1 -4.333581106414728 -72.52206596115104 4.648153480167634 0 0 0
692 1 -6.486014992414727 -72.52206596115104 5.892298503567634 0 0 0
693 1 -6.486014992414727 -72.52206596115104 3.404008456767635 0 0 0
694 1 -4.333581106414728 -72.52206596115104 7.136458456767635 0 0 0
695 1 -2.897282074414729 -70.48843198515105 7.136458456767635 0 0 0
696 1 -5.049677216914729 -70.48843198515105 5.892298503567634 0 0 0
697 1 -10.79495083191473 -78.62296788915106 -6.549198012812366 0 0 0
698 1 -8.64255568941473 -78.62296788915106 -5.305051496432366 0 0 0
699 1 -7.206217913914729 -76.58933391315105 -5.305051496432366 0 0 0
700 1 -9.358651799914728 -76.58933391315105 -4.060891543232366 0 0 0
701 1 -9.358651799914728 -76.58933391315105 -6.549198012812366 0 0 0
702 1 -7.206217913914729 -76.58933391315105 -2.816746519832365 0 0 0
703 1 -5.769918881914728 -74.55569993715105 -2.816746519832365 0 0 0
704 1 -7.92231402441473 -74.55569993715105 -1.572601496432365 0 0 0
705 1 -7.92231402441473 -74.55569993715105 -4.060891543232366 0 0 0
706 1 -5.769918881914728 -74.55569993715105 -0.3284415432323664 0 0 0
707 1 -4.333581106414728 -72.52206596115104 -0.3284415432323664 0 0 0
708 1 -6.486014992414727 -72.52206596115104 0.9157034801676343 0 0 0
709 1 -6.486014992414727 -72.52206596115104 -1.572601496432365 0 0 0
710 1 -4.333581106414728 -72.52206596115104 2.159848503567634 0 0 0
711 1 -2.897282074414729 -70.48843198515105 2.159848503567634 0 0 0
712 1 -5.049677216914729 -70.48843198515105 3.404008456767635 0 0 0
713 1 -5.049677216914729 -70.48843198515105 0.9157034801676343 0 0 0
714 1 -2.897282074414729 -70.48843198515105 4.648153480167634 0 0 0
715 1 -1.460944298914729 -68.45454952015105 4.648153480167634 0 0 0
716 1 -3.61337818491473 -68.45454952015105 5.892298503567634 0 0 0
717 1 -3.61337818491473 -68.45454952015105 3.404008456767635 0 0 0
718 1 -1.460944298914729 -68.45454952015105 7.136458456767635 0 0 0
719 1 -7.92231402441473 -74.55569993715105 -6.549198012812366 0 0 0
720 1 -5.769918881914728 -74.55569993715105 -5.305051496432366 0 0 0
721 1 -4.333581106414728 -72.52206596115104 -5.305051496432366 0 0 0
722 1 -6.486014992414727 -72.52206596115104 -4.060891543232366 0 0 0
723 1 -6.486014992414727 -72.52206596115104 -6.549198012812366 0 0 0
724 1 -4.333581106414728 -72.52206596115104 -2.816746519832365 0 0 0
725 1 -2.897282074414729 -70.48843198515105 -2.816746519832365 0 0 0
726 1 -5.049677216914729 -70.48843198515105 -1.572601496432365 0 0 0
727 1 -5.049677216914729 -70.48843198515105 -4.060891543232366 0 0 0
728 1 -2.897282074414729 -70.48843198515105 -0.3284415432323664 0 0 0
729 1 -1.460944298914729 -68.45454952015105 -0.3284415432323664 0 0 0
730 1 -3.61337818491473 -68.45454952015105 0.9157034801676343 0 0 0
731 1 -3.61337818491473 -68.45454952015105 -1.572601496432365 0 0 0
732 1 -1.460944298914729 -68.45454952015105 2.159848503567634 0 0 0
733 1 -5.049677216914729 -70.48843198515105 -6.549198012812366 0 0 0
734 1 -2.897282074414729 -70.48843198515105 -5.305051496432366 0 0 0
735 1 -1.460944298914729 -68.45454952015105 -5.305051496432366 0 0 0
736 1 -3.61337818491473 -68.45454952015105 -4.060891543232366 0 0 0
737 1 -3.61337818491473 -68.45454952015105 -6.549198012812366 0 0 0
738 1 -1.460944298914729 -68.45454952015105 -2.816746519832365 0 0 0
739 1 -14.38368374991473 -80.65660186515106 7.136458456767635 0 0 0
740 1 -16.53610988721473 -80.65660186515106 5.892298503567634 0 0 0
741 1 -14.38368374991473 -80.65660186515106 2.159848503567634 0 0 0
742 1 -16.53610988721473 -80.65660186515106 3.404008456767635 0 0 0
743 1 -16.53610988721473 -80.65660186515106 0.9157034801676343 0 0 0
744 1 -14.38368374991473 -80.65660186515106 4.648153480167634 0 0 0
745 1 -12.94738471791473 -78.62296788915106 4.648153480167634 0 0 0
746 1 -15.09977986041473 -78.62296788915106 5.892298503567634 0 0 0
747 1 -15.09977986041473 -78.62296788915106 3.404008456767635 0 0 0
748 1 -12.94738471791473 -78.62296788915106 7.136458456767635 0 0 0
749 1 -11.51104694241473 -76.58933391315105 7.136458456767635 0 0 0
750 1 -13.66348082841473 -76.58933391315105 5.892298503567634 0 0 0
751 1 -14.38368374991473 -80.65660186515106 -2.816746519832365 0 0 0
752 1 -16.53610988721473 -80.65660186515106 -1.572601496432365 0 0 0
753 1 -16.53610988721473 -80.65660186515106 -4.060891543232366 0 0 0
754 1 -14.38368374991473 -80.65660186515106 -0.3284415432323664 0 0 0
755 1 -12.94738471791473 -78.62296788915106 -0.3284415432323664 0 0 0
756 1 -15.09977986041473 -78.62296788915106 0.9157034801676343 0 0 0
757 1 -15.09977986041473 -78.62296788915106 -1.572601496432365 0 0 0
758 1 -12.94738471791473 -78.62296788915106 2.159848503567634 0 0 0
759 1 -11.51104694241473 -76.58933391315105 2.159848503567634 0 0 0
760 1 -13.66348082841473 -76.58933391315105 3.404008456767635 0 0 0
761 1 -13.66348082841473 -76.58933391315105 0.9157034801676343 0 0 0
762 1 -11.51104694241473 -76.58933391315105 4.648153480167634 0 0 0
763 1 -10.07474791041473 -74.55569993715105 4.648153480167634 0 0 0
764 1 -12.22714305291473 -74.55569993715105 5.892298503567634 0 0 0
765 1 -12.22714305291473 -74.55569993715105 3.404008456767635 0 0 0
766 1 -10.07474791041473 -74.55569993715105 7.136458456767635 0 0 0
767 1 -8.638410134914729 -72.52206596115104 7.136458456767635 0 0 0
768 1 -10.79084402091473 -72.52206596115104 5.892298503567634 0 0 0
769 1 -16.53610988721473 -80.65660186515106 -6.549198012812366 0 0 0
770 1 -14.38368374991473 -80.65660186515106 -5.305051496432366 0 0 0
771 1 -12.94738471791473 -78.62296788915106 -5.305051496432366 0 0 0
772 1 -15.09977986041473 -78.62296788915106 -4.060891543232366 0 0 0
773 1 -15.09977986041473 -78.62296788915106 -6.549198012812366 0 0 0
774 1 -12.94738471791473 -78.62296788915106 -2.816746519832365 0 0 0
775 1 -11.51104694241473 -76.58933391315105 -2.816746519832365 0 0 0
776 1 -13.66348082841473 -76.58933391315105 -1.572601496432365 0 0 0
777 1 -13.66348082841473 -76.58933391315105 -4.060891543232366 0 0 0
778 1 -11.51104694241473 -76.58933391315105 -0.3284415432323664 0 0 0
779 1 -10.07474791041473 -74.55569993715105 -0.3284415432323664 0 0 0
780 1 -12.22714305291473 -74.55569993715105 0.9157034801676343 0 0 0
781 1 -12.22714305291473 -74.55569993715105 -1.572601496432365 0 0 0
782 1 -10.07474791041473 -74.55569993715105 2.159848503567634 0 0 0
783 1 -8.638410134914729 -72.52206596115104 2.159848503567634 0 0 0
784 1 -10.79084402091473 -72.52206596115104 3.404008456767635 0 0 0
785 1 -10.79084402091473 -72.52206596115104 0.9157034801676343 0 0 0
786 1 -8.638410134914729 -72.52206596115104 4.648153480167634 0 0 0
787 1 -7.20211110291473 -70.48843198515105 4.648153480167634 0 0 0
788 1 -9.354506245414729 -70.48843198515105 5.892298503567634 0 0 0
789 1 -9.354506245414729 -70.48843198515105 3.404008456767635 0 0 0
790 1 -7.20211110291473 -70.48843198515105 7.136458456767635 0 0 0
791 1 -5.765773327414728 -68.45454952015105 7.136458456767635 0 0 0
792 1 -7.918207213414728 -68.45454952015105 5.892298503567634 0 0 0
793 1 -13.66348082841473 -76.58933391315105 -6.549198012812366 0 0 0
794 1 -11.51104694241473 -76.58933391315105 -5.305051496432366 0 0 0
795 1 -10.07474791041473 -74.55569993715105 -5.305051496432366 0 0 0
796 1 -12.22714305291473 -74.55569993715105 -4.060891543232366 0 0 0
797 1 -12.22714305291473 -74.55569993715105 -6.549198012812366 0 0 0
798 1 -10.07474791041473 -74.55569993715105 -2.816746519832365 0 0 0
799 1 -8.638410134914729 -72.52206596115104 -2.816746519832365 0 0 0
800 1 -10.79084402091473 -72.52206596115104 -1.572601496432365 0 0 0
801 1 -10.79084402091473 -72.52206596115104 -4.060891543232366 0 0 0
802 1 -8.638410134914729 -72.52206596115104 -0.3284415432323664 0 0 0
803 1 -7.20211110291473 -70.48843198515105 -0.3284415432323664 0 0 0
804 1 -9.354506245414729 -70.48843198515105 0.9157034801676343 0 0 0
805 1 -9.354506245414729 -70.48843198515105 -1.572601496432365 0 0 0
806 1 -7.20211110291473 -70.48843198515105 2.159848503567634 0 0 0
807 1 -5.765773327414728 -68.45454952015105 2.159848503567634 0 0 0
808 1 -7.918207213414728 -68.45454952015105 3.404008456767635 0 0 0
809 1 -7.918207213414728 -68.45454952015105 0.9157034801676343 0 0 0
810 1 -5.765773327414728 -68.45454952015105 4.648153480167634 0 0 0
811 1 -10.79084402091473 -72.52206596115104 -6.549198012812366 0 0 0
812 1 -8.638410134914729 -72.52206596115104 -5.305051496432366 0 0 0
813 1 -7.20211110291473 -70.48843198515105 -5.305051496432366 0 0 0
814 1 -9.354506245414729 -70.48843198515105 -4.060891543232366 0 0 0
815 1 -9.354506245414729 -70.48843198515105 -6.549198012812366 0 0 0
816 1 -7.20211110291473 -70.48843198515105 -2.816746519832365 0 0 0
817 1 -5.765773327414728 -68.45454952015105 -2.816746519832365 0 0 0
818 1 -7.918207213414728 -68.45454952015105 -1.572601496432365 0 0 0
819 1 -7.918207213414728 -68.45454952015105 -4.060891543232366 0 0 0
820 1 -5.765773327414728 -68.45454952015105 -0.3284415432323664 0 0 0
821 1 -7.918207213414728 -68.45454952015105 -6.549198012812366 0 0 0
822 1 -5.765773327414728 -68.45454952015105 -5.305051496432366 0 0 0
823 1 -18.68852827581473 -80.65660186515106 4.648153480167634 0 0 0
824 1 -18.68852827581473 -80.65660186515106 7.136458456767635 0 0 0
825 1 -17.25220987206473 -78.62296788915106 7.136458456767635 0 0 0
826 1 -18.68852827581473 -80.65660186515106 -0.3284415432323664 0 0 0
827 1 -18.68852827581473 -80.65660186515106 2.159848503567634 0 0 0
828 1 -17.25220987206473 -78.62296788915106 2.159848503567634 0 0 0
829 1 -17.25220987206473 -78.62296788915106 4.648153480167634 0 0 0
830 1 -15.81589146831473 -76.58933391315105 4.648153480167634 0 0 0
831 1 -17.96830598256473 -76.58933391315105 5.892298503567634 0 0 0
832 1 -17.96830598256473 -76.58933391315105 3.404008456767635 0 0 0
833 1 -15.81589146831473 -76.58933391315105 7.136458456767635 0 0 0
834 1 -14.37957693891473 -74.55569993715105 7.136458456767635 0 0 0
835 1 -16.53198757881473 -74.55569993715105 5.892298503567634 0 0 0
836 1 -18.68852827581473 -80.65660186515106 -5.305051496432366 0 0 0
837 1 -18.68852827581473 -80.65660186515106 -2.816746519832365 0 0 0
838 1 -17.25220987206473 -78.62296788915106 -2.816746519832365 0 0 0
839 1 -17.25220987206473 -78.62296788915106 -0.3284415432323664 0 0 0
840 1 -15.81589146831473 -76.58933391315105 -0.3284415432323664 0 0 0
841 1 -17.96830598256473 -76.58933391315105 0.9157034801676343 0 0 0
842 1 -17.96830598256473 -76.58933391315105 -1.572601496432365 0 0 0
843 1 -15.81589146831473 -76.58933391315105 2.159848503567634 0 0 0
844 1 -14.37957693891473 -74.55569993715105 2.159848503567634 0 0 0
845 1 -16.53198757881473 -74.55569993715105 3.404008456767635 0 0 0
846 1 -16.53198757881473 -74.55569993715105 0.9157034801676343 0 0 0
847 1 -14.37957693891473 -74.55569993715105 4.648153480167634 0 0 0
848 1 -12.94323916341473 -72.52206596115104 4.648153480167634 0 0 0
849 1 -15.09567304941473 -72.52206596115104 5.892298503567634 0 0 0
850 1 -15.09567304941473 -72.52206596115104 3.404008456767635 0 0 0
851 1 -12.94323916341473 -72.52206596115104 7.136458456767635 0 0 0
852 1 -11.50694013141473 -70.48843198515105 7.136458456767635 0 0 0
853 1 -13.65933527391473 -70.48843198515105 5.892298503567634 0 0 0
854 1 -17.25220987206473 -78.62296788915106 -5.305051496432366 0 0 0
855 1 -15.81589146831473 -76.58933391315105 -5.305051496432366 0 0 0
856 1 -17.96830598256473 -76.58933391315105 -4.060891543232366 0 0 0
857 1 -17.96830598256473 -76.58933391315105 -6.549198012812366 0 0 0
858 1 -15.81589146831473 -76.58933391315105 -2.816746519832365 0 0 0
859 1 -14.37957693891473 -74.55569993715105 -2.816746519832365 0 0 0
860 1 -16.53198757881473 -74.55569993715105 -1.572601496432365 0 0 0
861 1 -16.53198757881473 -74.55569993715105 -4.060891543232366 0 0 0
862 1 -14.37957693891473 -74.55569993715105 -0.3284415432323664 0 0 0
863 1 -12.94323916341473 -72.52206596115104 -0.3284415432323664 0 0 0
864 1 -15.09567304941473 -72.52206596115104 0.9157034801676343 0 0 0
865 1 -15.09567304941473 -72.52206596115104 -1.572601496432365 0 0 0
866 1 -12.94323916341473 -72.52206596115104 2.159848503567634 0 0 0
867 1 -11.50694013141473 -70.48843198515105 2.159848503567634 0 0 0
868 1 -13.65933527391473 -70.48843198515105 3.404008456767635 0 0 0
869 1 -13.65933527391473 -70.48843198515105 0.9157034801676343 0 0 0
870 1 -11.50694013141473 -70.48843198515105 4.648153480167634 0 0 0
871 1 -10.07060235591473 -68.45454952015105 4.648153480167634 0 0 0
872 1 -12.22303624191473 -68.45454952015105 5.892298503567634 0 0 0
873 1 -12.22303624191473 -68.45454952015105 3.404008456767635 0 0 0
874 1 -10.07060235591473 -68.45454952015105 7.136458456767635 0 0 0
875 1 -16.53198757881473 -74.55569993715105 -6.549198012812366 0 0 0
876 1 -14.37957693891473 -74.55569993715105 -5.305051496432366 0 0 0
877 1 -12.94323916341473 -72.52206596115104 -5.305051496432366 0 0 0
878 1 -15.09567304941473 -72.52206596115104 -4.060891543232366 0 0 0
879 1 -15.09567304941473 -72.52206596115104 -6.549198012812366 0 0 0
880 1 -12.94323916341473 -72.52206596115104 -2.816746519832365 0 0 0
881 1 -11.50694013141473 -70.48843198515105 -2.816746519832365 0 0 0
882 1 -13.65933527391473 -70.48843198515105 -1.572601496432365 0 0 0
883 1 -13.65933527391473 -70.48843198515105 -4.060891543232366 0 0 0
884 1 -11.50694013141473 -70.48843198515105 -0.3284415432323664 0 0 0
885 1 -10.07060235591473 -68.45454952015105 -0.3284415432323664 0 0 0
886 1 -12.22303624191473 -68.45454952015105 0.9157034801676343 0 0 0
887 1 -12.22303624191473 -68.45454952015105 -1.572601496432365 0 0 0
888 1 -10.07060235591473 -68.45454952015105 2.159848503567634 0 0 0
889 1 -13.65933527391473 -70.48843198515105 -6.549198012812366 0 0 0
890 1 -11.50694013141473 -70.48843198515105 -5.305051496432366 0 0 0
891 1 -10.07060235591473 -68.45454952015105 -5.305051496432366 0 0 0
892 1 -12.22303624191473 -68.45454952015105 -4.060891543232366 0 0 0
893 1 -12.22303624191473 -68.45454952015105 -6.549198012812366 0 0 0
894 1 -10.07060235591473 -68.45454952015105 -2.816746519832365 0 0 0
895 1 -18.68440596741473 -74.55569993715105 4.648153480167634 0 0 0
896 1 -18.68440596741473 -74.55569993715105 7.136458456767635 0 0 0
897 1 -17.24808756366473 -72.52206596115104 7.136458456767635 0 0 0
898 1 -18.68440596741473 -74.55569993715105 -0.3284415432323664 0 0 0
899 1 -18.68440596741473 -74.55569993715105 2.159848503567634 0 0 0
900 1 -17.24808756366473 -72.52206596115104 2.159848503567634 0 0 0
901 1 -17.24808756366473 -72.52206596115104 4.648153480167634 0 0 0
902 1 -15.81176915991473 -70.48843198515105 4.648153480167634 0 0 0
903 1 -17.96418754851473 -70.48843198515105 5.892298503567634 0 0 0
904 1 -17.96418754851473 -70.48843198515105 3.404008456767635 0 0 0
905 1 -15.81176915991473 -70.48843198515105 7.136458456767635 0 0 0
906 1 -14.37543138441473 -68.45454952015105 7.136458456767635 0 0 0
907 1 -16.52786914476473 -68.45454952015105 5.892298503567634 0 0 0
908 1 -18.68440596741473 -74.55569993715105 -5.305051496432366 0 0 0
909 1 -18.68440596741473 -74.55569993715105 -2.816746519832365 0 0 0
910 1 -17.24808756366473 -72.52206596115104 -2.816746519832365 0 0 0
911 1 -17.24808756366473 -72.52206596115104 -0.3284415432323664 0 0 0
912 1 -15.81176915991473 -70.48843198515105 -0.3284415432323664 0 0 0
913 1 -17.96418754851473 -70.48843198515105 0.9157034801676343 0 0 0
914 1 -17.96418754851473 -70.48843198515105 -1.572601496432365 0 0 0
915 1 -15.81176915991473 -70.48843198515105 2.159848503567634 0 0 0
916 1 -14.37543138441473 -68.45454952015105 2.159848503567634 0 0 0
917 1 -16.52786914476473 -68.45454952015105 3.404008456767635 0 0 0
918 1 -16.52786914476473 -68.45454952015105 0.9157034801676343 0 0 0
919 1 -14.37543138441473 -68.45454952015105 4.648153480167634 0 0 0
920 1 -17.24808756366473 -72.52206596115104 -5.305051496432366 0 0 0
921 1 -15.81176915991473 -70.48843198515105 -5.305051496432366 0 0 0
922 1 -17.96418754851473 -70.48843198515105 -4.060891543232366 0 0 0
923 1 -17.96418754851473 -70.48843198515105 -6.549198012812366 0 0 0
924 1 -15.81176915991473 -70.48843198515105 -2.816746519832365 0 0 0
925 1 -14.37543138441473 -68.45454952015105 -2.816746519832365 0 0 0
926 1 -16.52786914476473 -68.45454952015105 -1.572601496432365 0 0 0
927 1 -16.52786914476473 -68.45454952015105 -4.060891543232366 0 0 0
928 1 -14.37543138441473 -68.45454952015105 -0.3284415432323664 0 0 0
929 1 -16.52786914476473 -68.45454952015105 -6.549198012812366 0 0 0
930 1 -14.37543138441473 -68.45454952015105 -5.305051496432366 0 0 0
931 1 -18.68028753336473 -68.45454952015105 4.648153480167634 0 0 0
932 1 -18.68028753336473 -68.45454952015105 7.136458456767635 0 0 0
933 1 -18.68028753336473 -68.45454952015105 -0.3284415432323664 0 0 0
934 1 -18.68028753336473 -68.45454952015105 2.159848503567634 0 0 0
935 1 -18.68028753336473 -68.45454952015105 -5.305051496432366 0 0 0
936 1 -18.68028753336473 -68.45454952015105 -2.816746519832365 0 0 0
937 1 -2.17704040941473 -66.42091554415106 5.892298503567634 0 0 0
938 1 -0.02464526691473168 -66.42091554415106 2.159848503567634 0 0 0
939 1 -2.17704040941473 -66.42091554415106 3.404008456767635 0 0 0
940 1 -2.17704040941473 -66.42091554415106 0.9157034801676343 0 0 0
941 1 -0.02464526691473168 -66.42091554415106 4.648153480167634 0 0 0
942 1 -0.7407413774147287 -64.38728156815105 5.892298503567634 0 0 0
943 1 -0.7407413774147287 -64.38728156815105 3.404008456767635 0 0 0
944 1 -0.02464526691473168 -66.42091554415106 -2.816746519832365 0 0 0
945 1 -2.17704040941473 -66.42091554415106 -1.572601496432365 0 0 0
946 1 -2.17704040941473 -66.42091554415106 -4.060891543232366 0 0 0
947 1 -0.7407413774147287 -64.38728156815105 0.9157034801676343 0 0 0
948 1 -0.7407413774147287 -64.38728156815105 -1.572601496432365 0 0 0
949 1 -2.17704040941473 -66.42091554415106 -6.549198012812366 0 0 0
950 1 -0.02464526691473168 -66.42091554415106 -5.305051496432366 0 0 0
951 1 -0.7407413774147287 -64.38728156815105 -4.060891543232366 0 0 0
952 1 -0.7407413774147287 -64.38728156815105 -6.549198012812366 0 0 0
953 1 -4.329474295414729 -66.42091554415106 4.648153480167634 0 0 0
954 1 -6.48186943791473 -66.42091554415106 5.892298503567634 0 0 0
955 1 -6.48186943791473 -66.42091554415106 3.404008456767635 0 0 0
956 1 -4.329474295414729 -66.42091554415106 7.136458456767635 0 0 0
957 1 -2.89313651991473 -64.38728156815105 7.136458456767635 0 0 0
958 1 -5.045570405914729 -64.38728156815105 5.892298503567634 0 0 0
959 1 -4.329474295414729 -66.42091554415106 -0.3284415432323664 0 0 0
960 1 -6.48186943791473 -66.42091554415106 0.9157034801676343 0 0 0
961 1 -6.48186943791473 -66.42091554415106 -1.572601496432365 0 0 0
962 1 -4.329474295414729 -66.42091554415106 2.159848503567634 0 0 0
963 1 -2.89313651991473 -64.38728156815105 2.159848503567634 0 0 0
964 1 -5.045570405914729 -64.38728156815105 3.404008456767635 0 0 0
965 1 -5.045570405914729 -64.38728156815105 0.9157034801676343 0 0 0
966 1 -2.89313651991473 -64.38728156815105 4.648153480167634 0 0 0
967 1 -1.456837487914729 -62.35364759215105 4.648153480167634 0 0 0
968 1 -3.609232630414729 -62.35364759215105 5.892298503567634 0 0 0
969 1 -3.609232630414729 -62.35364759215105 3.404008456767635 0 0 0
970 1 -1.456837487914729 -62.35364759215105 7.136458456767635 0 0 0
971 1 -2.17293359841473 -60.32001361615105 5.892298503567634 0 0 0
972 1 -4.329474295414729 -66.42091554415106 -5.305051496432366 0 0 0
973 1 -6.48186943791473 -66.42091554415106 -4.060891543232366 0 0 0
974 1 -6.48186943791473 -66.42091554415106 -6.549198012812366 0 0 0
975 1 -4.329474295414729 -66.42091554415106 -2.816746519832365 0 0 0
976 1 -2.89313651991473 -64.38728156815105 -2.816746519832365 0 0 0
977 1 -5.045570405914729 -64.38728156815105 -1.572601496432365 0 0 0
978 1 -5.045570405914729 -64.38728156815105 -4.060891543232366 0 0 0
979 1 -2.89313651991473 -64.38728156815105 -0.3284415432323664 0 0 0
980 1 -1.456837487914729 -62.35364759215105 -0.3284415432323664 0 0 0
981 1 -3.609232630414729 -62.35364759215105 0.9157034801676343 0 0 0
982 1 -3.609232630414729 -62.35364759215105 -1.572601496432365 0 0 0
983 1 -1.456837487914729 -62.35364759215105 2.159848503567634 0 0 0
984 1 -2.17293359841473 -60.32001361615105 3.404008456767635 0 0 0
985 1 -2.17293359841473 -60.32001361615105 0.9157034801676343 0 0 0
986 1 -0.7365958229147296 -58.28637964015104 5.892298503567634 0 0 0
987 1 -0.7365958229147296 -58.28637964015104 3.404008456767635 0 0 0
988 1 -5.045570405914729 -64.38728156815105 -6.549198012812366 0 0 0
989 1 -2.89313651991473 -64.38728156815105 -5.305051496432366 0 0 0
990 1 -1.456837487914729 -62.35364759215105 -5.305051496432366 0 0 0
991 1 -3.609232630414729 -62.35364759215105 -4.060891543232366 0 0 0
992 1 -3.609232630414729 -62.35364759215105 -6.549198012812366 0 0 0
993 1 -1.456837487914729 -62.35364759215105 -2.816746519832365 0 0 0
994 1 -2.17293359841473 -60.32001361615105 -1.572601496432365 0 0 0
995 1 -2.17293359841473 -60.32001361615105 -4.060891543232366 0 0 0
996 1 -0.7365958229147296 -58.28637964015104 0.9157034801676343 0 0 0
997 1 -0.7365958229147296 -58.28637964015104 -1.572601496432365 0 0 0
998 1 -2.17293359841473 -60.32001361615105 -6.549198012812366 0 0 0
999 1 -0.7365958229147296 -58.28637964015104 -4.060891543232366 0 0 0
1000 1 -0.7365958229147296 -58.28637964015104 -6.549198012812366 0 0 0
1001 1 -8.634303323914729 -66.42091554415106 7.136458456767635 0 0 0
1002 1 -10.78669846641473 -66.42091554415106 5.892298503567634 0 0 0
1003 1 -8.634303323914729 -66.42091554415106 2.159848503567634 0 0 0
1004 1 -10.78669846641473 -66.42091554415106 3.404008456767635 0 0 0
1005 1 -10.78669846641473 -66.42091554415106 0.9157034801676343 0 0 0
1006 1 -8.634303323914729 -66.42091554415106 4.648153480167634 0 0 0
1007 1 -7.197965548414729 -64.38728156815105 4.648153480167634 0 0 0
1008 1 -9.350399434414729 -64.38728156815105 5.892298503567634 0 0 0
1009 1 -9.350399434414729 -64.38728156815105 3.404008456767635 0 0 0
1010 1 -7.197965548414729 -64.38728156815105 7.136458456767635 0 0 0
1011 1 -5.761666516414728 -62.35364759215105 7.136458456767635 0 0 0
1012 1 -7.914061658914729 -62.35364759215105 5.892298503567634 0 0 0
1013 1 -8.634303323914729 -66.42091554415106 -2.816746519832365 0 0 0
1014 1 -10.78669846641473 -66.42091554415106 -1.572601496432365 0 0 0
1015 1 -10.78669846641473 -66.42091554415106 -4.060891543232366 0 0 0
1016 1 -8.634303323914729 -66.42091554415106 -0.3284415432323664 0 0 0
1017 1 -7.197965548414729 -64.38728156815105 -0.3284415432323664 0 0 0
1018 1 -9.350399434414729 -64.38728156815105 0.9157034801676343 0 0 0
1019 1 -9.350399434414729 -64.38728156815105 -1.572601496432365 0 0 0
1020 1 -7.197965548414729 -64.38728156815105 2.159848503567634 0 0 0
1021 1 -5.761666516414728 -62.35364759215105 2.159848503567634 0 0 0
1022 1 -7.914061658914729 -62.35364759215105 3.404008456767635 0 0 0
1023 1 -7.914061658914729 -62.35364759215105 0.9157034801676343 0 0 0
1024 1 -5.761666516414728 -62.35364759215105 4.648153480167634 0 0 0
1025 1 -4.325328740914729 -60.32001361615105 4.648153480167634 0 0 0
1026 1 -6.47776262691473 -60.32001361615105 5.892298503567634 0 0 0
1027 1 -6.47776262691473 -60.32001361615105 3.404008456767635 0 0 0
1028 1 -4.325328740914729 -60.32001361615105 7.136458456767635 0 0 0
1029 1 -2.88902970891473 -58.28637964015104 7.136458456767635 0 0 0
1030 1 -5.041424851414728 -58.28637964015104 5.892298503567634 0 0 0
1031 1 -10.78669846641473 -66.42091554415106 -6.549198012812366 0 0 0
1032 1 -8.634303323914729 -66.42091554415106 -5.305051496432366 0 0 0
1033 1 -7.197965548414729 -64.38728156815105 -5.305051496432366 0 0 0
1034 1 -9.350399434414729 -64.38728156815105 -4.060891543232366 0 0 0
1035 1 -9.350399434414729 -64.38728156815105 -6.549198012812366 0 0 0
1036 1 -7.197965548414729 -64.38728156815105 -2.816746519832365 0 0 0
1037 1 -5.761666516414728 -62.35364759215105 -2.816746519832365 0 0 0
1038 1 -7.914061658914729 -62.35364759215105 -1.572601496432365 0 0 0
1039 1 -7.914061658914729 -62.35364759215105 -4.060891543232366 0 0 0
1040 1 -5.761666516414728 -62.35364759215105 -0.3284415432323664 0 0 0
1041 1 -4.325328740914729 -60.32001361615105 -0.3284415432323664 0 0 0
1042 1 -6.47776262691473 -60.32001361615105 0.9157034801676343 0 0 0
1043 1 -6.47776262691473 -60.32001361615105 -1.572601496432365 0 0 0
1044 1 -4.325328740914729 -60.32001361615105 2.159848503567634 0 0 0
1045 1 -2.88902970891473 -58.28637964015104 2.159848503567634 0 0 0
1046 1 -5.041424851414728 -58.28637964015104 3.404008456767635 0 0 0
1047 1 -5.041424851414728 -58.28637964015104 0.9157034801676343 0 0 0
1048 1 -2.88902970891473 -58.28637964015104 4.648153480167634 0 0 0
1049 1 -1.45269193341473 -56.25249717515105 4.648153480167634 0 0 0
1050 1 -3.605125819414729 -56.25249717515105 5.892298503567634 0 0 0
1051 1 -3.605125819414729 -56.25249717515105 3.404008456767635 0 0 0
1052 1 -1.45269193341473 -56.25249717515105 7.136458456767635 0 0 0
1053 1 -0.01639290141472927 -54.21886319915106 7.136443526967634 0 0 0
1054 1 -2.168788043914731 -54.21886319915106 5.892298503567634 0 0 0
1055 1 -7.914061658914729 -62.35364759215105 -6.549198012812366 0 0 0
1056 1 -5.761666516414728 -62.35364759215105 -5.305051496432366 0 0 0
1057 1 -4.325328740914729 -60.32001361615105 -5.305051496432366 0 0 0
1058 1 -6.47776262691473 -60.32001361615105 -4.060891543232366 0 0 0
1059 1 -6.47776262691473 -60.32001361615105 -6.549198012812366 0 0 0
1060 1 -4.325328740914729 -60.32001361615105 -2.816746519832365 0 0 0
1061 1 -2.88902970891473 -58.28637964015104 -2.816746519832365 0 0 0
1062 1 -5.041424851414728 -58.28637964015104 -1.572601496432365 0 0 0
1063 1 -5.041424851414728 -58.28637964015104 -4.060891543232366 0 0 0
1064 1 -2.88902970891473 -58.28637964015104 -0.3284415432323664 0 0 0
1065 1 -1.45269193341473 -56.25249717515105 -0.3284415432323664 0 0 0
1066 1 -3.605125819414729 -56.25249717515105 0.9157034801676343 0 0 0
1067 1 -3.605125819414729 -56.25249717515105 -1.572601496432365 0 0 0
1068 1 -1.45269193341473 -56.25249717515105 2.159848503567634 0 0 0
1069 1 -2.168788043914731 -54.21886319915106 3.404008456767635 0 0 0
1070 1 -2.168788043914731 -54.21886319915106 0.9157034801676343 0 0 0
1071 1 -0.01639290141472927 -54.21886319915106 4.648153480167634 0 0 0
1072 1 -5.041424851414728 -58.28637964015104 -6.549198012812366 0 0 0
1073 1 -2.88902970891473 -58.28637964015104 -5.305051496432366 0 0 0
1074 1 -1.45269193341473 -56.25249717515105 -5.305051496432366 0 0 0
1075 1 -3.605125819414729 -56.25249717515105 -4.060891543232366 0 0 0
1076 1 -3.605125819414729 -56.25249717515105 -6.549198012812366 0 0 0
1077 1 -1.45269193341473 -56.25249717515105 -2.816746519832365 0 0 0
1078 1 -2.168788043914731 -54.21886319915106 -1.572601496432365 0 0 0
1079 1 -2.168788043914731 -54.21886319915106 -4.060891543232366 0 0 0
1080 1 -2.168788043914731 -54.21886319915106 -6.549198012812366 0 0 0
1081 1 -0.01639290141472927 -54.21886319915106 -5.305051496432366 0 0 0
1082 1 -12.93913235241473 -66.42091554415106 4.648153480167634 0 0 0
1083 1 -15.09156623841473 -66.42091554415106 5.892298503567634 0 0 0
1084 1 -15.09156623841473 -66.42091554415106 3.404008456767635 0 0 0
1085 1 -12.93913235241473 -66.42091554415106 7.136458456767635 0 0 0
1086 1 -11.50279457691473 -64.38728156815105 7.136458456767635 0 0 0
1087 1 -13.65522846291473 -64.38728156815105 5.892298503567634 0 0 0
1088 1 -12.93913235241473 -66.42091554415106 -0.3284415432323664 0 0 0
1089 1 -15.09156623841473 -66.42091554415106 0.9157034801676343 0 0 0
1090 1 -15.09156623841473 -66.42091554415106 -1.572601496432365 0 0 0
1091 1 -12.93913235241473 -66.42091554415106 2.159848503567634 0 0 0
1092 1 -11.50279457691473 -64.38728156815105 2.159848503567634 0 0 0
1093 1 -13.65522846291473 -64.38728156815105 3.404008456767635 0 0 0
1094 1 -13.65522846291473 -64.38728156815105 0.9157034801676343 0 0 0
1095 1 -11.50279457691473 -64.38728156815105 4.648153480167634 0 0 0
1096 1 -10.06649554491473 -62.35364759215105 4.648153480167634 0 0 0
1097 1 -12.21892943091473 -62.35364759215105 5.892298503567634 0 0 0
1098 1 -12.21892943091473 -62.35364759215105 3.404008456767635 0 0 0
1099 1 -10.06649554491473 -62.35364759215105 7.136458456767635 0 0 0
1100 1 -8.630157769414728 -60.32001361615105 7.136458456767635 0 0 0
1101 1 -10.78259165541473 -60.32001361615105 5.892298503567634 0 0 0
1102 1 -12.93913235241473 -66.42091554415106 -5.305051496432366 0 0 0
1103 1 -15.09156623841473 -66.42091554415106 -4.060891543232366 0 0 0
1104 1 -15.09156623841473 -66.42091554415106 -6.549198012812366 0 0 0
1105 1 -12.93913235241473 -66.42091554415106 -2.816746519832365 0 0 0
1106 1 -11.50279457691473 -64.38728156815105 -2.816746519832365 0 0 0
1107 1 -13.65522846291473 -64.38728156815105 -1.572601496432365 0 0 0
1108 1 -13.65522846291473 -64.38728156815105 -4.060891543232366 0 0 0
1109 1 -11.50279457691473 -64.38728156815105 -0.3284415432323664 0 0 0
1110 1 -10.06649554491473 -62.35364759215105 -0.3284415432323664 0 0 0
1111 1 -12.21892943091473 -62.35364759215105 0.9157034801676343 0 0 0
1112 1 -12.21892943091473 -62.35364759215105 -1.572601496432365 0 0 0
1113 1 -10.06649554491473 -62.35364759215105 2.159848503567634 0 0 0
1114 1 -8.630157769414728 -60.32001361615105 2.159848503567634 0 0 0
1115 1 -10.78259165541473 -60.32001361615105 3.404008456767635 0 0 0
1116 1 -10.78259165541473 -60.32001361615105 0.9157034801676343 0 0 0
1117 1 -8.630157769414728 -60.32001361615105 4.648153480167634 0 0 0
1118 1 -7.193858737414729 -58.28637964015104 4.648153480167634 0 0 0
1119 1 -9.346253879914729 -58.28637964015104 5.892298503567634 0 0 0
1120 1 -9.346253879914729 -58.28637964015104 3.404008456767635 0 0 0
1121 1 -7.193858737414729 -58.28637964015104 7.136458456767635 0 0 0
1122 1 -5.757520961914731 -56.25274566415105 7.136458456767635 0 0 0
1123 1 -7.909954847914729 -56.25274566415105 5.892298503567634 0 0 0
1124 1 -13.65522846291473 -64.38728156815105 -6.549198012812366 0 0 0
1125 1 -11.50279457691473 -64.38728156815105 -5.305051496432366 0 0 0
1126 1 -10.06649554491473 -62.35364759215105 -5.305051496432366 0 0 0
1127 1 -12.21892943091473 -62.35364759215105 -4.060891543232366 0 0 0
1128 1 -12.21892943091473 -62.35364759215105 -6.549198012812366 0 0 0
1129 1 -10.06649554491473 -62.35364759215105 -2.816746519832365 0 0 0
1130 1 -8.630157769414728 -60.32001361615105 -2.816746519832365 0 0 0
1131 1 -10.78259165541473 -60.32001361615105 -1.572601496432365 0 0 0
1132 1 -10.78259165541473 -60.32001361615105 -4.060891543232366 0 0 0
1133 1 -8.630157769414728 -60.32001361615105 -0.3284415432323664 0 0 0
1134 1 -7.193858737414729 -58.28637964015104 -0.3284415432323664 0 0 0
1135 1 -9.346253879914729 -58.28637964015104 0.9157034801676343 0 0 0
1136 1 -9.346253879914729 -58.28637964015104 -1.572601496432365 0 0 0
1137 1 -7.193858737414729 -58.28637964015104 2.159848503567634 0 0 0
1138 1 -5.757520961914731 -56.25274566415105 2.159848503567634 0 0 0
1139 1 -7.909954847914729 -56.25274566415105 3.404008456767635 0 0 0
1140 1 -7.909954847914729 -56.25274566415105 0.9157034801676343 0 0 0
1141 1 -5.757520961914731 -56.25274566415105 4.648153480167634 0 0 0
1142 1 -4.32122192991473 -54.21886319915106 4.648153480167634 0 0 0
1143 1 -6.473617072414729 -54.21886319915106 5.892298503567634 0 0 0
1144 1 -6.473617072414729 -54.21886319915106 3.404008456767635 0 0 0
1145 1 -4.32122192991473 -54.21886319915106 7.136458456767635 0 0 0
1146 1 -10.78259165541473 -60.32001361615105 -6.549196519832366 0 0 0
1147 1 -8.630157769414728 -60.32001361615105 -5.305051496432366 0 0 0
1148 1 -7.193858737414729 -58.28637964015104 -5.305051496432366 0 0 0
1149 1 -9.346253879914729 -58.28637964015104 -4.060891543232366 0 0 0
1150 1 -9.346253879914729 -58.28637964015104 -6.549196519832366 0 0 0
1151 1 -7.193858737414729 -58.28637964015104 -2.816746519832365 0 0 0
1152 1 -5.757520961914731 -56.25274566415105 -2.816746519832365 0 0 0
1153 1 -7.909954847914729 -56.25274566415105 -1.572601496432365 0 0 0
1154 1 -7.909954847914729 -56.25274566415105 -4.060891543232366 0 0 0
1155 1 -5.757520961914731 -56.25274566415105 -0.3284415432323664 0 0 0
1156 1 -4.32122192991473 -54.21886319915106 -0.3284415432323664 0 0 0
1157 1 -6.473617072414729 -54.21886319915106 0.9157034801676343 0 0 0
1158 1 -6.473617072414729 -54.21886319915106 -1.572601496432365 0 0 0
1159 1 -4.32122192991473 -54.21886319915106 2.159848503567634 0 0 0
1160 1 -7.909954847914729 -56.25274566415105 -6.549196519832366 0 0 0
1161 1 -5.757520961914731 -56.25274566415105 -5.305051496432366 0 0 0
1162 1 -4.32122192991473 -54.21886319915106 -5.305051496432366 0 0 0
1163 1 -6.473617072414729 -54.21886319915106 -4.060891543232366 0 0 0
1164 1 -6.473617072414729 -54.21886319915106 -6.549196519832366 0 0 0
1165 1 -4.32122192991473 -54.21886319915106 -2.816746519832365 0 0 0
1166 1 -17.24396912961473 -66.42091554415106 7.136458456767635 0 0 0
1167 1 -17.24396912961473 -66.42091554415106 2.159848503567634 0 0 0
1168 1 -17.24396912961473 -66.42091554415106 4.648153480167634 0 0 0
1169 1 -15.80765072586473 -64.38728156815105 4.648153480167634 0 0 0
1170 1 -17.96006524011473 -64.38728156815105 5.892298503567634 0 0 0
1171 1 -17.96006524011473 -64.38728156815105 3.404008456767635 0 0 0
1172 1 -15.80765072586473 -64.38728156815105 7.136458456767635 0 0 0
1173 1 -14.37132457341473 -62.35364759215105 7.136458456767635 0 0 0
1174 1 -16.52374683636473 -62.35364759215105 5.892298503567634 0 0 0
1175 1 -17.24396912961473 -66.42091554415106 -2.816746519832365 0 0 0
1176 1 -17.24396912961473 -66.42091554415106 -0.3284415432323664 0 0 0
1177 1 -15.80765072586473 -64.38728156815105 -0.3284415432323664 0 0 0
1178 1 -17.96006524011473 -64.38728156815105 0.9157034801676343 0 0 0
1179 1 -17.96006524011473 -64.38728156815105 -1.572601496432365 0 0 0
1180 1 -15.80765072586473 -64.38728156815105 2.159848503567634 0 0 0
1181 1 -14.37132457341473 -62.35364759215105 2.159848503567634 0 0 0
1182 1 -16.52374683636473 -62.35364759215105 3.404008456767635 0 0 0
1183 1 -16.52374683636473 -62.35364759215105 0.9157034801676343 0 0 0
1184 1 -14.37132457341473 -62.35364759215105 4.648153480167634 0 0 0
1185 1 -12.93502554141473 -60.32001361615105 4.648153480167634 0 0 0
1186 1 -15.08742068391473 -60.32001361615105 5.892298503567634 0 0 0
1187 1 -15.08742068391473 -60.32001361615105 3.404008456767635 0 0 0
1188 1 -12.93502554141473 -60.32001361615105 7.136458456767635 0 0 0
1189 1 -11.49868776591473 -58.28637964015104 7.136458456767635 0 0 0
1190 1 -13.65112165191473 -58.28637964015104 5.892298503567634 0 0 0
1191 1 -17.24396912961473 -66.42091554415106 -5.305051496432366 0 0 0
1192 1 -15.80765072586473 -64.38728156815105 -5.305051496432366 0 0 0
1193 1 -17.96006524011473 -64.38728156815105 -4.060891543232366 0 0 0
1194 1 -17.96006524011473 -64.38728156815105 -6.549198012812366 0 0 0
1195 1 -15.80765072586473 -64.38728156815105 -2.816746519832365 0 0 0
1196 1 -14.37132457341473 -62.35364759215105 -2.816746519832365 0 0 0
1197 1 -16.52374683636473 -62.35364759215105 -1.572601496432365 0 0 0
1198 1 -16.52374683636473 -62.35364759215105 -4.060891543232366 0 0 0
1199 1 -14.37132457341473 -62.35364759215105 -0.3284415432323664 0 0 0
1200 1 -12.93502554141473 -60.32001361615105 -0.3284415432323664 0 0 0
1201 1 -15.08742068391473 -60.32001361615105 0.9157034801676343 0 0 0
1202 1 -15.08742068391473 -60.32001361615105 -1.572601496432365 0 0 0
1203 1 -12.93502554141473 -60.32001361615105 2.159848503567634 0 0 0
1204 1 -11.49868776591473 -58.28637964015104 2.159848503567634 0 0 0
1205 1 -13.65112165191473 -58.28637964015104 3.404008456767635 0 0 0
1206 1 -13.65112165191473 -58.28637964015104 0.9157034801676343 0 0 0
1207 1 -11.49868776591473 -58.28637964015104 4.648153480167634 0 0 0
1208 1 -10.06238873391473 -56.25274566415105 4.648153480167634 0 0 0
1209 1 -12.21478387641473 -56.25274566415105 5.892298503567634 0 0 0
1210 1 -12.21478387641473 -56.25274566415105 3.404008456767635 0 0 0
1211 1 -10.06238873391473 -56.25274566415105 7.136458456767635 0 0 0
1212 1 -8.626050958414728 -54.21886319915106 7.136458456767635 0 0 0
1213 1 -10.77848484441473 -54.21886319915106 5.892298503567634 0 0 0
1214 1 -16.52374683636473 -62.35364759215105 -6.549198012812366 0 0 0
1215 1 -14.37132457341473 -62.35364759215105 -5.305051496432366 0 0 0
1216 1 -12.93502554141473 -60.32001361615105 -5.305051496432366 0 0 0
1217 1 -15.08742068391473 -60.32001361615105 -4.060891543232366 0 0 0
1218 1 -15.08742068391473 -60.32001361615105 -6.549198012812366 0 0 0
1219 1 -12.93502554141473 -60.32001361615105 -2.816746519832365 0 0 0
1220 1 -11.49868776591473 -58.28637964015104 -2.816746519832365 0 0 0
1221 1 -13.65112165191473 -58.28637964015104 -1.572601496432365 0 0 0
1222 1 -13.65112165191473 -58.28637964015104 -4.060891543232366 0 0 0
1223 1 -11.49868776591473 -58.28637964015104 -0.3284415432323664 0 0 0
1224 1 -10.06238873391473 -56.25274566415105 -0.3284415432323664 0 0 0
1225 1 -12.21478387641473 -56.25274566415105 0.9157034801676343 0 0 0
1226 1 -12.21478387641473 -56.25274566415105 -1.572601496432365 0 0 0
1227 1 -10.06238873391473 -56.25274566415105 2.159848503567634 0 0 0
1228 1 -8.626050958414728 -54.21886319915106 2.159848503567634 0 0 0
1229 1 -10.77848484441473 -54.21886319915106 3.404008456767635 0 0 0
1230 1 -10.77848484441473 -54.21886319915106 0.9157034801676343 0 0 0
1231 1 -8.626050958414728 -54.21886319915106 4.648153480167634 0 0 0
1232 1 -13.65112165191473 -58.28637964015104 -6.549196519832366 0 0 0
1233 1 -11.49868776591473 -58.28637964015104 -5.305051496432366 0 0 0
1234 1 -10.06238873391473 -56.25274566415105 -5.305051496432366 0 0 0
1235 1 -12.21478387641473 -56.25274566415105 -4.060891543232366 0 0 0
1236 1 -12.21478387641473 -56.25274566415105 -6.549196519832366 0 0 0
1237 1 -10.06238873391473 -56.25274566415105 -2.816746519832365 0 0 0
1238 1 -8.626050958414728 -54.21886319915106 -2.816746519832365 0 0 0
1239 1 -10.77848484441473 -54.21886319915106 -1.572601496432365 0 0 0
1240 1 -10.77848484441473 -54.21886319915106 -4.060891543232366 0 0 0
1241 1 -8.626050958414728 -54.21886319915106 -0.3284415432323664 0 0 0
1242 1 -10.77848484441473 -54.21886319915106 -6.549195026852366 0 0 0
1243 1 -8.626050958414728 -54.21886319915106 -5.305051496432366 0 0 0
1244 1 -18.67616522496473 -62.35364759215105 4.648153480167634 0 0 0
1245 1 -18.67616522496473 -62.35364759215105 7.136458456767635 0 0 0
1246 1 -17.23984682121473 -60.32001361615105 7.136458456767635 0 0 0
1247 1 -18.67616522496473 -62.35364759215105 -0.3284415432323664 0 0 0
1248 1 -18.67616522496473 -62.35364759215105 2.159848503567634 0 0 0
1249 1 -17.23984682121473 -60.32001361615105 2.159848503567634 0 0 0
1250 1 -17.23984682121473 -60.32001361615105 4.648153480167634 0 0 0
1251 1 -15.80352841746473 -58.28637964015104 4.648153480167634 0 0 0
1252 1 -17.95594680606473 -58.28637964015104 5.892298503567634 0 0 0
1253 1 -17.95594680606473 -58.28637964015104 3.404008456767635 0 0 0
1254 1 -15.80352841746473 -58.28637964015104 7.136458456767635 0 0 0
1255 1 -14.36721776241473 -56.25249717515105 7.136458456767635 0 0 0
1256 1 -16.51962840231473 -56.25249717515105 5.892298503567634 0 0 0
1257 1 -18.67616522496473 -62.35364759215105 -5.305051496432366 0 0 0
1258 1 -18.67616522496473 -62.35364759215105 -2.816746519832365 0 0 0
1259 1 -17.23984682121473 -60.32001361615105 -2.816746519832365 0 0 0
1260 1 -17.23984682121473 -60.32001361615105 -0.3284415432323664 0 0 0
1261 1 -15.80352841746473 -58.28637964015104 -0.3284415432323664 0 0 0
1262 1 -17.95594680606473 -58.28637964015104 0.9157034801676343 0 0 0
1263 1 -17.95594680606473 -58.28637964015104 -1.572601496432365 0 0 0
1264 1 -15.80352841746473 -58.28637964015104 2.159848503567634 0 0 0
1265 1 -14.36721776241473 -56.25249717515105 2.159848503567634 0 0 0
1266 1 -16.51962840231473 -56.25249717515105 3.404008456767635 0 0 0
1267 1 -16.51962840231473 -56.25249717515105 0.9157034801676343 0 0 0
1268 1 -14.36721776241473 -56.25249717515105 4.648153480167634 0 0 0
1269 1 -12.93087998691473 -54.21886319915106 4.648153480167634 0 0 0
1270 1 -15.08331387291473 -54.21886319915106 5.892298503567634 0 0 0
1271 1 -15.08331387291473 -54.21886319915106 3.404008456767635 0 0 0
1272 1 -12.93087998691473 -54.21886319915106 7.136458456767635 0 0 0
1273 1 -17.23984682121473 -60.32001361615105 -5.305051496432366 0 0 0
1274 1 -15.80352841746473 -58.28637964015104 -5.305051496432366 0 0 0
1275 1 -17.95594680606473 -58.28637964015104 -4.060891543232366 0 0 0
1276 1 -17.95594680606473 -58.28637964015104 -6.549198012812366 0 0 0
1277 1 -15.80352841746473 -58.28637964015104 -2.816746519832365 0 0 0
1278 1 -14.36721776241473 -56.25249717515105 -2.816746519832365 0 0 0
1279 1 -16.51962840231473 -56.25249717515105 -1.572601496432365 0 0 0
1280 1 -16.51962840231473 -56.25249717515105 -4.060891543232366 0 0 0
1281 1 -14.36721776241473 -56.25249717515105 -0.3284415432323664 0 0 0
1282 1 -12.93087998691473 -54.21886319915106 -0.3284415432323664 0 0 0
1283 1 -15.08331387291473 -54.21886319915106 0.9157034801676343 0 0 0
1284 1 -15.08331387291473 -54.21886319915106 -1.572601496432365 0 0 0
1285 1 -12.93087998691473 -54.21886319915106 2.159848503567634 0 0 0
1286 1 -16.51962840231473 -56.25249717515105 -6.549196519832366 0 0 0
1287 1 -14.36721776241473 -56.25249717515105 -5.305051496432366 0 0 0
1288 1 -12.93087998691473 -54.21886319915106 -5.305051496432366 0 0 0
1289 1 -15.08331387291473 -54.21886319915106 -4.060891543232366 0 0 0
1290 1 -15.08331387291473 -54.21886319915106 -6.549195026852366 0 0 0
1291 1 -12.93087998691473 -54.21886319915106 -2.816746519832365 0 0 0
1292 1 -18.67204679091473 -56.25249717515105 4.648153480167634 0 0 0
1293 1 -18.67204679091473 -56.25249717515105 7.136458456767635 0 0 0
1294 1 -17.23572838716473 -54.21886319915106 7.136458456767635 0 0 0
1295 1 -18.67204679091473 -56.25249717515105 -0.3284415432323664 0 0 0
1296 1 -18.67204679091473 -56.25249717515105 2.159848503567634 0 0 0
1297 1 -17.23572838716473 -54.21886319915106 2.159848503567634 0 0 0
1298 1 -17.23572838716473 -54.21886319915106 4.648153480167634 0 0 0
1299 1 -18.67204679091473 -56.25249717515105 -5.305051496432366 0 0 0
1300 1 -18.67204679091473 -56.25249717515105 -2.816746519832365 0 0 0
1301 1 -17.23572838716473 -54.21886319915106 -2.816746519832365 0 0 0
1302 1 -17.23572838716473 -54.21886319915106 -0.3284415432323664 0 0 0
1303 1 -17.23572838716473 -54.21886319915106 -5.305051496432366 0 0 0
1304 1 -0.7324890119147298 -52.18522922315105 5.892298503567634 0 0 0
1305 1 -0.7324890119147298 -52.18522922315105 3.403993526967634 0 0 0
1306 1 -0.7324890119147298 -52.18522922315105 0.9157034801676343 0 0 0
1307 1 -0.7324890119147298 -52.18522922315105 -1.572601496432365 0 0 0
1308 1 -0.7324890119147298 -52.18522922315105 -4.060906473032365 0 0 0
1309 1 -0.7324890119147298 -52.18522922315105 -6.549199505792366 0 0 0
1310 1 -2.884884154414728 -52.18522922315105 7.136458456767635 0 0 0
1311 1 -5.037318040414728 -52.18522922315105 5.892298503567634 0 0 0
1312 1 -2.884884154414728 -52.18522922315105 2.159848503567634 0 0 0
1313 1 -5.037318040414728 -52.18522922315105 3.404008456767635 0 0 0
1314 1 -5.037318040414728 -52.18522922315105 0.9157034801676343 0 0 0
1315 1 -2.884884154414728 -52.18522922315105 4.648153480167634 0 0 0
1316 1 -1.44858512241473 -50.15159524715105 4.648153480167634 0 0 0
1317 1 -3.60098026491473 -50.15159524715105 5.892298503567634 0 0 0
1318 1 -3.60098026491473 -50.15159524715105 3.403993526967634 0 0 0
1319 1 -1.44858512241473 -50.15159524715105 7.136443526967634 0 0 0
1320 1 -2.164681232914727 -48.11796127115105 5.892298503567634 0 0 0
1321 1 -2.884884154414728 -52.18522922315105 -2.816746519832365 0 0 0
1322 1 -5.037318040414728 -52.18522922315105 -1.572601496432365 0 0 0
1323 1 -5.037318040414728 -52.18522922315105 -4.060891543232366 0 0 0
1324 1 -2.884884154414728 -52.18522922315105 -0.3284415432323664 0 0 0
1325 1 -1.44858512241473 -50.15159524715105 -0.3284564730323654 0 0 0
1326 1 -3.60098026491473 -50.15159524715105 0.9157034801676343 0 0 0
1327 1 -3.60098026491473 -50.15159524715105 -1.572601496432365 0 0 0
1328 1 -1.44858512241473 -50.15159524715105 2.159848503567634 0 0 0
1329 1 -2.164681232914727 -48.11796127115105 3.403993526967634 0 0 0
1330 1 -2.164681232914727 -48.11796127115105 0.9157034801676343 0 0 0
1331 1 -0.7283434574147307 -46.08432729515104 5.892298503567634 0 0 0
1332 1 -0.7283434574147307 -46.08432729515104 3.403993526967634 0 0 0
1333 1 -5.037318040414728 -52.18522922315105 -6.549198012812366 0 0 0
1334 1 -2.884884154414728 -52.18522922315105 -5.305051496432366 0 0 0
1335 1 -1.44858512241473 -50.15159524715105 -5.305051496432366 0 0 0
1336 1 -3.60098026491473 -50.15159524715105 -4.060906473032365 0 0 0
1337 1 -3.60098026491473 -50.15159524715105 -6.549199505792366 0 0 0
1338 1 -1.44858512241473 -50.15159524715105 -2.816746519832365 0 0 0
1339 1 -2.164681232914727 -48.11796127115105 -1.572601496432365 0 0 0
1340 1 -2.164681232914727 -48.11796127115105 -4.060906473032365 0 0 0
1341 1 -0.7283434574147307 -46.08432729515104 0.9156885503676353 0 0 0
1342 1 -0.7283434574147307 -46.08432729515104 -1.572601496432365 0 0 0
1343 1 -2.164681232914727 -48.11796127115105 -6.549202491752366 0 0 0
1344 1 -0.7283434574147307 -46.08432729515104 -4.060906473032365 0 0 0
1345 1 -0.7283434574147307 -46.08432729515104 -6.549206970692365 0 0 0
1346 1 -7.18971318291473 -52.18522922315105 4.648153480167634 0 0 0
1347 1 -9.342147068914729 -52.18522922315105 5.892298503567634 0 0 0
1348 1 -9.342147068914729 -52.18522922315105 3.404008456767635 0 0 0
1349 1 -7.18971318291473 -52.18522922315105 7.136458456767635 0 0 0
1350 1 -5.753414150914731 -50.15159524715105 7.136458456767635 0 0 0
1351 1 -7.905809293414729 -50.15159524715105 5.892298503567634 0 0 0
1352 1 -7.18971318291473 -52.18522922315105 -0.3284415432323664 0 0 0
1353 1 -9.342147068914729 -52.18522922315105 0.9157034801676343 0 0 0
1354 1 -9.342147068914729 -52.18522922315105 -1.572601496432365 0 0 0
1355 1 -7.18971318291473 -52.18522922315105 2.159848503567634 0 0 0
1356 1 -5.753414150914731 -50.15159524715105 2.159848503567634 0 0 0
1357 1 -7.905809293414729 -50.15159524715105 3.404008456767635 0 0 0
1358 1 -7.905809293414729 -50.15159524715105 0.9157034801676343 0 0 0
1359 1 -5.753414150914731 -50.15159524715105 4.648153480167634 0 0 0
1360 1 -4.317076375414729 -48.11796127115105 4.648153480167634 0 0 0
1361 1 -6.46951026141473 -48.11796127115105 5.892298503567634 0 0 0
1362 1 -6.46951026141473 -48.11796127115105 3.404008456767635 0 0 0
1363 1 -4.317076375414729 -48.11796127115105 7.136443526967634 0 0 0
1364 1 -2.880777343414728 -46.08432729515104 7.136443526967634 0 0 0
1365 1 -5.033172485914729 -46.08432729515104 5.892298503567634 0 0 0
1366 1 -7.18971318291473 -52.18522922315105 -5.305051496432366 0 0 0
1367 1 -9.342147068914729 -52.18522922315105 -4.060891543232366 0 0 0
1368 1 -9.342147068914729 -52.18522922315105 -6.549195026852366 0 0 0
1369 1 -7.18971318291473 -52.18522922315105 -2.816746519832365 0 0 0
1370 1 -5.753414150914731 -50.15159524715105 -2.816746519832365 0 0 0
1371 1 -7.905809293414729 -50.15159524715105 -1.572601496432365 0 0 0
1372 1 -7.905809293414729 -50.15159524715105 -4.060891543232366 0 0 0
1373 1 -5.753414150914731 -50.15159524715105 -0.3284415432323664 0 0 0
1374 1 -4.317076375414729 -48.11796127115105 -0.3284564730323654 0 0 0
1375 1 -6.46951026141473 -48.11796127115105 0.9157034801676343 0 0 0
1376 1 -6.46951026141473 -48.11796127115105 -1.572601496432365 0 0 0
1377 1 -4.317076375414729 -48.11796127115105 2.159848503567634 0 0 0
1378 1 -2.880777343414728 -46.08432729515104 2.159848503567634 0 0 0
1379 1 -5.033172485914729 -46.08432729515104 3.403993526967634 0 0 0
1380 1 -5.033172485914729 -46.08432729515104 0.9157034801676343 0 0 0
1381 1 -2.880777343414728 -46.08432729515104 4.648138550367635 0 0 0
1382 1 -1.444439567914728 -44.05069331915105 4.648138550367635 0 0 0
1383 1 -3.596873453914728 -44.05069331915105 5.892298503567634 0 0 0
1384 1 -3.596873453914728 -44.05069331915105 3.403993526967634 0 0 0
1385 1 -1.444439567914728 -44.05069331915105 7.136443526967634 0 0 0
1386 1 -2.160535678414728 -42.01681085415105 5.892283573767635 0 0 0
1387 1 -7.905809293414729 -50.15159524715105 -6.549196519832366 0 0 0
1388 1 -5.753414150914731 -50.15159524715105 -5.305051496432366 0 0 0
1389 1 -4.317076375414729 -48.11796127115105 -5.305051496432366 0 0 0
1390 1 -6.46951026141473 -48.11796127115105 -4.060891543232366 0 0 0
1391 1 -6.46951026141473 -48.11796127115105 -6.549198012812366 0 0 0
1392 1 -4.317076375414729 -48.11796127115105 -2.816746519832365 0 0 0
1393 1 -2.880777343414728 -46.08432729515104 -2.816761449632366 0 0 0
1394 1 -5.033172485914729 -46.08432729515104 -1.572601496432365 0 0 0
1395 1 -5.033172485914729 -46.08432729515104 -4.060906473032365 0 0 0
1396 1 -2.880777343414728 -46.08432729515104 -0.3284564730323654 0 0 0
1397 1 -1.444439567914728 -44.05069331915105 -0.3284564730323654 0 0 0
1398 1 -3.596873453914728 -44.05069331915105 0.9156885503676353 0 0 0
1399 1 -3.596873453914728 -44.05069331915105 -1.572601496432365 0 0 0
1400 1 -1.444439567914728 -44.05069331915105 2.159833573767635 0 0 0
1401 1 -2.160535678414728 -42.01681085415105 3.403978597167635 0 0 0
1402 1 -2.160535678414728 -42.01681085415105 0.9156885503676353 0 0 0
1403 1 -5.033172485914729 -46.08432729515104 -6.549202491752366 0 0 0
1404 1 -2.880777343414728 -46.08432729515104 -5.305051496432366 0 0 0
1405 1 -1.444439567914728 -44.05069331915105 -5.305066426232366 0 0 0
1406 1 -3.596873453914728 -44.05069331915105 -4.060906473032365 0 0 0
1407 1 -3.596873453914728 -44.05069331915105 -6.549208463672366 0 0 0
1408 1 -1.444439567914728 -44.05069331915105 -2.816761449632366 0 0 0
1409 1 -2.160535678414728 -42.01681085415105 -1.572616426232366 0 0 0
1410 1 -2.160535678414728 -42.01681085415105 -4.060921402832365 0 0 0
1411 1 -2.160535678414728 -42.01681085415105 -6.549217421552366 0 0 0
1412 1 -11.49458095491473 -52.18522922315105 7.136458456767635 0 0 0
1413 1 -13.64697609741473 -52.18522922315105 5.892298503567634 0 0 0
1414 1 -11.49458095491473 -52.18522922315105 2.159848503567634 0 0 0
1415 1 -13.64697609741473 -52.18522922315105 3.404008456767635 0 0 0
1416 1 -13.64697609741473 -52.18522922315105 0.9157034801676343 0 0 0
1417 1 -11.49458095491473 -52.18522922315105 4.648153480167634 0 0 0
1418 1 -10.05824317941473 -50.15159524715105 4.648153480167634 0 0 0
1419 1 -12.21067706541473 -50.15159524715105 5.892313433367635 0 0 0
1420 1 -12.21067706541473 -50.15159524715105 3.404008456767635 0 0 0
1421 1 -10.05824317941473 -50.15159524715105 7.136458456767635 0 0 0
1422 1 -8.621905403914729 -48.11796127115105 7.136458456767635 0 0 0
1423 1 -10.77433928991473 -48.11796127115105 5.892313433367635 0 0 0
1424 1 -11.49458095491473 -52.18522922315105 -2.816746519832365 0 0 0
1425 1 -13.64697609741473 -52.18522922315105 -1.572601496432365 0 0 0
1426 1 -13.64697609741473 -52.18522922315105 -4.060891543232366 0 0 0
1427 1 -11.49458095491473 -52.18522922315105 -0.3284415432323664 0 0 0
1428 1 -10.05824317941473 -50.15159524715105 -0.3284415432323664 0 0 0
1429 1 -12.21067706541473 -50.15159524715105 0.9157034801676343 0 0 0
1430 1 -12.21067706541473 -50.15159524715105 -1.572586566632366 0 0 0
1431 1 -10.05824317941473 -50.15159524715105 2.159848503567634 0 0 0
1432 1 -8.621905403914729 -48.11796127115105 2.159848503567634 0 0 0
1433 1 -10.77433928991473 -48.11796127115105 3.404008456767635 0 0 0
1434 1 -10.77433928991473 -48.11796127115105 0.9157034801676343 0 0 0
1435 1 -8.621905403914729 -48.11796127115105 4.648153480167634 0 0 0
1436 1 -7.18560637191473 -46.08432729515104 4.648153480167634 0 0 0
1437 1 -9.338001514414728 -46.08432729515104 5.892298503567634 0 0 0
1438 1 -9.338001514414728 -46.08432729515104 3.404008456767635 0 0 0
1439 1 -7.18560637191473 -46.08432729515104 7.136458456767635 0 0 0
1440 1 -5.74926859641473 -44.05069331915105 7.136443526967634 0 0 0
1441 1 -7.901702482414729 -44.05069331915105 5.892298503567634 0 0 0
1442 1 -13.64697609741473 -52.18522922315105 -6.549195026852366 0 0 0
1443 1 -11.49458095491473 -52.18522922315105 -5.305051496432366 0 0 0
1444 1 -10.05824317941473 -50.15159524715105 -5.305051496432366 0 0 0
1445 1 -12.21067706541473 -50.15159524715105 -4.060891543232366 0 0 0
1446 1 -12.21067706541473 -50.15159524715105 -6.549193533872366 0 0 0
1447 1 -10.05824317941473 -50.15159524715105 -2.816746519832365 0 0 0
1448 1 -8.621905403914729 -48.11796127115105 -2.816746519832365 0 0 0
1449 1 -10.77433928991473 -48.11796127115105 -1.572586566632366 0 0 0
1450 1 -10.77433928991473 -48.11796127115105 -4.060891543232366 0 0 0
1451 1 -8.621905403914729 -48.11796127115105 -0.3284415432323664 0 0 0
1452 1 -7.18560637191473 -46.08432729515104 -0.3284415432323664 0 0 0
1453 1 -9.338001514414728 -46.08432729515104 0.9157034801676343 0 0 0
1454 1 -9.338001514414728 -46.08432729515104 -1.572601496432365 0 0 0
1455 1 -7.18560637191473 -46.08432729515104 2.159848503567634 0 0 0
1456 1 -5.74926859641473 -44.05069331915105 2.159848503567634 0 0 0
1457 1 -7.901702482414729 -44.05069331915105 3.403993526967634 0 0 0
1458 1 -7.901702482414729 -44.05069331915105 0.9157034801676343 0 0 0
1459 1 -5.74926859641473 -44.05069331915105 4.648138550367635 0 0 0
1460 1 -4.312969564414729 -42.01681085415105 4.648138550367635 0 0 0
1461 1 -6.46536470691473 -42.01705934315105 5.892298503567634 0 0 0
1462 1 -6.46536470691473 -42.01705934315105 3.403993526967634 0 0 0
1463 1 -4.312969564414729 -42.01681085415105 7.136443526967634 0 0 0
1464 1 -10.77433928991473 -48.11796127115105 -6.549193533872366 0 0 0
1465 1 -8.621905403914729 -48.11796127115105 -5.305051496432366 0 0 0
1466 1 -7.18560637191473 -46.08432729515104 -5.305051496432366 0 0 0
1467 1 -9.338001514414728 -46.08432729515104 -4.060891543232366 0 0 0
1468 1 -9.338001514414728 -46.08432729515104 -6.549195026852366 0 0 0
1469 1 -7.18560637191473 -46.08432729515104 -2.816746519832365 0 0 0
1470 1 -5.74926859641473 -44.05069331915105 -2.816761449632366 0 0 0
1471 1 -7.901702482414729 -44.05069331915105 -1.572601496432365 0 0 0
1472 1 -7.901702482414729 -44.05069331915105 -4.060906473032365 0 0 0
1473 1 -5.74926859641473 -44.05069331915105 -0.3284564730323654 0 0 0
1474 1 -4.312969564414729 -42.01681085415105 -0.3284564730323654 0 0 0
1475 1 -6.46536470691473 -42.01705934315105 0.9156885503676353 0 0 0
1476 1 -6.46536470691473 -42.01705934315105 -1.572601496432365 0 0 0
1477 1 -4.312969564414729 -42.01681085415105 2.159833573767635 0 0 0
1478 1 -7.901702482414729 -44.05069331915105 -6.549199505792366 0 0 0
1479 1 -5.74926859641473 -44.05069331915105 -5.305051496432366 0 0 0
1480 1 -4.312969564414729 -42.01681085415105 -5.305066426232366 0 0 0
1481 1 -6.46536470691473 -42.01705934315105 -4.060906473032365 0 0 0
1482 1 -6.46536470691473 -42.01705934315105 -6.549208463672366 0 0 0
1483 1 -4.312969564414729 -42.01681085415105 -2.816761449632366 0 0 0
1484 1 -15.79940998341473 -52.18522922315105 4.648153480167634 0 0 0
1485 1 -17.95182837201473 -52.18522922315105 5.892298503567634 0 0 0
1486 1 -17.95182837201473 -52.18522922315105 3.404008456767635 0 0 0
1487 1 -15.79940998341473 -52.18522922315105 7.136458456767635 0 0 0
1488 1 -14.36307220791473 -50.15159524715105 7.136458456767635 0 0 0
1489 1 -16.51550996826473 -50.15159524715105 5.892313433367635 0 0 0
1490 1 -15.79940998341473 -52.18522922315105 -0.3284415432323664 0 0 0
1491 1 -17.95182837201473 -52.18522922315105 0.9157034801676343 0 0 0
1492 1 -17.95182837201473 -52.18522922315105 -1.572601496432365 0 0 0
1493 1 -15.79940998341473 -52.18522922315105 2.159848503567634 0 0 0
1494 1 -14.36307220791473 -50.15159524715105 2.159863433367635 0 0 0
1495 1 -16.51550996826473 -50.15159524715105 3.404008456767635 0 0 0
1496 1 -16.51550996826473 -50.15159524715105 0.9157034801676343 0 0 0
1497 1 -14.36307220791473 -50.15159524715105 4.648153480167634 0 0 0
1498 1 -12.92677317591473 -48.11796127115105 4.648153480167634 0 0 0
1499 1 -15.07916831841473 -48.11796127115105 5.892313433367635 0 0 0
1500 1 -15.07916831841473 -48.11796127115105 3.404008456767635 0 0 0
1501 1 -12.92677317591473 -48.11796127115105 7.136458456767635 0 0 0
1502 1 -11.49043540041473 -46.08432729515104 7.136458456767635 0 0 0
1503 1 -13.64286928641473 -46.08432729515104 5.892313433367635 0 0 0
1504 1 -15.79940998341473 -52.18522922315105 -5.305051496432366 0 0 0
1505 1 -17.95182837201473 -52.18522922315105 -4.060891543232366 0 0 0
1506 1 -17.95182837201473 -52.18522922315105 -6.549195026852366 0 0 0
1507 1 -15.79940998341473 -52.18522922315105 -2.816746519832365 0 0 0
1508 1 -14.36307220791473 -50.15159524715105 -2.816746519832365 0 0 0
1509 1 -16.51550996826473 -50.15159524715105 -1.572586566632366 0 0 0
1510 1 -16.51550996826473 -50.15159524715105 -4.060891543232366 0 0 0
1511 1 -14.36307220791473 -50.15159524715105 -0.3284415432323664 0 0 0
1512 1 -12.92677317591473 -48.11796127115105 -0.3284415432323664 0 0 0
1513 1 -15.07916831841473 -48.11796127115105 0.9157034801676343 0 0 0
1514 1 -15.07916831841473 -48.11796127115105 -1.572586566632366 0 0 0
1515 1 -12.92677317591473 -48.11796127115105 2.159863433367635 0 0 0
1516 1 -11.49043540041473 -46.08432729515104 2.159863433367635 0 0 0
1517 1 -13.64286928641473 -46.08432729515104 3.404008456767635 0 0 0
1518 1 -13.64286928641473 -46.08432729515104 0.9157034801676343 0 0 0
1519 1 -11.49043540041473 -46.08432729515104 4.648153480167634 0 0 0
1520 1 -10.05413636841473 -44.05069331915105 4.648153480167634 0 0 0
1521 1 -12.20653151091473 -44.05069331915105 5.892313433367635 0 0 0
1522 1 -12.20653151091473 -44.05069331915105 3.404008456767635 0 0 0
1523 1 -10.05413636841473 -44.05069331915105 7.136458456767635 0 0 0
1524 1 -8.617798592914729 -42.01705934315105 7.136443526967634 0 0 0
1525 1 -10.77023247891473 -42.01705934315105 5.892298503567634 0 0 0
1526 1 -16.51550996826473 -50.15159524715105 -6.549193533872366 0 0 0
1527 1 -14.36307220791473 -50.15159524715105 -5.305036566632365 0 0 0
1528 1 -12.92677317591473 -48.11796127115105 -5.305036566632365 0 0 0
1529 1 -15.07916831841473 -48.11796127115105 -4.060891543232366 0 0 0
1530 1 -15.07916831841473 -48.11796127115105 -6.549190547912366 0 0 0
1531 1 -12.92677317591473 -48.11796127115105 -2.816746519832365 0 0 0
1532 1 -11.49043540041473 -46.08432729515104 -2.816746519832365 0 0 0
1533 1 -13.64286928641473 -46.08432729515104 -1.572586566632366 0 0 0
1534 1 -13.64286928641473 -46.08432729515104 -4.060891543232366 0 0 0
1535 1 -11.49043540041473 -46.08432729515104 -0.3284415432323664 0 0 0
1536 1 -10.05413636841473 -44.05069331915105 -0.3284415432323664 0 0 0
1537 1 -12.20653151091473 -44.05069331915105 0.9157034801676343 0 0 0
1538 1 -12.20653151091473 -44.05069331915105 -1.572586566632366 0 0 0
1539 1 -10.05413636841473 -44.05069331915105 2.159848503567634 0 0 0
1540 1 -8.617798592914729 -42.01705934315105 2.159848503567634 0 0 0
1541 1 -10.77023247891473 -42.01705934315105 3.404008456767635 0 0 0
1542 1 -10.77023247891473 -42.01705934315105 0.9157034801676343 0 0 0
1543 1 -8.617798592914729 -42.01705934315105 4.648153480167634 0 0 0
1544 1 -13.64286928641473 -46.08432729515104 -6.549189054932365 0 0 0
1545 1 -11.49043540041473 -46.08432729515104 -5.305036566632365 0 0 0
1546 1 -10.05413636841473 -44.05069331915105 -5.305051496432366 0 0 0
1547 1 -12.20653151091473 -44.05069331915105 -4.060891543232366 0 0 0
1548 1 -12.20653151091473 -44.05069331915105 -6.549189054932365 0 0 0
1549 1 -10.05413636841473 -44.05069331915105 -2.816746519832365 0 0 0
1550 1 -8.617798592914729 -42.01705934315105 -2.816746519832365 0 0 0
1551 1 -10.77023247891473 -42.01705934315105 -1.572601496432365 0 0 0
1552 1 -10.77023247891473 -42.01705934315105 -4.060891543232366 0 0 0
1553 1 -8.617798592914729 -42.01705934315105 -0.3284564730323654 0 0 0
1554 1 -10.77023247891473 -42.01705934315105 -6.549193533872366 0 0 0
1555 1 -8.617798592914729 -42.01705934315105 -5.305051496432366 0 0 0
1556 1 -18.66792835686473 -50.15159524715105 4.648153480167634 0 0 0
1557 1 -18.66792835686473 -50.15159524715105 7.136458456767635 0 0 0
1558 1 -17.23160995311473 -48.11796127115105 7.136458456767635 0 0 0
1559 1 -18.66792835686473 -50.15159524715105 -0.3284415432323664 0 0 0
1560 1 -18.66792835686473 -50.15159524715105 2.159863433367635 0 0 0
1561 1 -17.23160995311473 -48.11796127115105 2.159863433367635 0 0 0
1562 1 -17.23160995311473 -48.11796127115105 4.648153480167634 0 0 0
1563 1 -15.79528767501473 -46.08432729515104 4.648168409967635 0 0 0
1564 1 -17.94770993796473 -46.08432729515104 5.892313433367635 0 0 0
1565 1 -17.94770993796473 -46.08432729515104 3.404008456767635 0 0 0
1566 1 -15.79528767501473 -46.08432729515104 7.136458456767635 0 0 0
1567 1 -14.35896539691473 -44.05069331915105 7.136458456767635 0 0 0
1568 1 -16.51138765986473 -44.05069331915105 5.892313433367635 0 0 0
1569 1 -18.66792835686473 -50.15159524715105 -5.305036566632365 0 0 0
1570 1 -18.66792835686473 -50.15159524715105 -2.816746519832365 0 0 0
1571 1 -17.23160995311473 -48.11796127115105 -2.816746519832365 0 0 0
1572 1 -17.23160995311473 -48.11796127115105 -0.3284415432323664 0 0 0
1573 1 -15.79528767501473 -46.08432729515104 -0.3284415432323664 0 0 0
1574 1 -17.94770993796473 -46.08432729515104 0.915718409967635 0 0 0
1575 1 -17.94770993796473 -46.08432729515104 -1.572586566632366 0 0 0
1576 1 -15.79528767501473 -46.08432729515104 2.159863433367635 0 0 0
1577 1 -14.35896539691473 -44.05069331915105 2.159863433367635 0 0 0
1578 1 -16.51138765986473 -44.05069331915105 3.404023386567635 0 0 0
1579 1 -16.51138765986473 -44.05069331915105 0.915718409967635 0 0 0
1580 1 -14.35896539691473 -44.05069331915105 4.648168409967635 0 0 0
1581 1 -12.92262762141473 -42.01705934315105 4.648168409967635 0 0 0
1582 1 -15.07506150741473 -42.01705934315105 5.892313433367635 0 0 0
1583 1 -15.07506150741473 -42.01705934315105 3.404023386567635 0 0 0
1584 1 -12.92262762141473 -42.01705934315105 7.136458456767635 0 0 0
1585 1 -17.23160995311473 -48.11796127115105 -5.305036566632365 0 0 0
1586 1 -15.79528767501473 -46.08432729515104 -5.305036566632365 0 0 0
1587 1 -17.94770993796473 -46.08432729515104 -4.060891543232366 0 0 0
1588 1 -17.94770993796473 -46.08432729515104 -6.549187561952365 0 0 0
1589 1 -15.79528767501473 -46.08432729515104 -2.816731590032366 0 0 0
1590 1 -14.35896539691473 -44.05069331915105 -2.816731590032366 0 0 0
1591 1 -16.51138765986473 -44.05069331915105 -1.572586566632366 0 0 0
1592 1 -16.51138765986473 -44.05069331915105 -4.060876613432366 0 0 0
1593 1 -14.35896539691473 -44.05069331915105 -0.3284415432323664 0 0 0
1594 1 -12.92262762141473 -42.01705934315105 -0.3284415432323664 0 0 0
1595 1 -15.07506150741473 -42.01705934315105 0.915718409967635 0 0 0
1596 1 -15.07506150741473 -42.01705934315105 -1.572586566632366 0 0 0
1597 1 -12.92262762141473 -42.01705934315105 2.159863433367635 0 0 0
1598 1 -16.51138765986473 -44.05069331915105 -6.549184575992365 0 0 0
1599 1 -14.35896539691473 -44.05069331915105 -5.305036566632365 0 0 0
1600 1 -12.92262762141473 -42.01705934315105 -5.305036566632365 0 0 0
1601 1 -15.07506150741473 -42.01705934315105 -4.060876613432366 0 0 0
1602 1 -15.07506150741473 -42.01705934315105 -6.549181590032366 0 0 0
1603 1 -12.92262762141473 -42.01705934315105 -2.816731590032366 0 0 0
1604 1 -18.66381379716473 -44.05044483015105 4.648168409967635 0 0 0
1605 1 -18.66381379716473 -44.05044483015105 7.136473386567635 0 0 0
1606 1 -17.22749151906473 -42.01681085415105 7.136473386567635 0 0 0
1607 1 -18.66381379716473 -44.05044483015105 -0.3284266134323657 0 0 0
1608 1 -18.66381379716473 -44.05044483015105 2.159863433367635 0 0 0
1609 1 -17.22749151906473 -42.01681085415105 2.159878363167635 0 0 0
1610 1 -17.22749151906473 -42.01681085415105 4.648168409967635 0 0 0
1611 1 -18.66381379716473 -44.05044483015105 -5.305036566632365 0 0 0
1612 1 -18.66381379716473 -44.05044483015105 -2.816731590032366 0 0 0
1613 1 -17.22749151906473 -42.01681085415105 -2.816731590032366 0 0 0
1614 1 -17.22749151906473 -42.01681085415105 -0.3284266134323657 0 0 0
1615 1 -17.22749151906473 -42.01681085415105 -5.305021636832366 0 0 0
1616 1 -0.724236646414731 -39.98317687815104 5.892268643967634 0 0 0
1617 1 -0.724236646414731 -39.98317687815104 3.403978597167635 0 0 0
1618 1 -0.724236646414731 -39.98317687815104 0.9156736205676346 0 0 0
1619 1 -0.724236646414731 -39.98317687815104 -1.572631356032366 0 0 0
1620 1 -0.724236646414731 -39.98317687815104 -4.060921402832365 0 0 0
1621 1 -0.724236646414731 -39.98317687815104 -6.549227872412366 0 0 0
1622 1 -2.876631788914729 -39.98317687815104 7.136428597167635 0 0 0
1623 1 -5.029065674914728 -39.98317687815104 5.892283573767635 0 0 0
1624 1 -2.876631788914729 -39.98317687815104 2.159818643967634 0 0 0
1625 1 -5.029065674914728 -39.98317687815104 3.403978597167635 0 0 0
1626 1 -5.029065674914728 -39.98317687815104 0.9156736205676346 0 0 0
1627 1 -2.876631788914729 -39.98317687815104 4.648123620567635 0 0 0
1628 1 -1.440332756914728 -37.94954290215105 4.648108690767634 0 0 0
1629 1 -3.592727899414729 -37.94954290215105 5.892268643967634 0 0 0
1630 1 -3.592727899414729 -37.94954290215105 3.403963667367634 0 0 0
1631 1 -1.440332756914728 -37.94954290215105 7.136413667367634 0 0 0
1632 1 -2.156390123914729 -35.91590892615105 5.892238784367633 0 0 0
1633 1 -2.876631788914729 -39.98317687815104 -2.816776379432365 0 0 0
1634 1 -5.029065674914728 -39.98317687815104 -1.572616426232366 0 0 0
1635 1 -5.029065674914728 -39.98317687815104 -4.060921402832365 0 0 0
1636 1 -2.876631788914729 -39.98317687815104 -0.3284714028323661 0 0 0
1637 1 -1.440332756914728 -37.94954290215105 -0.3284863326323659 0 0 0
1638 1 -3.592727899414729 -37.94954290215105 0.9156586907676338 0 0 0
1639 1 -3.592727899414729 -37.94954290215105 -1.572631356032366 0 0 0
1640 1 -1.440332756914728 -37.94954290215105 2.159803714167634 0 0 0
1641 1 -2.156390123914729 -35.91590892615105 3.403948737567633 0 0 0
1642 1 -2.156390123914729 -35.91590892615105 0.9156437609676331 0 0 0
1643 1 -0.7200910919147283 -33.88227495015106 5.892238784367633 0 0 0
1644 1 -0.7200910919147283 -33.88227495015106 3.403933807767634 0 0 0
1645 1 -5.029065674914728 -39.98317687815104 -6.549220407512366 0 0 0
1646 1 -2.876631788914729 -39.98317687815104 -5.305081356032366 0 0 0
1647 1 -1.440332756914728 -37.94954290215105 -5.305096285832366 0 0 0
1648 1 -3.592727899414729 -37.94954290215105 -4.060936332632366 0 0 0
1649 1 -3.592727899414729 -37.94954290215105 -6.549238323272366 0 0 0
1650 1 -1.440332756914728 -37.94954290215105 -2.816791309232366 0 0 0
1651 1 -2.156390123914729 -35.91590892615105 -1.572661215632365 0 0 0
1652 1 -2.156390123914729 -35.91590892615105 -4.060951262432366 0 0 0
1653 1 -0.7200910919147283 -33.88227495015106 0.9156288311676359 0 0 0
1654 1 -0.7200910919147283 -33.88227495015106 -1.572661215632365 0 0 0
1655 1 -2.156390123914729 -35.91590892615105 -6.549256239032366 0 0 0
1656 1 -0.7200910919147283 -33.88227495015106 -4.060966192232366 0 0 0
1657 1 -0.7200910919147283 -33.88227495015106 -6.549268182872366 0 0 0
1658 1 -7.181460817414729 -39.98317687815104 4.648138550367635 0 0 0
1659 1 -9.333894703414728 -39.98317687815104 5.892298503567634 0 0 0
1660 1 -9.333894703414728 -39.98317687815104 3.403993526967634 0 0 0
1661 1 -7.181460817414729 -39.98317687815104 7.136443526967634 0 0 0
1662 1 -5.74516178541473 -37.94954290215105 7.136413667367634 0 0 0
1663 1 -7.89755692791473 -37.94954290215105 5.892283573767635 0 0 0
1664 1 -7.181460817414729 -39.98317687815104 -0.3284564730323654 0 0 0
1665 1 -9.333894703414728 -39.98317687815104 0.9156885503676353 0 0 0
1666 1 -9.333894703414728 -39.98317687815104 -1.572601496432365 0 0 0
1667 1 -7.181460817414729 -39.98317687815104 2.159833573767635 0 0 0
1668 1 -5.74516178541473 -37.94954290215105 2.159818643967634 0 0 0
1669 1 -7.89755692791473 -37.94954290215105 3.403978597167635 0 0 0
1670 1 -7.89755692791473 -37.94954290215105 0.9156736205676346 0 0 0
1671 1 -5.74516178541473 -37.94954290215105 4.648123620567635 0 0 0
1672 1 -4.308824009914728 -35.91590892615105 4.648093760967633 0 0 0
1673 1 -6.461257895914729 -35.91590892615105 5.892253714167634 0 0 0
1674 1 -6.461257895914729 -35.91590892615105 3.403948737567633 0 0 0
1675 1 -4.308824009914728 -35.91590892615105 7.136398737567633 0 0 0
1676 1 -2.87248623441473 -33.88227495015106 7.136368877967636 0 0 0
1677 1 -5.024920120414729 -33.88227495015106 5.892223854567636 0 0 0
1678 1 -7.181460817414729 -39.98317687815104 -5.305066426232366 0 0 0
1679 1 -9.333894703414728 -39.98317687815104 -4.060906473032365 0 0 0
1680 1 -9.333894703414728 -39.98317687815104 -6.549203984732365 0 0 0
1681 1 -7.181460817414729 -39.98317687815104 -2.816761449632366 0 0 0
1682 1 -5.74516178541473 -37.94954290215105 -2.816776379432365 0 0 0
1683 1 -7.89755692791473 -37.94954290215105 -1.572616426232366 0 0 0
1684 1 -7.89755692791473 -37.94954290215105 -4.060921402832365 0 0 0
1685 1 -5.74516178541473 -37.94954290215105 -0.3284863326323659 0 0 0
1686 1 -4.308824009914728 -35.91590892615105 -0.3285012624323658 0 0 0
1687 1 -6.461257895914729 -35.91590892615105 0.9156586907676338 0 0 0
1688 1 -6.461257895914729 -35.91590892615105 -1.572646285832366 0 0 0
1689 1 -4.308824009914728 -35.91590892615105 2.159788784367633 0 0 0
1690 1 -2.87248623441473 -33.88227495015106 2.159773854567636 0 0 0
1691 1 -5.024920120414729 -33.88227495015106 3.403918877967635 0 0 0
1692 1 -5.024920120414729 -33.88227495015106 0.9156288311676359 0 0 0
1693 1 -2.87248623441473 -33.88227495015106 4.648078831167636 0 0 0
1694 1 -1.436187202414729 -31.84864097415105 4.648048971567635 0 0 0
1695 1 -3.588582344914728 -31.84864097415105 5.892193994967634 0 0 0
1696 1 -3.588582344914728 -31.84864097415105 3.403889018367634 0 0 0
1697 1 -1.436187202414729 -31.84864097415105 7.136353948167635 0 0 0
1698 1 -2.15224456941473 -29.81500699815105 5.892164135367635 0 0 0
1699 1 -7.89755692791473 -37.94954290215105 -6.549221900492366 0 0 0
1700 1 -5.74516178541473 -37.94954290215105 -5.305081356032366 0 0 0
1701 1 -4.308824009914728 -35.91590892615105 -5.305111215632365 0 0 0
1702 1 -6.461257895914729 -35.91590892615105 -4.060951262432366 0 0 0
1703 1 -6.461257895914729 -35.91590892615105 -6.549247281152366 0 0 0
1704 1 -4.308824009914728 -35.91590892615105 -2.816806239032365 0 0 0
1705 1 -2.87248623441473 -33.88227495015106 -2.816821168832366 0 0 0
1706 1 -5.024920120414729 -33.88227495015106 -1.572676145432366 0 0 0
1707 1 -5.024920120414729 -33.88227495015106 -4.060981122032365 0 0 0
1708 1 -2.87248623441473 -33.88227495015106 -0.3285311220323663 0 0 0
1709 1 -1.436187202414729 -31.84864097415105 -0.3285460518323653 0 0 0
1710 1 -3.588582344914728 -31.84864097415105 0.9155840417676337 0 0 0
1711 1 -3.588582344914728 -31.84864097415105 -1.572706005032366 0 0 0
1712 1 -1.436187202414729 -31.84864097415105 2.159758924767635 0 0 0
1713 1 -2.15224456941473 -29.81500699815105 3.403874088567635 0 0 0
1714 1 -2.15224456941473 -29.81500699815105 0.9155691119676348 0 0 0
1715 1 -0.7159455374147292 -27.78112453315104 5.892179065167634 0 0 0
1716 1 -0.7159455374147292 -27.78112453315104 3.403889018367634 0 0 0
1717 1 -5.024920120414729 -33.88227495015106 -6.549278633732365 0 0 0
1718 1 -2.87248623441473 -33.88227495015106 -5.305126145432366 0 0 0
1719 1 -1.436187202414729 -31.84864097415105 -5.305141075232365 0 0 0
1720 1 -3.588582344914728 -31.84864097415105 -4.061010981632366 0 0 0
1721 1 -3.588582344914728 -31.84864097415105 -6.549309986312366 0 0 0
1722 1 -1.436187202414729 -31.84864097415105 -2.816851028432366 0 0 0
1723 1 -2.15224456941473 -29.81500699815105 -1.572735864632366 0 0 0
1724 1 -2.15224456941473 -29.81500699815105 -4.061025911432366 0 0 0
1725 1 -0.7159455374147292 -27.78112453315104 0.9155840417676337 0 0 0
1726 1 -0.7159455374147292 -27.78112453315104 -1.572720934832366 0 0 0
1727 1 -2.15224456941473 -29.81500699815105 -6.549329395052366 0 0 0
1728 1 -0.7159455374147292 -27.78112453315104 -4.061010981632366 0 0 0
1729 1 -0.7159455374147292 -27.78112453315104 -6.549312972272366 0 0 0
1730 1 -11.48632858941473 -39.98342536715106 7.136458456767635 0 0 0
1731 1 -13.63872373191473 -39.98317687815104 5.892313433367635 0 0 0
1732 1 -11.48632858941473 -39.98342536715106 2.159848503567634 0 0 0
1733 1 -13.63872373191473 -39.98317687815104 3.404008456767635 0 0 0
1734 1 -13.63872373191473 -39.98317687815104 0.915718409967635 0 0 0
1735 1 -11.48632858941473 -39.98342536715106 4.648153480167634 0 0 0
1736 1 -10.04999081391473 -37.94954290215105 4.648138550367635 0 0 0
1737 1 -12.20242469991473 -37.94954290215105 5.892298503567634 0 0 0
1738 1 -12.20242469991473 -37.94954290215105 3.404008456767635 0 0 0
1739 1 -10.04999081391473 -37.94954290215105 7.136443526967634 0 0 0
1740 1 -8.613653038414729 -35.91590892615105 7.136413667367634 0 0 0
1741 1 -10.76608692441473 -35.91590892615105 5.892283573767635 0 0 0
1742 1 -11.48632858941473 -39.98342536715106 -2.816746519832365 0 0 0
1743 1 -13.63872373191473 -39.98317687815104 -1.572586566632366 0 0 0
1744 1 -13.63872373191473 -39.98317687815104 -4.060891543232366 0 0 0
1745 1 -11.48632858941473 -39.98342536715106 -0.3284415432323664 0 0 0
1746 1 -10.04999081391473 -37.94954290215105 -0.3284564730323654 0 0 0
1747 1 -12.20242469991473 -37.94954290215105 0.9157034801676343 0 0 0
1748 1 -12.20242469991473 -37.94954290215105 -1.572601496432365 0 0 0
1749 1 -10.04999081391473 -37.94954290215105 2.159833573767635 0 0 0
1750 1 -8.613653038414729 -35.91590892615105 2.159818643967634 0 0 0
1751 1 -10.76608692441473 -35.91590892615105 3.403978597167635 0 0 0
1752 1 -10.76608692441473 -35.91590892615105 0.9156885503676353 0 0 0
1753 1 -8.613653038414729 -35.91590892615105 4.648123620567635 0 0 0
1754 1 -7.177315262914728 -33.88227495015106 4.648078831167636 0 0 0
1755 1 -9.329749148914729 -33.88227495015106 5.892253714167634 0 0 0
1756 1 -9.329749148914729 -33.88227495015106 3.403948737567633 0 0 0
1757 1 -7.177315262914728 -33.88227495015106 7.136383807767634 0 0 0
1758 1 -5.741016230914727 -31.84864097415105 7.136339018367634 0 0 0
1759 1 -7.893411373414729 -31.84864097415105 5.892193994967634 0 0 0
1760 1 -13.63872373191473 -39.98317687815104 -6.549184575992365 0 0 0
1761 1 -11.48632858941473 -39.98342536715106 -5.305051496432366 0 0 0
1762 1 -10.04999081391473 -37.94954290215105 -5.305066426232366 0 0 0
1763 1 -12.20242469991473 -37.94954290215105 -4.060891543232366 0 0 0
1764 1 -12.20242469991473 -37.94954290215105 -6.549195026852366 0 0 0
1765 1 -10.04999081391473 -37.94954290215105 -2.816761449632366 0 0 0
1766 1 -8.613653038414729 -35.91590892615105 -2.816776379432365 0 0 0
1767 1 -10.76608692441473 -35.91590892615105 -1.572616426232366 0 0 0
1768 1 -10.76608692441473 -35.91590892615105 -4.060921402832365 0 0 0
1769 1 -8.613653038414729 -35.91590892615105 -0.3284863326323659 0 0 0
1770 1 -7.177315262914728 -33.88227495015106 -0.3285161922323656 0 0 0
1771 1 -9.329749148914729 -33.88227495015106 0.9156437609676331 0 0 0
1772 1 -9.329749148914729 -33.88227495015106 -1.572646285832366 0 0 0
1773 1 -7.177315262914728 -33.88227495015106 2.159773854567636 0 0 0
1774 1 -5.741016230914727 -31.84864097415105 2.159743994967634 0 0 0
1775 1 -7.893411373414729 -31.84864097415105 3.403903948167635 0 0 0
1776 1 -7.893411373414729 -31.84864097415105 0.9155989715676345 0 0 0
1777 1 -5.741016230914727 -31.84864097415105 4.648034041767634 0 0 0
1778 1 -4.304678455414729 -29.81500699815105 4.647989252367633 0 0 0
1779 1 -6.45711234141473 -29.81500699815105 5.892134275767635 0 0 0
1780 1 -6.45711234141473 -29.81500699815105 3.403844228967634 0 0 0
1781 1 -4.304678455414729 -29.81500699815105 7.136294228967634 0 0 0
1782 1 -2.868340679914731 -27.78137302215104 7.136279299167635 0 0 0
1783 1 -5.020774565914728 -27.78137302215104 5.892089486367635 0 0 0
1784 1 -10.76608692441473 -35.91590892615105 -6.549215928572366 0 0 0
1785 1 -8.613653038414729 -35.91590892615105 -5.305081356032366 0 0 0
1786 1 -7.177315262914728 -33.88227495015106 -5.305126145432366 0 0 0
1787 1 -9.329749148914729 -33.88227495015106 -4.060951262432366 0 0 0
1788 1 -9.329749148914729 -33.88227495015106 -6.549251760092366 0 0 0
1789 1 -7.177315262914728 -33.88227495015106 -2.816821168832366 0 0 0
1790 1 -5.741016230914727 -31.84864097415105 -2.816865958232365 0 0 0
1791 1 -7.893411373414729 -31.84864097415105 -1.572706005032366 0 0 0
1792 1 -7.893411373414729 -31.84864097415105 -4.060996051832365 0 0 0
1793 1 -5.741016230914727 -31.84864097415105 -0.328560981632366 0 0 0
1794 1 -4.304678455414729 -29.81500699815105 -0.3286057710323655 0 0 0
1795 1 -6.45711234141473 -29.81500699815105 0.9155392523676333 0 0 0
1796 1 -6.45711234141473 -29.81500699815105 -1.572765724232366 0 0 0
1797 1 -4.304678455414729 -29.81500699815105 2.159699205567634 0 0 0
1798 1 -2.868340679914731 -27.78137302215104 2.159669345967634 0 0 0
1799 1 -5.020774565914728 -27.78137302215104 3.403784509767634 0 0 0
1800 1 -5.020774565914728 -27.78137302215104 0.915479533167634 0 0 0
1801 1 -2.868340679914731 -27.78137302215104 4.647974322567634 0 0 0
1802 1 -7.893411373414729 -31.84864097415105 -6.549301028432366 0 0 0
1803 1 -5.741016230914727 -31.84864097415105 -5.305156005032366 0 0 0
1804 1 -4.304678455414729 -29.81500699815105 -5.305200794432366 0 0 0
1805 1 -6.45711234141473 -29.81500699815105 -4.061055771032366 0 0 0
1806 1 -6.45711234141473 -29.81500699815105 -6.549359254652366 0 0 0
1807 1 -4.304678455414729 -29.81500699815105 -2.816910747632366 0 0 0
1808 1 -2.868340679914731 -27.78137302215104 -2.816925677432366 0 0 0
1809 1 -5.020774565914728 -27.78137302215104 -1.572810513632366 0 0 0
1810 1 -5.020774565914728 -27.78137302215104 -4.061115490232366 0 0 0
1811 1 -2.868340679914731 -27.78137302215104 -0.3286207008323654 0 0 0
1812 1 -5.020774565914728 -27.78137302215104 -6.549415987892366 0 0 0
1813 1 -2.868340679914731 -27.78137302215104 -5.305230654032366 0 0 0
1814 1 -15.79116536661473 -39.98317687815104 4.648168409967635 0 0 0
1815 1 -17.94359537826473 -39.98317687815104 5.892328363167636 0 0 0
1816 1 -17.94359537826473 -39.98317687815104 3.404023386567635 0 0 0
1817 1 -15.79116536661473 -39.98317687815104 7.136473386567635 0 0 0
1818 1 -14.35481984241473 -37.94954290215105 7.136473386567635 0 0 0
1819 1 -16.50726535146473 -37.94954290215105 5.892328363167636 0 0 0
1820 1 -15.79116536661473 -39.98317687815104 -0.3284266134323657 0 0 0
1821 1 -17.94359537826473 -39.98317687815104 0.9157333397676339 0 0 0
1822 1 -17.94359537826473 -39.98317687815104 -1.572571636832365 0 0 0
1823 1 -15.79116536661473 -39.98317687815104 2.159878363167635 0 0 0
1824 1 -14.35481984241473 -37.94954290215105 2.159863433367635 0 0 0
1825 1 -16.50726535146473 -37.94954290215105 3.404023386567635 0 0 0
1826 1 -16.50726535146473 -37.94954290215105 0.9157333397676339 0 0 0
1827 1 -14.35481984241473 -37.94954290215105 4.648168409967635 0 0 0
1828 1 -12.91852081041473 -35.91590892615105 4.648153480167634 0 0 0
1829 1 -15.07095469641473 -35.91590892615105 5.892328363167636 0 0 0
1830 1 -15.07095469641473 -35.91590892615105 3.404023386567635 0 0 0
1831 1 -12.91852081041473 -35.91590892615105 7.136458456767635 0 0 0
1832 1 -11.48218303491473 -33.88227495015106 7.136428597167635 0 0 0
1833 1 -13.63461692091473 -33.88227495015106 5.892298503567634 0 0 0
1834 1 -15.79116536661473 -39.98317687815104 -5.305021636832366 0 0 0
1835 1 -17.94359537826473 -39.98317687815104 -4.060876613432366 0 0 0
1836 1 -17.94359537826473 -39.98317687815104 -6.549171139172365 0 0 0
1837 1 -15.79116536661473 -39.98317687815104 -2.816731590032366 0 0 0
1838 1 -14.35481984241473 -37.94954290215105 -2.816731590032366 0 0 0
1839 1 -16.50726535146473 -37.94954290215105 -1.572571636832365 0 0 0
1840 1 -16.50726535146473 -37.94954290215105 -4.060876613432366 0 0 0
1841 1 -14.35481984241473 -37.94954290215105 -0.3284266134323657 0 0 0
1842 1 -12.91852081041473 -35.91590892615105 -0.3284415432323664 0 0 0
1843 1 -15.07095469641473 -35.91590892615105 0.915718409967635 0 0 0
1844 1 -15.07095469641473 -35.91590892615105 -1.572571636832365 0 0 0
1845 1 -12.91852081041473 -35.91590892615105 2.159848503567634 0 0 0
1846 1 -11.48218303491473 -33.88227495015106 2.159818643967634 0 0 0
1847 1 -13.63461692091473 -33.88227495015106 3.403993526967634 0 0 0
1848 1 -13.63461692091473 -33.88227495015106 0.9157034801676343 0 0 0
1849 1 -11.48218303491473 -33.88227495015106 4.648123620567635 0 0 0
1850 1 -10.04584525941473 -31.84864097415105 4.648078831167636 0 0 0
1851 1 -12.19827914541473 -31.84864097415105 5.892253714167634 0 0 0
1852 1 -12.19827914541473 -31.84864097415105 3.403948737567633 0 0 0
1853 1 -10.04584525941473 -31.84864097415105 7.136368877967636 0 0 0
1854 1 -8.609507483914729 -29.81500699815105 7.136309158767634 0 0 0
1855 1 -10.76194136991473 -29.81500699815105 5.892179065167634 0 0 0
1856 1 -16.50726535146473 -37.94954290215105 -6.549169646192365 0 0 0
1857 1 -14.35481984241473 -37.94954290215105 -5.305036566632365 0 0 0
1858 1 -12.91852081041473 -35.91590892615105 -5.305051496432366 0 0 0
1859 1 -15.07095469641473 -35.91590892615105 -4.060876613432366 0 0 0
1860 1 -15.07095469641473 -35.91590892615105 -6.549177111092366 0 0 0
1861 1 -12.91852081041473 -35.91590892615105 -2.816746519832365 0 0 0
1862 1 -11.48218303491473 -33.88227495015106 -2.816776379432365 0 0 0
1863 1 -13.63461692091473 -33.88227495015106 -1.572601496432365 0 0 0
1864 1 -13.63461692091473 -33.88227495015106 -4.060906473032365 0 0 0
1865 1 -11.48218303491473 -33.88227495015106 -0.3284714028323661 0 0 0
1866 1 -10.04584525941473 -31.84864097415105 -0.3285311220323663 0 0 0
1867 1 -12.19827914541473 -31.84864097415105 0.9156586907676338 0 0 0
1868 1 -12.19827914541473 -31.84864097415105 -1.572646285832366 0 0 0
1869 1 -10.04584525941473 -31.84864097415105 2.159773854567636 0 0 0
1870 1 -8.609507483914729 -29.81500699815105 2.159699205567634 0 0 0
1871 1 -10.76194136991473 -29.81500699815105 3.403889018367634 0 0 0
1872 1 -10.76194136991473 -29.81500699815105 0.9155840417676337 0 0 0
1873 1 -8.609507483914729 -29.81500699815105 4.648004182167634 0 0 0
1874 1 -7.173169708414729 -27.78137302215104 4.647929533167634 0 0 0
1875 1 -9.325603594414728 -27.78137302215104 5.892089486367635 0 0 0
1876 1 -9.325603594414728 -27.78137302215104 3.403784509767634 0 0 0
1877 1 -7.173169708414729 -27.78137302215104 7.136219579967634 0 0 0
1878 1 -13.63461692091473 -33.88227495015106 -6.549200998772366 0 0 0
1879 1 -11.48218303491473 -33.88227495015106 -5.305081356032366 0 0 0
1880 1 -10.04584525941473 -31.84864097415105 -5.305126145432366 0 0 0
1881 1 -12.19827914541473 -31.84864097415105 -4.060951262432366 0 0 0
1882 1 -12.19827914541473 -31.84864097415105 -6.549245788172366 0 0 0
1883 1 -10.04584525941473 -31.84864097415105 -2.816821168832366 0 0 0
1884 1 -8.609507483914729 -29.81500699815105 -2.816895817832365 0 0 0
1885 1 -10.76194136991473 -29.81500699815105 -1.572720934832366 0 0 0
1886 1 -10.76194136991473 -29.81500699815105 -4.061010981632366 0 0 0
1887 1 -8.609507483914729 -29.81500699815105 -0.3285908412323657 0 0 0
1888 1 -7.173169708414729 -27.78137302215104 -0.3286804200323656 0 0 0
1889 1 -9.325603594414728 -27.78137302215104 0.9154944629676347 0 0 0
1890 1 -9.325603594414728 -27.78137302215104 -1.572810513632366 0 0 0
1891 1 -7.173169708414729 -27.78137302215104 2.159624556567634 0 0 0
1892 1 -10.76194136991473 -29.81500699815105 -6.549314465252365 0 0 0
1893 1 -8.609507483914729 -29.81500699815105 -5.305200794432366 0 0 0
1894 1 -7.173169708414729 -27.78137302215104 -5.305275443432366 0 0 0
1895 1 -9.325603594414728 -27.78137302215104 -4.061115490232366 0 0 0
1896 1 -9.325603594414728 -27.78137302215104 -6.549408522992366 0 0 0
1897 1 -7.173169708414729 -27.78137302215104 -2.816970466832366 0 0 0
1898 1 -18.65969923746473 -37.94954290215105 4.648183339767634 0 0 0
1899 1 -18.65969923746473 -37.94954290215105 7.136488316367634 0 0 0
1900 1 -17.22336921066473 -35.91590892615105 7.136488316367634 0 0 0
1901 1 -18.65969923746473 -37.94954290215105 -0.3284116836323658 0 0 0
1902 1 -18.65969923746473 -37.94954290215105 2.159893292967634 0 0 0
1903 1 -17.22336921066473 -35.91590892615105 2.159893292967634 0 0 0
1904 1 -17.22336921066473 -35.91590892615105 4.648183339767634 0 0 0
1905 1 -15.78703530951473 -33.88227495015106 4.648183339767634 0 0 0
1906 1 -17.93947306986473 -33.88227495015106 5.892343292967634 0 0 0
1907 1 -17.93947306986473 -33.88227495015106 3.404053246167633 0 0 0
1908 1 -15.78703530951473 -33.88227495015106 7.136473386567635 0 0 0
1909 1 -14.35071303141473 -31.84864097415105 7.136443526967634 0 0 0
1910 1 -16.50313916871473 -31.84864097415105 5.892328363167636 0 0 0
1911 1 -18.65969923746473 -37.94954290215105 -5.305006707032366 0 0 0
1912 1 -18.65969923746473 -37.94954290215105 -2.816716660232366 0 0 0
1913 1 -17.22336921066473 -35.91590892615105 -2.816716660232366 0 0 0
1914 1 -17.22336921066473 -35.91590892615105 -0.3284116836323658 0 0 0
1915 1 -15.78703530951473 -33.88227495015106 -0.3284266134323657 0 0 0
1916 1 -17.93947306986473 -33.88227495015106 0.9157482695676329 0 0 0
1917 1 -17.93947306986473 -33.88227495015106 -1.572556707032366 0 0 0
1918 1 -15.78703530951473 -33.88227495015106 2.159878363167635 0 0 0
1919 1 -14.35071303141473 -31.84864097415105 2.159848503567634 0 0 0
1920 1 -16.50313916871473 -31.84864097415105 3.404023386567635 0 0 0
1921 1 -16.50313916871473 -31.84864097415105 0.9157333397676339 0 0 0
1922 1 -14.35071303141473 -31.84864097415105 4.648138550367635 0 0 0
1923 1 -12.91437525591473 -29.81500699815105 4.648078831167636 0 0 0
1924 1 -15.06680914191473 -29.81500699815105 5.892283573767635 0 0 0
1925 1 -15.06680914191473 -29.81500699815105 3.403978597167635 0 0 0
1926 1 -12.91437525591473 -29.81500699815105 7.136383807767634 0 0 0
1927 1 -11.47803748041473 -27.78137302215104 7.136279299167635 0 0 0
1928 1 -13.63047136641473 -27.78137302215104 5.892193994967634 0 0 0
1929 1 -17.22336921066473 -35.91590892615105 -5.305006707032366 0 0 0
1930 1 -15.78703530951473 -33.88227495015106 -5.305021636832366 0 0 0
1931 1 -17.93947306986473 -33.88227495015106 -4.060846753832365 0 0 0
1932 1 -17.93947306986473 -33.88227495015106 -6.549148744472365 0 0 0
1933 1 -15.78703530951473 -33.88227495015106 -2.816716660232366 0 0 0
1934 1 -14.35071303141473 -31.84864097415105 -2.816761449632366 0 0 0
1935 1 -16.50313916871473 -31.84864097415105 -1.572571636832365 0 0 0
1936 1 -16.50313916871473 -31.84864097415105 -4.060876613432366 0 0 0
1937 1 -14.35071303141473 -31.84864097415105 -0.3284564730323654 0 0 0
1938 1 -12.91437525591473 -29.81500699815105 -0.3285161922323656 0 0 0
1939 1 -15.06680914191473 -29.81500699815105 0.9156736205676346 0 0 0
1940 1 -15.06680914191473 -29.81500699815105 -1.572616426232366 0 0 0
1941 1 -12.91437525591473 -29.81500699815105 2.159773854567636 0 0 0
1942 1 -11.47803748041473 -27.78137302215104 2.159684275767635 0 0 0
1943 1 -13.63047136641473 -27.78137302215104 3.403889018367634 0 0 0
1944 1 -13.63047136641473 -27.78137302215104 0.9155840417676337 0 0 0
1945 1 -11.47803748041473 -27.78137302215104 4.647974322567634 0 0 0
1946 1 -16.50313916871473 -31.84864097415105 -6.549171139172365 0 0 0
1947 1 -14.35071303141473 -31.84864097415105 -5.305051496432366 0 0 0
1948 1 -12.91437525591473 -29.81500699815105 -5.305126145432366 0 0 0
1949 1 -15.06680914191473 -29.81500699815105 -4.060921402832365 0 0 0
1950 1 -15.06680914191473 -29.81500699815105 -6.549221900492366 0 0 0
1951 1 -12.91437525591473 -29.81500699815105 -2.816821168832366 0 0 0
1952 1 -11.47803748041473 -27.78137302215104 -2.816925677432366 0 0 0
1953 1 -13.63047136641473 -27.78137302215104 -1.572706005032366 0 0 0
1954 1 -13.63047136641473 -27.78137302215104 -4.061010981632366 0 0 0
1955 1 -11.47803748041473 -27.78137302215104 -0.3286207008323654 0 0 0
1956 1 -13.63047136641473 -27.78137302215104 -6.549311479292366 0 0 0
1957 1 -11.47803748041473 -27.78137302215104 -5.305215724232365 0 0 0
1958 1 -18.65558080341473 -31.84864097415105 4.648213199367634 0 0 0
1959 1 -18.65558080341473 -31.84864097415105 7.136518175967634 0 0 0
1960 1 -17.21924302791473 -29.81500699815105 7.136488316367634 0 0 0
1961 1 -18.65558080341473 -31.84864097415105 -0.3283818240323662 0 0 0
1962 1 -18.65558080341473 -31.84864097415105 2.159908222767633 0 0 0
1963 1 -17.21924302791473 -29.81500699815105 2.159878363167635 0 0 0
1964 1 -17.21924302791473 -29.81500699815105 4.648183339767634 0 0 0
1965 1 -15.78289750371473 -27.78137302215104 4.648108690767634 0 0 0
1966 1 -17.93535076146473 -27.78137302215104 5.892328363167636 0 0 0
1967 1 -17.93535076146473 -27.78137302215104 3.404023386567635 0 0 0
1968 1 -15.78289750371473 -27.78137302215104 7.136413667367634 0 0 0
1969 1 -18.65558080341473 -31.84864097415105 -5.304991777232366 0 0 0
1970 1 -18.65558080341473 -31.84864097415105 -2.816686800632366 0 0 0
1971 1 -17.21924302791473 -29.81500699815105 -2.816716660232366 0 0 0
1972 1 -17.21924302791473 -29.81500699815105 -0.3284116836323658 0 0 0
1973 1 -15.78289750371473 -27.78137302215104 -0.3284863326323659 0 0 0
1974 1 -17.93535076146473 -27.78137302215104 0.9157333397676339 0 0 0
1975 1 -17.93535076146473 -27.78137302215104 -1.572571636832365 0 0 0
1976 1 -15.78289750371473 -27.78137302215104 2.159803714167634 0 0 0
1977 1 -17.21924302791473 -29.81500699815105 -5.305021636832366 0 0 0
1978 1 -15.78289750371473 -27.78137302215104 -5.305096285832366 0 0 0
1979 1 -17.93535076146473 -27.78137302215104 -4.060876613432366 0 0 0
1980 1 -17.93535076146473 -27.78137302215104 -6.549171139172365 0 0 0
1981 1 -15.78289750371473 -27.78137302215104 -2.816791309232366 0 0 0
1982 1 -1.43200290441473 -25.74749055715105 4.648004182167634 0 0 0
1983 1 -3.584436790414729 -25.74749055715105 5.892059626767633 0 0 0
1984 1 -3.584436790414729 -25.74749055715105 3.403754650167635 0 0 0
1985 1 -1.43200290441473 -25.74749055715105 7.136309158767634 0 0 0
1986 1 -2.148099014914727 -23.71385658115105 5.892104416167635 0 0 0
1987 1 -1.43200290441473 -25.74749055715105 -0.3285908412323657 0 0 0
1988 1 -3.584436790414729 -25.74749055715105 0.9154496735676343 0 0 0
1989 1 -3.584436790414729 -25.74749055715105 -1.572840373232365 0 0 0
1990 1 -1.43200290441473 -25.74749055715105 2.159699205567634 0 0 0
1991 1 -2.148099014914727 -23.71385658115105 3.403814369367636 0 0 0
1992 1 -2.148099014914727 -23.71385658115105 0.9155093927676354 0 0 0
1993 1 0.004334871085269754 -23.71385658115105 4.648138550367635 0 0 0
1994 1 -0.7117612394147308 -21.68022260515106 5.892328363167636 0 0 0
1995 1 -0.7117612394147308 -21.68022260515106 3.404023386567635 0 0 0
1996 1 -1.43200290441473 -25.74749055715105 -5.305200794432366 0 0 0
1997 1 -3.584436790414729 -25.74749055715105 -4.061145349832366 0 0 0
1998 1 -3.584436790414729 -25.74749055715105 -6.549442861532365 0 0 0
1999 1 -1.43200290441473 -25.74749055715105 -2.816895817832365 0 0 0
2000 1 -2.148099014914727 -23.71385658115105 -1.572795583832366 0 0 0
2001 1 -2.148099014914727 -23.71385658115105 -4.061085630632366 0 0 0
2002 1 -0.7117612394147308 -21.68022260515106 0.915718409967635 0 0 0
2003 1 -0.7117612394147308 -21.68022260515106 -1.572571636832365 0 0 0
2004 1 -2.148099014914727 -23.71385658115105 -6.549390607232366 0 0 0
2005 1 0.004334871085269754 -23.71385658115105 -5.305066426232366 0 0 0
2006 1 -0.7117612394147308 -21.68022260515106 -4.060876613432366 0 0 0
2007 1 -0.7117612394147308 -21.68022260515106 -6.549178604072366 0 0 0
2008 1 -5.73687067641473 -25.74773904615104 7.136144930967635 0 0 0
2009 1 -7.889265818914728 -25.74773904615104 5.891984977767635 0 0 0
2010 1 -5.73687067641473 -25.74773904615104 2.159549907567635 0 0 0
2011 1 -7.889265818914728 -25.74773904615104 3.403680001167634 0 0 0
2012 1 -7.889265818914728 -25.74773904615104 0.9153750245676342 0 0 0
2013 1 -5.73687067641473 -25.74773904615104 4.647854884167634 0 0 0
2014 1 -4.300532900914728 -23.71385658115105 4.647810094767634 0 0 0
2015 1 -6.45292804341473 -23.71410507015105 5.891880469167635 0 0 0
2016 1 -6.45292804341473 -23.71410507015105 3.403575492567635 0 0 0
2017 1 -4.300532900914728 -23.71385658115105 7.136115071367634 0 0 0
2018 1 -2.864195125414732 -21.68022260515106 7.136204650167635 0 0 0
2019 1 -5.016590267914729 -21.68022260515106 5.891835679767635 0 0 0
2020 1 -5.73687067641473 -25.74773904615104 -2.817045115832365 0 0 0
2021 1 -7.889265818914728 -25.74773904615104 -1.572915022232365 0 0 0
2022 1 -7.889265818914728 -25.74773904615104 -4.061219998832366 0 0 0
2023 1 -5.73687067641473 -25.74773904615104 -0.3287550690323657 0 0 0
2024 1 -4.300532900914728 -23.71385658115105 -0.3287849286323663 0 0 0
2025 1 -6.45292804341473 -23.71410507015105 0.9152705159676344 0 0 0
2026 1 -6.45292804341473 -23.71410507015105 -1.573019530832366 0 0 0
2027 1 -4.300532900914728 -23.71385658115105 2.159520047967634 0 0 0
2028 1 -2.864195125414732 -21.68022260515106 2.159609626767633 0 0 0
2029 1 -5.016590267914729 -21.68022260515106 3.403530703167634 0 0 0
2030 1 -5.016590267914729 -21.68022260515106 0.9152406563676347 0 0 0
2031 1 -2.864195125414732 -21.68022260515106 4.647899673567634 0 0 0
2032 1 -1.427818606414732 -19.64658862915104 4.648243058967635 0 0 0
2033 1 -3.580291235914729 -19.64658862915104 5.891984977767635 0 0 0
2034 1 -3.580291235914729 -19.64658862915104 3.403694930967635 0 0 0
2035 1 -1.427818606414732 -19.64658862915104 7.136548035567635 0 0 0
2036 1 -2.143953460414732 -17.61295465315105 5.892537380367633 0 0 0
2037 1 -7.889265818914728 -25.74773904615104 -6.549519003512366 0 0 0
2038 1 -5.73687067641473 -25.74773904615104 -5.305350092432366 0 0 0
2039 1 -4.300532900914728 -23.71385658115105 -5.305379952032366 0 0 0
2040 1 -6.45292804341473 -23.71410507015105 -4.061324507432365 0 0 0
2041 1 -6.45292804341473 -23.71410507015105 -6.549623512112365 0 0 0
2042 1 -4.300532900914728 -23.71385658115105 -2.817089905232366 0 0 0
2043 1 -2.864195125414732 -21.68022260515106 -2.817000326432366 0 0 0
2044 1 -5.016590267914729 -21.68022260515106 -1.573064320232366 0 0 0
2045 1 -5.016590267914729 -21.68022260515106 -4.061369296832366 0 0 0
2046 1 -2.864195125414732 -21.68022260515106 -0.3286953498323655 0 0 0
2047 1 -1.427818606414732 -19.64658862915104 -0.3283519644323656 0 0 0
2048 1 -3.580291235914729 -19.64658862915104 0.9153899543676349 0 0 0
2049 1 -3.580291235914729 -19.64658862915104 -1.572915022232365 0 0 0
2050 1 -1.427818606414732 -19.64658862915104 2.159938082367635 0 0 0
2051 1 -2.143953460414732 -17.61295465315105 3.404247333567634 0 0 0
2052 1 -2.143953460414732 -17.61295465315105 0.9159423569676335 0 0 0
2053 1 -0.7073832239147286 -15.57981765515105 5.893701904767635 0 0 0
2054 1 -0.7073832239147286 -15.57981765515105 3.405396928167635 0 0 0
2055 1 -5.016590267914729 -21.68022260515106 -6.549662329592365 0 0 0
2056 1 -2.864195125414732 -21.68022260515106 -5.305290373232365 0 0 0
2057 1 -1.427818606414732 -19.64658862915104 -5.304961917632365 0 0 0
2058 1 -3.580291235914729 -19.64658862915104 -4.061205069032366 0 0 0
2059 1 -3.580291235914729 -19.64658862915104 -6.549508552652366 0 0 0
2060 1 -1.427818606414732 -19.64658862915104 -2.816656941032366 0 0 0
2061 1 -2.143953460414732 -17.61295465315105 -1.572362619632366 0 0 0
2062 1 -2.143953460414732 -17.61295465315105 -4.060652666432366 0 0 0
2063 1 -0.7073832239147286 -15.57981765515105 0.9170919515676346 0 0 0
2064 1 -0.7073832239147286 -15.57981765515105 -1.571198095232366 0 0 0
2065 1 -2.143953460414732 -17.61295465315105 -6.548959136012366 0 0 0
2066 1 -0.7073832239147286 -15.57981765515105 -4.059503071832365 0 0 0
2067 1 -0.7073832239147286 -15.57981765515105 -6.547802076512366 0 0 0
2068 1 -10.04169970491473 -25.74773904615104 4.647854884167634 0 0 0
2069 1 -12.19413359091473 -25.74773904615104 5.892059626767633 0 0 0
2070 1 -12.19413359091473 -25.74773904615104 3.403754650167635 0 0 0
2071 1 -10.04169970491473 -25.74773904615104 7.136144930967635 0 0 0
2072 1 -8.605361929414729 -23.71410507015105 7.135995632967633 0 0 0
2073 1 -10.75783455891473 -23.71410507015105 5.891880469167635 0 0 0
2074 1 -10.04169970491473 -25.74773904615104 -0.3287550690323657 0 0 0
2075 1 -12.19413359091473 -25.74773904615104 0.9154496735676343 0 0 0
2076 1 -12.19413359091473 -25.74773904615104 -1.572840373232365 0 0 0
2077 1 -10.04169970491473 -25.74773904615104 2.159549907567635 0 0 0
2078 1 -8.605361929414729 -23.71410507015105 2.159400609567633 0 0 0
2079 1 -10.75783455891473 -23.71410507015105 3.403575492567635 0 0 0
2080 1 -10.75783455891473 -23.71410507015105 0.9152705159676344 0 0 0
2081 1 -8.605361929414729 -23.71410507015105 4.647690656367635 0 0 0
2082 1 -7.169024153914728 -21.68047109415105 4.647556288167635 0 0 0
2083 1 -9.321496783414728 -21.68047109415105 5.891656522167633 0 0 0
2084 1 -9.321496783414728 -21.68047109415105 3.403351545567634 0 0 0
2085 1 -7.169024153914728 -21.68047109415105 7.135846334967635 0 0 0
2086 1 -5.73268637841473 -19.64683711815105 7.135801545567634 0 0 0
2087 1 -7.885159007914728 -19.64683711815105 5.891447504967633 0 0 0
2088 1 -10.04169970491473 -25.74773904615104 -5.305350092432366 0 0 0
2089 1 -12.19413359091473 -25.74773904615104 -4.061145349832366 0 0 0
2090 1 -12.19413359091473 -25.74773904615104 -6.549444354512366 0 0 0
2091 1 -10.04169970491473 -25.74773904615104 -2.817045115832365 0 0 0
2092 1 -8.605361929414729 -23.71410507015105 -2.817209343632365 0 0 0
2093 1 -10.75783455891473 -23.71410507015105 -1.573019530832366 0 0 0
2094 1 -10.75783455891473 -23.71410507015105 -4.061324507432365 0 0 0
2095 1 -8.605361929414729 -23.71410507015105 -0.3289043670323659 0 0 0
2096 1 -7.169024153914728 -21.68047109415105 -0.3290536650323652 0 0 0
2097 1 -9.321496783414728 -21.68047109415105 0.9150614987676331 0 0 0
2098 1 -9.321496783414728 -21.68047109415105 -1.573243477832365 0 0 0
2099 1 -7.169024153914728 -21.68047109415105 2.159251311567635 0 0 0
2100 1 -5.73268637841473 -19.64683711815105 2.159206522167633 0 0 0
2101 1 -7.885159007914728 -19.64683711815105 3.403142528367635 0 0 0
2102 1 -7.885159007914728 -19.64683711815105 0.9148375517676346 0 0 0
2103 1 -5.73268637841473 -19.64683711815105 4.647496568967634 0 0 0
2104 1 -4.296387346414731 -17.61295465315105 4.647765305367635 0 0 0
2105 1 -6.448782488914729 -17.61320314215105 5.891387785767634 0 0 0
2106 1 -6.448782488914729 -17.61320314215105 3.403082809167634 0 0 0
2107 1 -4.296387346414731 -17.61295465315105 7.136070281967635 0 0 0
2108 1 -2.86016580141473 -15.57907218815106 7.136966069967634 0 0 0
2109 1 -5.012522200414731 -15.57907218815106 5.891835679767635 0 0 0
2110 1 -10.75783455891473 -23.71410507015105 -6.549623512112365 0 0 0
2111 1 -8.605361929414729 -23.71410507015105 -5.305499390432366 0 0 0
2112 1 -7.169024153914728 -21.68047109415105 -5.305648688432365 0 0 0
2113 1 -9.321496783414728 -21.68047109415105 -4.061548454432366 0 0 0
2114 1 -9.321496783414728 -21.68047109415105 -6.549842980172365 0 0 0
2115 1 -7.169024153914728 -21.68047109415105 -2.817343711832366 0 0 0
2116 1 -5.73268637841473 -19.64683711815105 -2.817403431032366 0 0 0
2117 1 -7.885159007914728 -19.64683711815105 -1.573452495032366 0 0 0
2118 1 -7.885159007914728 -19.64683711815105 -4.061757471632365 0 0 0
2119 1 -5.73268637841473 -19.64683711815105 -0.3290984544323656 0 0 0
2120 1 -4.296387346414731 -17.61295465315105 -0.3288297180323658 0 0 0
2121 1 -6.448782488914729 -17.61320314215105 0.9147927623676342 0 0 0
2122 1 -6.448782488914729 -17.61320314215105 -1.573512214232366 0 0 0
2123 1 -4.296387346414731 -17.61295465315105 2.159460328767635 0 0 0
2124 1 -2.86016580141473 -15.57907218815106 2.160371046567635 0 0 0
2125 1 -5.012522200414731 -15.57907218815106 3.403545632967633 0 0 0
2126 1 -5.012522200414731 -15.57907218815106 0.9152406563676347 0 0 0
2127 1 -2.86016580141473 -15.57907218815106 4.648676023167633 0 0 0
2128 1 -1.423479334414729 -13.54668065715104 4.650542248167636 0 0 0
2129 1 -3.576610603414728 -13.54494123415105 5.893343589567634 0 0 0
2130 1 -3.576610603414728 -13.54494123415105 3.405053542767634 0 0 0
2131 1 -1.423479334414729 -13.54668065715104 7.138847224767634 0 0 0
2132 1 -7.885159007914728 -19.64683711815105 -6.550056476312366 0 0 0
2133 1 -5.73268637841473 -19.64683711815105 -5.305693477832365 0 0 0
2134 1 -4.296387346414731 -17.61295465315105 -5.305439671232365 0 0 0
2135 1 -6.448782488914729 -17.61320314215105 -4.061817190832365 0 0 0
2136 1 -6.448782488914729 -17.61320314215105 -6.550114702532365 0 0 0
2137 1 -4.296387346414731 -17.61295465315105 -2.817134694632366 0 0 0
2138 1 -2.86016580141473 -15.57907218815106 -2.816223976832366 0 0 0
2139 1 -5.012522200414731 -15.57907218815106 -1.573064320232366 0 0 0
2140 1 -5.012522200414731 -15.57907218815106 -4.061354367032365 0 0 0
2141 1 -2.86016580141473 -15.57907218815106 -0.3279339300323656 0 0 0
2142 1 -1.423479334414729 -13.54668065715104 -0.3260527752323661 0 0 0
2143 1 -3.576610603414728 -13.54494123415105 0.9167485661676338 0 0 0
2144 1 -3.576610603414728 -13.54494123415105 -1.571556410432366 0 0 0
2145 1 -1.423479334414729 -13.54668065715104 2.162252201367634 0 0 0
2146 1 -5.012522200414731 -15.57907218815106 -6.549656357672366 0 0 0
2147 1 -2.86016580141473 -15.57907218815106 -5.304528953432365 0 0 0
2148 1 -1.423479334414729 -13.54668065715104 -5.302647798632366 0 0 0
2149 1 -3.576610603414728 -13.54494123415105 -4.059846457232366 0 0 0
2150 1 -3.576610603414728 -13.54494123415105 -6.548151433832365 0 0 0
2151 1 -1.423479334414729 -13.54668065715104 -2.814357751832365 0 0 0
2152 1 -14.34656747691473 -25.74773904615104 7.136279299167635 0 0 0
2153 1 -16.49899748856473 -25.74773904615104 5.892223854567636 0 0 0
2154 1 -14.34656747691473 -25.74773904615104 2.159684275767635 0 0 0
2155 1 -16.49899748856473 -25.74773904615104 3.403918877967635 0 0 0
2156 1 -16.49899748856473 -25.74773904615104 0.9156288311676359 0 0 0
2157 1 -14.34656747691473 -25.74773904615104 4.647989252367633 0 0 0
2158 1 -12.91022970141473 -23.71410507015105 4.647795164967633 0 0 0
2159 1 -15.06266358741473 -23.71410507015105 5.892059626767633 0 0 0
2160 1 -15.06266358741473 -23.71410507015105 3.403754650167635 0 0 0
2161 1 -12.91022970141473 -23.71410507015105 7.136100141567633 0 0 0
2162 1 -11.47393066941473 -21.68047109415105 7.135846334967635 0 0 0
2163 1 -13.62636455541473 -21.68047109415105 5.891805820167635 0 0 0
2164 1 -14.34656747691473 -25.74773904615104 -2.816910747632366 0 0 0
2165 1 -16.49899748856473 -25.74773904615104 -1.572676145432366 0 0 0
2166 1 -16.49899748856473 -25.74773904615104 -4.060981122032365 0 0 0
2167 1 -14.34656747691473 -25.74773904615104 -0.3286207008323654 0 0 0
2168 1 -12.91022970141473 -23.71410507015105 -0.3287998584323653 0 0 0
2169 1 -15.06266358741473 -23.71410507015105 0.9154496735676343 0 0 0
2170 1 -15.06266358741473 -23.71410507015105 -1.572840373232365 0 0 0
2171 1 -12.91022970141473 -23.71410507015105 2.159505118167633 0 0 0
2172 1 -11.47393066941473 -21.68047109415105 2.159251311567635 0 0 0
2173 1 -13.62636455541473 -21.68047109415105 3.403500843567635 0 0 0
2174 1 -13.62636455541473 -21.68047109415105 0.9152107967676351 0 0 0
2175 1 -11.47393066941473 -21.68047109415105 4.647556288167635 0 0 0
2176 1 -10.03763163741473 -19.64683711815105 4.647227832567633 0 0 0
2177 1 -12.19010426691473 -19.64658862915104 5.891447504967633 0 0 0
2178 1 -12.19010426691473 -19.64658862915104 3.403142528367635 0 0 0
2179 1 -10.03763163741473 -19.64683711815105 7.135532809167634 0 0 0
2180 1 -8.601293861914728 -17.61320314215105 7.135204353567634 0 0 0
2181 1 -10.75380523491473 -17.61320314215105 5.890969751367633 0 0 0
2182 1 -16.49899748856473 -25.74773904615104 -6.549275647772366 0 0 0
2183 1 -14.34656747691473 -25.74773904615104 -5.305215724232365 0 0 0
2184 1 -12.91022970141473 -23.71410507015105 -5.305394881832366 0 0 0
2185 1 -15.06266358741473 -23.71410507015105 -4.061145349832366 0 0 0
2186 1 -15.06266358741473 -23.71410507015105 -6.549445847492366 0 0 0
2187 1 -12.91022970141473 -23.71410507015105 -2.817104835032366 0 0 0
2188 1 -11.47393066941473 -21.68047109415105 -2.817343711832366 0 0 0
2189 1 -13.62636455541473 -21.68047109415105 -1.573094179832365 0 0 0
2190 1 -13.62636455541473 -21.68047109415105 -4.061399156432365 0 0 0
2191 1 -11.47393066941473 -21.68047109415105 -0.3290536650323652 0 0 0
2192 1 -10.03763163741473 -19.64683711815105 -0.3293671908323663 0 0 0
2193 1 -12.19010426691473 -19.64658862915104 0.9148524815676335 0 0 0
2194 1 -12.19010426691473 -19.64658862915104 -1.573452495032366 0 0 0
2195 1 -10.03763163741473 -19.64683711815105 2.158922855967633 0 0 0
2196 1 -8.601293861914728 -17.61320314215105 2.158609330167634 0 0 0
2197 1 -10.75380523491473 -17.61320314215105 3.402664774767633 0 0 0
2198 1 -10.75380523491473 -17.61320314215105 0.9143597981676344 0 0 0
2199 1 -8.601293861914728 -17.61320314215105 4.646899376967635 0 0 0
2200 1 -7.164878599414729 -15.57981765515105 4.646839657767634 0 0 0
2201 1 -9.31754494641473 -15.57956916615106 5.890462138167633 0 0 0
2202 1 -9.31754494641473 -15.57956916615106 3.402157161567635 0 0 0
2203 1 -7.164878599414729 -15.57981765515105 7.135129704567634 0 0 0
2204 1 -5.728695797914728 -13.54543821215105 7.135950843567635 0 0 0
2205 1 -7.881013453414729 -13.54668065715104 5.890372559367634 0 0 0
2206 1 -13.62636455541473 -21.68047109415105 -6.549695175152365 0 0 0
2207 1 -11.47393066941473 -21.68047109415105 -5.305648688432365 0 0 0
2208 1 -10.03763163741473 -19.64683711815105 -5.305977144032365 0 0 0
2209 1 -12.19010426691473 -19.64658862915104 -4.061757471632365 0 0 0
2210 1 -12.19010426691473 -19.64658862915104 -6.550051997372366 0 0 0
2211 1 -10.03763163741473 -19.64683711815105 -2.817672167432366 0 0 0
2212 1 -8.601293861914728 -17.61320314215105 -2.818000623032366 0 0 0
2213 1 -10.75380523491473 -17.61320314215105 -1.573930248632365 0 0 0
2214 1 -10.75380523491473 -17.61320314215105 -4.062235225232365 0 0 0
2215 1 -8.601293861914728 -17.61320314215105 -0.3296956464323655 0 0 0
2216 1 -7.164878599414729 -15.57981765515105 -0.3297702954323665 0 0 0
2217 1 -9.31754494641473 -15.57956916615106 0.9138671147676334 0 0 0
2218 1 -9.31754494641473 -15.57956916615106 -1.574437861832366 0 0 0
2219 1 -7.164878599414729 -15.57981765515105 2.158534681167634 0 0 0
2220 1 -5.728695797914728 -13.54543821215105 2.159355820167635 0 0 0
2221 1 -7.881013453414729 -13.54668065715104 3.402067582767634 0 0 0
2222 1 -7.881013453414729 -13.54668065715104 0.9137626061676336 0 0 0
2223 1 -5.728695797914728 -13.54543821215105 4.647645866967634 0 0 0
2224 1 -10.75380523491473 -17.61320314215105 -6.550534229912365 0 0 0
2225 1 -8.601293861914728 -17.61320314215105 -5.306290669832366 0 0 0
2226 1 -7.164878599414729 -15.57981765515105 -5.306365318832365 0 0 0
2227 1 -9.31754494641473 -15.57956916615106 -4.062742838432365 0 0 0
2228 1 -9.31754494641473 -15.57956916615106 -6.551040350132366 0 0 0
2229 1 -7.164878599414729 -15.57981765515105 -2.818060342232366 0 0 0
2230 1 -5.728695797914728 -13.54543821215105 -2.817254133032366 0 0 0
2231 1 -7.881013453414729 -13.54668065715104 -1.574527440632365 0 0 0
2232 1 -7.881013453414729 -13.54668065715104 -4.062832417232366 0 0 0
2233 1 -5.728695797914728 -13.54543821215105 -0.3289491564323654 0 0 0
2234 1 -7.881013453414729 -13.54668065715104 -6.551129928932366 0 0 0
2235 1 -5.728695797914728 -13.54543821215105 -5.305544179832365 0 0 0
2236 1 -18.65146236936473 -25.74773904615104 4.648168409967635 0 0 0
2237 1 -18.65146236936473 -25.74773904615104 7.136473386567635 0 0 0
2238 1 -17.21510134776473 -23.71410507015105 7.136324088567635 0 0 0
2239 1 -18.65146236936473 -25.74773904615104 -0.3284266134323657 0 0 0
2240 1 -18.65146236936473 -25.74773904615104 2.159878363167635 0 0 0
2241 1 -17.21510134776473 -23.71410507015105 2.159729065167634 0 0 0
2242 1 -17.21510134776473 -23.71410507015105 4.648019111967635 0 0 0
2243 1 -15.77874420051473 -21.68071958315106 4.647795164967633 0 0 0
2244 1 -17.93121295566473 -21.68071958315106 5.892104416167635 0 0 0
2245 1 -17.93121295566473 -21.68071958315106 3.403814369367636 0 0 0
2246 1 -15.77874420051473 -21.68071958315106 7.136100141567633 0 0 0
2247 1 -14.34246066591473 -19.64683711815105 7.135756756167634 0 0 0
2248 1 -16.49483256231473 -19.64708560715104 5.891805820167635 0 0 0
2249 1 -18.65146236936473 -25.74773904615104 -5.305021636832366 0 0 0
2250 1 -18.65146236936473 -25.74773904615104 -2.816731590032366 0 0 0
2251 1 -17.21510134776473 -23.71410507015105 -2.816880888032366 0 0 0
2252 1 -17.21510134776473 -23.71410507015105 -0.3285759114323659 0 0 0
2253 1 -15.77874420051473 -21.68071958315106 -0.3287998584323653 0 0 0
2254 1 -17.93121295566473 -21.68071958315106 0.9155093927676354 0 0 0
2255 1 -17.93121295566473 -21.68071958315106 -1.572795583832366 0 0 0
2256 1 -15.77874420051473 -21.68071958315106 2.159490188367634 0 0 0
2257 1 -14.34246066591473 -19.64683711815105 2.159161732767634 0 0 0
2258 1 -16.49483256231473 -19.64708560715104 3.403500843567635 0 0 0
2259 1 -16.49483256231473 -19.64708560715104 0.9152107967676351 0 0 0
2260 1 -14.34246066591473 -19.64683711815105 4.647451779567634 0 0 0
2261 1 -12.90627786441473 -17.61295465315105 4.646944166367634 0 0 0
2262 1 -15.05859551991473 -17.61320314215105 5.891342996367635 0 0 0
2263 1 -15.05859551991473 -17.61320314215105 3.403038019767635 0 0 0
2264 1 -12.90627786441473 -17.61295465315105 7.135234213167633 0 0 0
2265 1 -11.47001757591473 -15.57956916615106 7.134487723167634 0 0 0
2266 1 -13.62256769241473 -15.57907218815106 5.890566646767633 0 0 0
2267 1 -17.21510134776473 -23.71410507015105 -5.305170934832366 0 0 0
2268 1 -15.77874420051473 -21.68071958315106 -5.305409811632366 0 0 0
2269 1 -17.93121295566473 -21.68071958315106 -4.061085630632366 0 0 0
2270 1 -17.93121295566473 -21.68071958315106 -6.549393593192366 0 0 0
2271 1 -15.77874420051473 -21.68071958315106 -2.817104835032366 0 0 0
2272 1 -14.34246066591473 -19.64683711815105 -2.817448220432365 0 0 0
2273 1 -16.49483256231473 -19.64708560715104 -1.573094179832365 0 0 0
2274 1 -16.49483256231473 -19.64708560715104 -4.061399156432365 0 0 0
2275 1 -14.34246066591473 -19.64683711815105 -0.3291432438323652 0 0 0
2276 1 -12.90627786441473 -17.61295465315105 -0.3296657868323658 0 0 0
2277 1 -15.05859551991473 -17.61320314215105 0.9147330431676348 0 0 0
2278 1 -15.05859551991473 -17.61320314215105 -1.573557003632366 0 0 0
2279 1 -12.90627786441473 -17.61295465315105 2.158639189767634 0 0 0
2280 1 -11.47001757591473 -15.57956916615106 2.157877769967635 0 0 0
2281 1 -13.62256769241473 -15.57907218815106 3.402261670167633 0 0 0
2282 1 -13.62256769241473 -15.57907218815106 0.9139566935676342 0 0 0
2283 1 -11.47001757591473 -15.57956916615106 4.646182746567634 0 0 0
2284 1 -10.03391226141473 -13.54593519015106 4.645361607567635 0 0 0
2285 1 -12.18634614741473 -13.54593519015106 5.889312543567634 0 0 0
2286 1 -12.18634614741473 -13.54593519015106 3.401022496767634 0 0 0
2287 1 -10.03391226141473 -13.54593519015106 7.133666584167635 0 0 0
2288 1 -16.49483256231473 -19.64708560715104 -6.549695175152365 0 0 0
2289 1 -14.34246066591473 -19.64683711815105 -5.305738267232366 0 0 0
2290 1 -12.90627786441473 -17.61295465315105 -5.306260810232367 0 0 0
2291 1 -15.05859551991473 -17.61320314215105 -4.061861980232366 0 0 0
2292 1 -15.05859551991473 -17.61320314215105 -6.550163970872366 0 0 0
2293 1 -12.90627786441473 -17.61295465315105 -2.817955833632366 0 0 0
2294 1 -11.47001757591473 -15.57956916615106 -2.818717253432365 0 0 0
2295 1 -13.62256769241473 -15.57907218815106 -1.574333353232365 0 0 0
2296 1 -13.62256769241473 -15.57907218815106 -4.062638329832366 0 0 0
2297 1 -11.47001757591473 -15.57956916615106 -0.3304122768323658 0 0 0
2298 1 -10.03391226141473 -13.54593519015106 -0.331233415832366 0 0 0
2299 1 -12.18634614741473 -13.54593519015106 0.9127175201676341 0 0 0
2300 1 -12.18634614741473 -13.54593519015106 -1.575587456432366 0 0 0
2301 1 -10.03391226141473 -13.54593519015106 2.157056630967634 0 0 0
2302 1 -13.62256769241473 -15.57907218815106 -6.550940320472366 0 0 0
2303 1 -11.47001757591473 -15.57956916615106 -5.307022230032366 0 0 0
2304 1 -10.03391226141473 -13.54593519015106 -5.307843369032366 0 0 0
2305 1 -12.18634614741473 -13.54593519015106 -4.063877503232366 0 0 0
2306 1 -12.18634614741473 -13.54593519015106 -6.552180986852366 0 0 0
2307 1 -10.03391226141473 -13.54593519015106 -2.819538392432366 0 0 0
2308 1 -18.64734006096473 -19.64708560715104 4.647869813967635 0 0 0
2309 1 -18.64734006096473 -19.64708560715104 7.136159860767634 0 0 0
2310 1 -17.21090155236473 -17.61370012015105 7.135786615767636 0 0 0
2311 1 -18.64734006096473 -19.64708560715104 -0.328740139232365 0 0 0
2312 1 -18.64734006096473 -19.64708560715104 2.159564837367634 0 0 0
2313 1 -17.21090155236473 -17.61370012015105 2.159176662567635 0 0 0
2314 1 -17.21090155236473 -17.61370012015105 4.647481639167635 0 0 0
2315 1 -15.77469550476473 -15.57956916615106 4.646824727967633 0 0 0
2316 1 -17.92692405021473 -15.58056312215106 5.891432575167634 0 0 0
2317 1 -17.92692405021473 -15.58056312215106 3.403142528367635 0 0 0
2318 1 -15.77469550476473 -15.57956916615106 7.135129704567634 0 0 0
2319 1 -14.33901249441473 -13.54469274515105 7.133920390767635 0 0 0
2320 1 -16.49070250521473 -13.54618367915106 5.890491997767635 0 0 0
2321 1 -18.64734006096473 -19.64708560715104 -5.305335162632366 0 0 0
2322 1 -18.64734006096473 -19.64708560715104 -2.817030186032366 0 0 0
2323 1 -17.21090155236473 -17.61370012015105 -2.817418360832366 0 0 0
2324 1 -17.21090155236473 -17.61370012015105 -0.3291133842323655 0 0 0
2325 1 -15.77469550476473 -15.57956916615106 -0.3297702954323665 0 0 0
2326 1 -17.92692405021473 -15.58056312215106 0.9148375517676346 0 0 0
2327 1 -17.92692405021473 -15.58056312215106 -1.573467424832366 0 0 0
2328 1 -15.77469550476473 -15.57956916615106 2.158534681167634 0 0 0
2329 1 -14.33901249441473 -13.54469274515105 2.157310437567634 0 0 0
2330 1 -16.49070250521473 -13.54618367915106 3.402201950967635 0 0 0
2331 1 -16.49070250521473 -13.54618367915106 0.9138969743676348 0 0 0
2332 1 -14.33901249441473 -13.54469274515105 4.645615414167635 0 0 0
2333 1 -17.21090155236473 -17.61370012015105 -5.305723337432365 0 0 0
2334 1 -15.77469550476473 -15.57956916615106 -5.306365318832365 0 0 0
2335 1 -17.92692405021473 -15.58056312215106 -4.061757471632365 0 0 0
2336 1 -17.92692405021473 -15.58056312215106 -6.550063941212366 0 0 0
2337 1 -15.77469550476473 -15.57956916615106 -2.818075272032365 0 0 0
2338 1 -14.33901249441473 -13.54469274515105 -2.819284585832365 0 0 0
2339 1 -16.49070250521473 -13.54618367915106 -1.574408002232366 0 0 0
2340 1 -16.49070250521473 -13.54618367915106 -4.062698049032366 0 0 0
2341 1 -14.33901249441473 -13.54469274515105 -0.330979609232366 0 0 0
2342 1 -16.49070250521473 -13.54618367915106 -6.551001532652366 0 0 0
2343 1 -14.33901249441473 -13.54469274515105 -5.307589562432366 0 0 0
2344 1 -18.64284581496473 -13.54792310215105 4.647123323967634 0 0 0
2345 1 -18.64284581496473 -13.54792310215105 7.135413370767633 0 0 0
2346 1 -18.64284581496473 -13.54792310215105 -0.329486629232365 0 0 0
2347 1 -18.64284581496473 -13.54792310215105 2.158818347367633 0 0 0
2348 1 -18.64284581496473 -13.54792310215105 -5.306081652632366 0 0 0
2349 1 -18.64284581496473 -13.54792310215105 -2.817776676032366 0 0 0
2350 1 -2.139691675414731 -11.51354365915105 5.896463917767635 0 0 0
2351 1 0.01301341508527187 -11.51304668115105 2.164775337567635 0 0 0
2352 1 -2.139691675414731 -11.51354365915105 3.408173870967634 0 0 0
2353 1 -2.139691675414731 -11.51354365915105 0.9198688943676352 0 0 0
2354 1 -0.7035863609147306 -9.479661194151049 5.900121718767634 0 0 0
2355 1 -0.7035863609147306 -9.479661194151049 3.411831671967633 0 0 0
2356 1 0.01301341508527187 -11.51304668115105 -2.811834615632366 0 0 0
2357 1 -2.139691675414731 -11.51354365915105 -1.568436082232366 0 0 0
2358 1 -2.139691675414731 -11.51354365915105 -4.056726129032366 0 0 0
2359 1 -0.7035863609147306 -9.479661194151049 0.9235266953676344 0 0 0
2360 1 -0.7035863609147306 -9.479661194151049 -1.564778281232366 0 0 0
2361 1 -2.139691675414731 -11.51354365915105 -6.545031105632366 0 0 0
2362 1 -0.7035863609147306 -9.479661194151049 -4.053068328032365 0 0 0
2363 1 -0.7035863609147306 -9.479661194151049 -6.541373304632366 0 0 0
2364 1 -4.293520327414729 -11.50981632415106 4.650198862767635 0 0 0
2365 1 -6.44479190841473 -11.51230121415104 5.891895398967634 0 0 0
2366 1 -6.44479190841473 -11.51230121415104 3.403590422367634 0 0 0
2367 1 -4.293520327414729 -11.50981632415106 7.138488909567634 0 0 0
2368 1 -2.856058990414727 -9.481400617151053 7.143863637567636 0 0 0
2369 1 -5.011398638914731 -9.472951991151049 5.896180251567634 0 0 0
2370 1 -4.293520327414729 -11.50981632415106 -0.3264110904323658 0 0 0
2371 1 -6.44479190841473 -11.51230121415104 0.9153003755676341 0 0 0
2372 1 -6.44479190841473 -11.51230121415104 -1.573004601032365 0 0 0
2373 1 -4.293520327414729 -11.50981632415106 2.161893886167634 0 0 0
2374 1 -2.856058990414727 -9.481400617151053 2.167268614167636 0 0 0
2375 1 -5.011398638914731 -9.472951991151049 3.407875274967635 0 0 0
2376 1 -5.011398638914731 -9.472951991151049 0.9195852281676338 0 0 0
2377 1 -2.856058990414727 -9.481400617151053 4.655558660967635 0 0 0
2378 1 -1.420922263414731 -7.445778729151058 4.660321267167634 0 0 0
2379 1 -3.572271331414729 -7.451245487151041 5.905959270567633 0 0 0
2380 1 -3.572271331414729 -7.451245487151041 3.417654293967633 0 0 0
2381 1 -1.420922263414731 -7.445778729151058 7.148611313967633 0 0 0
2382 1 0.01212231458526958 -5.413387198151057 7.151970518967634 0 0 0
2383 1 -2.138258165914731 -5.411399286151052 5.909632001367635 0 0 0
2384 1 -4.293520327414729 -11.50981632415106 -5.303006113832366 0 0 0
2385 1 -6.44479190841473 -11.51230121415104 -4.061309577632366 0 0 0
2386 1 -6.44479190841473 -11.51230121415104 -6.549604103372365 0 0 0
2387 1 -4.293520327414729 -11.50981632415106 -2.814701137232365 0 0 0
2388 1 -2.856058990414727 -9.481400617151053 -2.809341339032366 0 0 0
2389 1 -5.011398638914731 -9.472951991151049 -1.568719748432366 0 0 0
2390 1 -5.011398638914731 -9.472951991151049 -4.057024725032366 0 0 0
2391 1 -2.856058990414727 -9.481400617151053 -0.3210363624323662 0 0 0
2392 1 -1.420922263414731 -7.445778729151058 -0.3162886860323653 0 0 0
2393 1 -3.572271331414729 -7.451245487151041 0.9293493173676346 0 0 0
2394 1 -3.572271331414729 -7.451245487151041 -1.558940729432366 0 0 0
2395 1 -1.420922263414731 -7.445778729151058 2.172016290567633 0 0 0
2396 1 -2.138258165914731 -5.411399286151052 3.421341954567634 0 0 0
2397 1 -2.138258165914731 -5.411399286151052 0.9330369779676353 0 0 0
2398 1 -0.7146670019147301 -3.362110503151044 5.920709912967634 0 0 0
2399 1 -0.7146670019147301 -3.362110503151044 3.432404936367636 0 0 0
2400 1 -5.011398638914731 -9.472951991151049 -6.545320743752366 0 0 0
2401 1 -2.856058990414727 -9.481400617151053 -5.297631385832366 0 0 0
2402 1 -1.420922263414731 -7.445778729151058 -5.292883709432366 0 0 0
2403 1 -3.572271331414729 -7.451245487151041 -4.047245706032365 0 0 0
2404 1 -3.572271331414729 -7.451245487151041 -6.535544710712366 0 0 0
2405 1 -1.420922263414731 -7.445778729151058 -2.804578732832366 0 0 0
2406 1 -2.138258165914731 -5.411399286151052 -1.555267998632366 0 0 0
2407 1 -2.138258165914731 -5.411399286151052 -4.043558045432366 0 0 0
2408 1 -0.7146670019147301 -3.362110503151044 0.9440999597676356 0 0 0
2409 1 -0.7146670019147301 -3.362110503151044 -1.544190087032366 0 0 0
2410 1 -2.138258165914731 -5.411399286151052 -6.531861529052366 0 0 0
2411 1 -0.7146670019147301 -3.362110503151044 -4.032495063632366 0 0 0
2412 1 -0.7146670019147301 -3.362110503151044 -6.520795561292366 0 0 0
2413 1 -8.597225794414729 -11.51379214815104 7.133547145767634 0 0 0
2414 1 -10.75066701141473 -11.51180423615105 5.887983791367635 0 0 0
2415 1 -8.597225794414729 -11.51379214815104 2.156952122367635 0 0 0
2416 1 -10.75066701141473 -11.51180423615105 3.399678814767634 0 0 0
2417 1 -10.75066701141473 -11.51180423615105 0.9113887679676349 0 0 0
2418 1 -8.597225794414729 -11.51379214815104 4.645257098967635 0 0 0
2419 1 -7.160345609914728 -9.48015817215105 4.648257988767634 0 0 0
2420 1 -9.31382557041473 -9.48189759515104 5.887789703967636 0 0 0
2421 1 -9.31382557041473 -9.48189759515104 3.399499657167635 0 0 0
2422 1 -7.160345609914728 -9.48015817215105 7.136562965367634 0 0 0
2423 1 -5.730555485914728 -7.430869389151056 7.143565041567635 0 0 0
2424 1 -7.875163184914729 -7.452239443151043 5.894149798767634 0 0 0
2425 1 -8.597225794414729 -11.51379214815104 -2.819642901032366 0 0 0
2426 1 -10.75066701141473 -11.51180423615105 -1.576916208632366 0 0 0
2427 1 -10.75066701141473 -11.51180423615105 -4.065221185232366 0 0 0
2428 1 -8.597225794414729 -11.51379214815104 -0.3313528542323656 0 0 0
2429 1 -7.160345609914728 -9.48015817215105 -0.3283370346323657 0 0 0
2430 1 -9.31382557041473 -9.48189759515104 0.9111946805676343 0 0 0
2431 1 -9.31382557041473 -9.48189759515104 -1.577110296032366 0 0 0
2432 1 -7.160345609914728 -9.48015817215105 2.159953012167636 0 0 0
2433 1 -5.730555485914728 -7.430869389151056 2.166970018167635 0 0 0
2434 1 -7.875163184914729 -7.452239443151043 3.405844822167634 0 0 0
2435 1 -7.875163184914729 -7.452239443151043 0.9175547753676341 0 0 0
2436 1 -5.730555485914728 -7.430869389151056 4.655274994767636 0 0 0
2437 1 -4.283834452414728 -5.423326758151049 4.674877822167636 0 0 0
2438 1 -6.456918623914728 -5.380586650151045 5.904361781967634 0 0 0
2439 1 -6.456918623914728 -5.380586650151045 3.416071735167634 0 0 0
2440 1 -4.283834452414728 -5.423326758151049 7.163182798767636 0 0 0
2441 1 -2.839631746414728 -3.364595393151049 7.152926026167634 0 0 0
2442 1 -5.001402815914728 -3.417026572151045 5.949823022967633 0 0 0
2443 1 -10.75066701141473 -11.51180423615105 -6.553517203952365 0 0 0
2444 1 -8.597225794414729 -11.51379214815104 -5.307947877632365 0 0 0
2445 1 -7.160345609914728 -9.48015817215105 -5.304946987832366 0 0 0
2446 1 -9.31382557041473 -9.48189759515104 -4.065400342832366 0 0 0
2447 1 -9.31382557041473 -9.48189759515104 -6.553703826452366 0 0 0
2448 1 -7.160345609914728 -9.48015817215105 -2.816642011232366 0 0 0
2449 1 -5.730555485914728 -7.430869389151056 -2.809625005232366 0 0 0
2450 1 -7.875163184914729 -7.452239443151043 -1.570750201232366 0 0 0
2451 1 -7.875163184914729 -7.452239443151043 -4.059055177832366 0 0 0
2452 1 -5.730555485914728 -7.430869389151056 -0.3213349584323657 0 0 0
2453 1 -4.283834452414728 -5.423326758151049 -0.3017172012323659 0 0 0
2454 1 -6.456918623914728 -5.380586650151045 0.9277667585676337 0 0 0
2455 1 -6.456918623914728 -5.380586650151045 -1.560538218032366 0 0 0
2456 1 -4.283834452414728 -5.423326758151049 2.186587775367634 0 0 0
2457 1 -2.839631746414728 -3.364595393151049 2.176331002767634 0 0 0
2458 1 -5.001402815914728 -3.417026572151045 3.461518046367633 0 0 0
2459 1 -5.001402815914728 -3.417026572151045 0.9732279995676336 0 0 0
2460 1 -2.839631746414728 -3.364595393151049 4.664621049567636 0 0 0
2461 1 -1.352113807414732 -1.219886834151055 4.710560044167636 0 0 0
2462 1 -3.567350906914729 -1.367240811151049 5.846464017567635 0 0 0
2463 1 -3.567350906914729 -1.367240811151049 3.358159040967635 0 0 0
2464 1 -1.352113807414732 -1.219886834151055 7.198865020767634 0 0 0
2465 1 -7.875163184914729 -7.452239443151043 -6.547348210592366 0 0 0
2466 1 -5.730555485914728 -7.430869389151056 -5.297929981832366 0 0 0
2467 1 -4.283834452414728 -5.423326758151049 -5.278312224632366 0 0 0
2468 1 -6.456918623914728 -5.380586650151045 -4.048828264832366 0 0 0
2469 1 -6.456918623914728 -5.380586650151045 -6.537131748452365 0 0 0
2470 1 -4.283834452414728 -5.423326758151049 -2.790022177832366 0 0 0
2471 1 -2.839631746414728 -3.364595393151049 -2.800278950432366 0 0 0
2472 1 -5.001402815914728 -3.417026572151045 -1.515076977032366 0 0 0
2473 1 -5.001402815914728 -3.417026572151045 -4.003381953632365 0 0 0
2474 1 -2.839631746414728 -3.364595393151049 -0.3119739738323659 0 0 0
2475 1 -1.352113807414732 -1.219886834151055 -0.2660349792323657 0 0 0
2476 1 -3.567350906914729 -1.367240811151049 0.8698540643676349 0 0 0
2477 1 -3.567350906914729 -1.367240811151049 -1.618435982432366 0 0 0
2478 1 -1.352113807414732 -1.219886834151055 2.222269997367633 0 0 0
2479 1 -5.001402815914728 -3.417026572151045 -6.491677972352366 0 0 0
2480 1 -2.839631746414728 -3.364595393151049 -5.288568997232366 0 0 0
2481 1 -1.352113807414732 -1.219886834151055 -5.242630002632366 0 0 0
2482 1 -3.567350906914729 -1.367240811151049 -4.106740959032366 0 0 0
2483 1 -3.567350906914729 -1.367240811151049 -6.595039963712366 0 0 0
2484 1 -1.352113807414732 -1.219886834151055 -2.754339955832366 0 0 0
2485 1 -12.90267471891473 -11.51230121415104 4.643480452767633 0 0 0
2486 1 -15.05565101391473 -11.50981632415106 5.888521264167634 0 0 0
2487 1 -15.05565101391473 -11.50981632415106 3.400231217367635 0 0 0
2488 1 -12.90267471891473 -11.51230121415104 7.131785429367634 0 0 0
2489 1 -11.46800291391473 -9.476679326151043 7.129650467967634 0 0 0
2490 1 -13.61861585541473 -9.479412705151049 5.884669375767634 0 0 0
2491 1 -12.90267471891473 -11.51230121415104 -0.3331145706323664 0 0 0
2492 1 -15.05565101391473 -11.50981632415106 0.9119262407676345 0 0 0
2493 1 -15.05565101391473 -11.50981632415106 -1.576378735832366 0 0 0
2494 1 -12.90267471891473 -11.51230121415104 2.155175476167633 0 0 0
2495 1 -11.46800291391473 -9.476679326151043 2.153040514767634 0 0 0
2496 1 -13.61861585541473 -9.479412705151049 3.396379328967635 0 0 0
2497 1 -13.61861585541473 -9.479412705151049 0.9080743523676347 0 0 0
2498 1 -11.46800291391473 -9.476679326151043 4.641345491367634 0 0 0
2499 1 -10.03116147291473 -7.449754553151053 4.640718439767634 0 0 0
2500 1 -12.18588122541473 -7.438821037151044 5.881623696567635 0 0 0
2501 1 -12.18588122541473 -7.438821037151044 3.393318719967635 0 0 0
2502 1 -10.03116147291473 -7.449754553151053 7.129023416367634 0 0 0
2503 1 -8.586261383914728 -5.43276934015104 7.143848707767635 0 0 0
2504 1 -10.74965968041473 -5.41487813215106 5.878488438567635 0 0 0
2505 1 -12.90267471891473 -11.51230121415104 -5.309724523832365 0 0 0
2506 1 -15.05565101391473 -11.50981632415106 -4.064668782632365 0 0 0
2507 1 -15.05565101391473 -11.50981632415106 -6.552972266252366 0 0 0
2508 1 -12.90267471891473 -11.51230121415104 -2.821419547232366 0 0 0
2509 1 -11.46800291391473 -9.476679326151043 -2.823554508632365 0 0 0
2510 1 -13.61861585541473 -9.479412705151049 -1.580230624232366 0 0 0
2511 1 -13.61861585541473 -9.479412705151049 -4.068520671032365 0 0 0
2512 1 -11.46800291391473 -9.476679326151043 -0.335249532032365 0 0 0
2513 1 -10.03116147291473 -7.449754553151053 -0.3358765836323663 0 0 0
2514 1 -12.18588122541473 -7.438821037151044 0.9050137433676344 0 0 0
2515 1 -12.18588122541473 -7.438821037151044 -1.583276303432366 0 0 0
2516 1 -10.03116147291473 -7.449754553151053 2.152413463167633 0 0 0
2517 1 -8.586261383914728 -5.43276934015104 2.167253684367635 0 0 0
2518 1 -10.74965968041473 -5.41487813215106 3.390183461967634 0 0 0
2519 1 -10.74965968041473 -5.41487813215106 0.901878485367634 0 0 0
2520 1 -8.586261383914728 -5.43276934015104 4.655543731167635 0 0 0
2521 1 -7.187311085914729 -3.290545671151051 4.667144185767635 0 0 0
2522 1 -9.287170042414729 -3.433923824151051 5.918067338367633 0 0 0
2523 1 -9.287170042414729 -3.433923824151051 3.429777291567634 0 0 0
2524 1 -7.187311085914729 -3.290545671151051 7.155449162367635 0 0 0
2525 1 -5.704481110414729 -1.409235452151052 7.263794720967635 0 0 0
2526 1 -7.896084674914729 -1.113036564151045 5.896030953567635 0 0 0
2527 1 -13.61861585541473 -9.479412705151049 -6.556825647632365 0 0 0
2528 1 -11.46800291391473 -9.476679326151043 -5.311859485232366 0 0 0
2529 1 -10.03116147291473 -7.449754553151053 -5.312486536832366 0 0 0
2530 1 -12.18588122541473 -7.438821037151044 -4.071581280032365 0 0 0
2531 1 -12.18588122541473 -7.438821037151044 -6.559883270672366 0 0 0
2532 1 -10.03116147291473 -7.449754553151053 -2.824181560232367 0 0 0
2533 1 -8.586261383914728 -5.43276934015104 -2.809356268832365 0 0 0
2534 1 -10.74965968041473 -5.41487813215106 -1.586411561432366 0 0 0
2535 1 -10.74965968041473 -5.41487813215106 -4.074716538032366 0 0 0
2536 1 -8.586261383914728 -5.43276934015104 -0.3210512922323661 0 0 0
2537 1 -7.187311085914729 -3.290545671151051 -0.3094508376323661 0 0 0
2538 1 -9.287170042414729 -3.433923824151051 0.9414723149676334 0 0 0
2539 1 -9.287170042414729 -3.433923824151051 -1.546832661632365 0 0 0
2540 1 -7.187311085914729 -3.290545671151051 2.178854138967635 0 0 0
2541 1 -5.704481110414729 -1.409235452151052 2.287184767767634 0 0 0
2542 1 -7.896084674914729 -1.113036564151045 3.407725976967635 0 0 0
2543 1 -7.896084674914729 -1.113036564151045 0.9194210003676346 0 0 0
2544 1 -5.704481110414729 -1.409235452151052 4.775489744367635 0 0 0
2545 1 -10.74965968041473 -5.41487813215106 -6.563018528672366 0 0 0
2546 1 -8.586261383914728 -5.43276934015104 -5.297646315632365 0 0 0
2547 1 -7.187311085914729 -3.290545671151051 -5.286045861032365 0 0 0
2548 1 -9.287170042414729 -3.433923824151051 -4.035122708432366 0 0 0
2549 1 -9.287170042414729 -3.433923824151051 -6.523429178012366 0 0 0
2550 1 -7.187311085914729 -3.290545671151051 -2.797755814232366 0 0 0
2551 1 -5.704481110414729 -1.409235452151052 -2.689410255632366 0 0 0
2552 1 -7.896084674914729 -1.113036564151045 -1.568869046432366 0 0 0
2553 1 -7.896084674914729 -1.113036564151045 -4.057174023032365 0 0 0
2554 1 -5.704481110414729 -1.409235452151052 -0.2011052790323662 0 0 0
2555 1 -7.896084674914729 -1.113036564151045 -6.545476013672365 0 0 0
2556 1 -5.704481110414729 -1.409235452151052 -5.177715232232366 0 0 0
2557 1 -17.20643442681473 -11.51329517015104 7.133980109967634 0 0 0
2558 1 -17.20643442681473 -11.51329517015104 2.157385086567635 0 0 0
2559 1 -17.20643442681473 -11.51329517015104 4.645690063167635 0 0 0
2560 1 -15.77285131416473 -9.47320048015105 4.642375647567633 0 0 0
2561 1 -17.92130236836473 -9.481649106151053 5.888819860167635 0 0 0
2562 1 -17.92130236836473 -9.481649106151053 3.400514883567634 0 0 0
2563 1 -15.77285131416473 -9.47320048015105 7.130680624167633 0 0 0
2564 1 -14.33354966091473 -7.449257575151051 7.123320232767634 0 0 0
2565 1 -16.49087297661473 -7.431863345151058 5.883280904367634 0 0 0
2566 1 -17.20643442681473 -11.51329517015104 -2.819209936832365 0 0 0
2567 1 -17.20643442681473 -11.51329517015104 -0.3309198900323658 0 0 0
2568 1 -15.77285131416473 -9.47320048015105 -0.3342193758323653 0 0 0
2569 1 -17.92130236836473 -9.481649106151053 0.9122099069676342 0 0 0
2570 1 -17.92130236836473 -9.481649106151053 -1.576080139832366 0 0 0
2571 1 -15.77285131416473 -9.47320048015105 2.154085600767633 0 0 0
2572 1 -14.33354966091473 -7.449257575151051 2.146725209367634 0 0 0
2573 1 -16.49087297661473 -7.431863345151058 3.394975927767634 0 0 0
2574 1 -16.49087297661473 -7.431863345151058 0.9066709511676336 0 0 0
2575 1 -14.33354966091473 -7.449257575151051 4.635015256167634 0 0 0
2576 1 -12.90399199791473 -5.39673843515105 4.632372681567634 0 0 0
2577 1 -15.04224576291473 -5.423575247151049 5.868052508367635 0 0 0
2578 1 -15.04224576291473 -5.423575247151049 3.379747531767634 0 0 0
2579 1 -12.90399199791473 -5.39673843515105 7.120677658167635 0 0 0
2580 1 -11.47160605941473 -3.369316684151045 7.105285034367634 0 0 0
2581 1 -13.60567552641473 -3.333534268151041 5.874606690567633 0 0 0
2582 1 -17.20643442681473 -11.51329517015104 -5.307514913432366 0 0 0
2583 1 -15.77285131416473 -9.47320048015105 -5.310814399232366 0 0 0
2584 1 -17.92130236836473 -9.481649106151053 -4.064385116432366 0 0 0
2585 1 -17.92130236836473 -9.481649106151053 -6.552687107072366 0 0 0
2586 1 -15.77285131416473 -9.47320048015105 -2.822524352432366 0 0 0
2587 1 -14.33354966091473 -7.449257575151051 -2.829884743832366 0 0 0
2588 1 -16.49087297661473 -7.431863345151058 -1.581619095632365 0 0 0
2589 1 -16.49087297661473 -7.431863345151058 -4.069924072232365 0 0 0
2590 1 -14.33354966091473 -7.449257575151051 -0.3415797672323659 0 0 0
2591 1 -12.90399199791473 -5.39673843515105 -0.3442223418323653 0 0 0
2592 1 -15.04224576291473 -5.423575247151049 0.8914574849676349 0 0 0
2593 1 -15.04224576291473 -5.423575247151049 -1.596847491632365 0 0 0
2594 1 -12.90399199791473 -5.39673843515105 2.144082634767635 0 0 0
2595 1 -11.47160605941473 -3.369316684151045 2.128690010967635 0 0 0
2596 1 -13.60567552641473 -3.333534268151041 3.386316643767634 0 0 0
2597 1 -13.60567552641473 -3.333534268151041 0.8980116671676335 0 0 0
2598 1 -11.47160605941473 -3.369316684151045 4.616994987567635 0 0 0
2599 1 -9.980794922914729 -1.492976245151041 4.738628068167635 0 0 0
2600 1 -12.10521725841473 -1.243990267151048 5.819291781567635 0 0 0
2601 1 -12.10521725841473 -1.243990267151048 3.331001734767634 0 0 0
2602 1 -9.980794922914729 -1.492976245151041 7.226933044767636 0 0 0
2603 1 -16.49087297661473 -7.431863345151058 -6.558223076912366 0 0 0
2604 1 -14.33354966091473 -7.449257575151051 -5.318174790632366 0 0 0
2605 1 -12.90399199791473 -5.39673843515105 -5.320817365232366 0 0 0
2606 1 -15.04224576291473 -5.423575247151049 -4.085152468232366 0 0 0
2607 1 -15.04224576291473 -5.423575247151049 -6.573445500992365 0 0 0
2608 1 -12.90399199791473 -5.39673843515105 -2.832527318432366 0 0 0
2609 1 -11.47160605941473 -3.369316684151045 -2.847905012432365 0 0 0
2610 1 -13.60567552641473 -3.333534268151041 -1.590293309432365 0 0 0
2611 1 -13.60567552641473 -3.333534268151041 -4.078583356232366 0 0 0
2612 1 -11.47160605941473 -3.369316684151045 -0.3596149656323657 0 0 0
2613 1 -9.980794922914729 -1.492976245151041 -0.2379669552323662 0 0 0
2614 1 -12.10521725841473 -1.243990267151048 0.8426967581676355 0 0 0
2615 1 -12.10521725841473 -1.243990267151048 -1.645608218432366 0 0 0
2616 1 -9.980794922914729 -1.492976245151041 2.250338021367636 0 0 0
2617 1 -13.60567552641473 -3.333534268151041 -6.566888332832366 0 0 0
2618 1 -11.47160605941473 -3.369316684151045 -5.336209989032366 0 0 0
2619 1 -9.980794922914729 -1.492976245151041 -5.214561978632366 0 0 0
2620 1 -12.10521725841473 -1.243990267151048 -4.133898265232366 0 0 0
2621 1 -12.10521725841473 -1.243990267151048 -6.622201748852365 0 0 0
2622 1 -9.980794922914729 -1.492976245151041 -2.726271931832366 0 0 0
2623 1 -18.63513585846473 -7.454227355151048 4.642719032967635 0 0 0
2624 1 -18.63513585846473 -7.454227355151048 7.131024009567634 0 0 0
2625 1 -17.21656585206473 -5.382326073151049 7.122499093767633 0 0 0
2626 1 -18.63513585846473 -7.454227355151048 -0.3338759904323654 0 0 0
2627 1 -18.63513585846473 -7.454227355151048 2.154428986167634 0 0 0
2628 1 -17.21656585206473 -5.382326073151049 2.145904070367633 0 0 0
2629 1 -17.21656585206473 -5.382326073151049 4.634194117167633 0 0 0
2630 1 -15.75583129461473 -3.425972176151049 4.598705982567635 0 0 0
2631 1 -17.94985245351473 -3.293030561151056 5.871038468367635 0 0 0
2632 1 -17.94985245351473 -3.293030561151056 3.382748421567634 0 0 0
2633 1 -15.75583129461473 -3.425972176151049 7.087010959167634 0 0 0
2634 1 -14.35222402791473 -1.312573231151049 7.174290569967635 0 0 0
2635 1 -16.46384163666473 -1.44452089015104 5.784759154167634 0 0 0
2636 1 -18.63513585846473 -7.454227355151048 -5.310471013832366 0 0 0
2637 1 -18.63513585846473 -7.454227355151048 -2.822180967032366 0 0 0
2638 1 -17.21656585206473 -5.382326073151049 -2.830705882832365 0 0 0
2639 1 -17.21656585206473 -5.382326073151049 -0.3424009062323652 0 0 0
2640 1 -15.75583129461473 -3.425972176151049 -0.3778890408323656 0 0 0
2641 1 -17.94985245351473 -3.293030561151056 0.8944434449676351 0 0 0
2642 1 -17.94985245351473 -3.293030561151056 -1.593861531632366 0 0 0
2643 1 -15.75583129461473 -3.425972176151049 2.110401005967635 0 0 0
2644 1 -14.35222402791473 -1.312573231151049 2.197695546567635 0 0 0
2645 1 -16.46384163666473 -1.44452089015104 3.296469107367635 0 0 0
2646 1 -16.46384163666473 -1.44452089015104 0.8081641307676346 0 0 0
2647 1 -14.35222402791473 -1.312573231151049 4.685985593367635 0 0 0
2648 1 -17.21656585206473 -5.382326073151049 -5.318995929632366 0 0 0
2649 1 -15.75583129461473 -3.425972176151049 -5.354498994032365 0 0 0
2650 1 -17.94985245351473 -3.293030561151056 -4.082151578432366 0 0 0
2651 1 -17.94985245351473 -3.293030561151056 -6.570458048012366 0 0 0
2652 1 -15.75583129461473 -3.425972176151049 -2.866194017432366 0 0 0
2653 1 -14.35222402791473 -1.312573231151049 -2.778914406632365 0 0 0
2654 1 -16.46384163666473 -1.44452089015104 -1.680140845832366 0 0 0
2655 1 -16.46384163666473 -1.44452089015104 -4.168430892632365 0 0 0
2656 1 -14.35222402791473 -1.312573231151049 -0.2906094300323652 0 0 0
2657 1 -16.46384163666473 -1.44452089015104 -6.656734376252365 0 0 0
2658 1 -14.35222402791473 -1.312573231151049 -5.267204453432366 0 0 0
2659 1 -18.61025865711473 -1.079490549151046 4.625818499367634 0 0 0
2660 1 -18.61025865711473 -1.079490549151046 7.114108546167635 0 0 0
2661 1 -18.61025865711473 -1.079490549151046 -0.3507914538323655 0 0 0
2662 1 -18.61025865711473 -1.079490549151046 2.137513522767634 0 0 0
2663 1 -18.61025865711473 -1.079490549151046 -5.327386477232366 0 0 0
2664 1 -18.61025865711473 -1.079490549151046 -2.839081500632366 0 0 0
2665 1 0.7138833300852738 0.5674945428489622 6.823709006367634 0 0 0
2666 1 0.7138833300852738 0.5674945428489622 4.335404029767634 0 0 0
2667 1 0.7745556510852722 3.066796904848971 6.581846246367634 0 0 0
2668 1 0.7138833300852738 0.5674945428489622 1.847099053167634 0 0 0
2669 1 0.7138833300852738 0.5674945428489622 -0.6411909936323656 0 0 0
2670 1 0.7745556510852722 3.066796904848971 4.093541269767634 0 0 0
2671 1 0.7745556510852722 3.066796904848971 1.605251222967635 0 0 0
2672 1 0.7687441260852701 5.569081134848929 6.552001576167635 0 0 0
2673 1 0.7687441260852701 5.569081134848929 4.063696599567635 0 0 0
2674 1 0.7605692475852699 8.059437892848976 6.545955007167633 0 0 0
2675 1 0.7138833300852738 0.5674945428489622 -3.129495970232366 0 0 0
2676 1 0.7138833300852738 0.5674945428489622 -5.617800946832366 0 0 0
2677 1 0.7745556510852722 3.066796904848971 -0.8830537536323657 0 0 0
2678 1 0.7745556510852722 3.066796904848971 -3.371358730232365 0 0 0
2679 1 0.7687441260852701 5.569081134848929 1.575391622967635 0 0 0
2680 1 0.7687441260852701 5.569081134848929 -0.9128984238323659 0 0 0
2681 1 0.7605692475852699 8.059437892848976 4.057664960367633 0 0 0
2682 1 0.7605692475852699 8.059437892848976 1.569359983767633 0 0 0
2683 1 0.7565786670852717 10.54855220584896 6.544984570167633 0 0 0
2684 1 0.7565786670852717 10.54855220584896 4.056694523367634 0 0 0
2685 1 0.7550676705852695 13.03766651884895 6.545044289367635 0 0 0
2686 1 0.7745556510852722 3.066796904848971 -5.859648777032366 0 0 0
2687 1 0.7687441260852701 5.569081134848929 -3.401203400432366 0 0 0
2688 1 0.7687441260852701 5.569081134848929 -5.889508377032366 0 0 0
2689 1 0.7605692475852699 8.059437892848976 -0.9189449928323654 0 0 0
2690 1 0.7605692475852699 8.059437892848976 -3.407235039632365 0 0 0
2691 1 0.7565786670852717 10.54855220584896 1.568389546767634 0 0 0
2692 1 0.7565786670852717 10.54855220584896 -0.9199154298323657 0 0 0
2693 1 0.7550676705852695 13.03766651884895 4.056739312767634 0 0 0
2694 1 0.7550676705852695 13.03766651884895 1.568449265967635 0 0 0
2695 1 0.7605692475852699 8.059437892848976 -5.895540016232365 0 0 0
2696 1 0.7565786670852717 10.54855220584896 -3.408205476632366 0 0 0
2697 1 0.7565786670852717 10.54855220584896 -5.896510453232366 0 0 0
2698 1 0.7550676705852695 13.03766651884895 -0.9198557106323655 0 0 0
2699 1 0.7550676705852695 13.03766651884895 -3.408160687232366 0 0 0
2700 1 0.7550676705852695 13.03766651884895 -5.896450734032365 0 0 0
2701 1 -1.00388722941473 1.835285420848948 5.381983009767636 0 0 0
2702 1 -2.734869322414731 0.6514838248489525 6.627516504567634 0 0 0
2703 1 -2.734869322414731 0.6514838248489525 4.139211527967635 0 0 0
2704 1 -1.00388722941473 1.835285420848948 -7.059514999592365 0 0 1
2705 1 -0.9817259474147306 4.325145200848951 -7.129378998692366 0 0 1
2706 1 -2.75071541391473 3.12494333084895 6.553270609167635 0 0 0
2707 1 -1.00388722941473 1.835285420848948 0.405387986367634 0 0 0
2708 1 -2.734869322414731 0.6514838248489525 1.650906551367635 0 0 0
2709 1 -2.734869322414731 0.6514838248489525 -0.8373834954323653 0 0 0
2710 1 -1.00388722941473 1.835285420848948 2.893678033167635 0 0 0
2711 1 -0.9817259474147306 4.325145200848951 2.823821498967634 0 0 0
2712 1 -2.75071541391473 3.12494333084895 4.064965632567635 0 0 0
2713 1 -2.75071541391473 3.12494333084895 1.576675585767633 0 0 0
2714 1 -0.9817259474147306 4.325145200848951 5.312126475567634 0 0 0
2715 1 -0.9969133994147299 6.813514046848937 5.302481824767636 0 0 0
2716 1 -2.761486106914731 5.578523716848949 6.545133868167635 0 0 0
2717 1 -2.761486106914731 5.578523716848949 4.056828891567635 0 0 0
2718 1 -0.9969133994147299 6.813514046848937 -7.139013198632366 0 0 1
2719 1 -1.003306076914729 9.301882892848951 -7.140809253572366 0 0 1
2720 1 -2.765050508914729 8.057201491848943 6.544133571567635 0 0 0
2721 1 -1.00388722941473 1.835285420848948 -4.571221966832366 0 0 0
2722 1 -2.734869322414731 0.6514838248489525 -3.325688472032366 0 0 0
2723 1 -2.734869322414731 0.6514838248489525 -5.813993448632366 0 0 0
2724 1 -1.00388722941473 1.835285420848948 -2.082916990232365 0 0 0
2725 1 -0.9817259474147306 4.325145200848951 -2.152773524432366 0 0 0
2726 1 -2.75071541391473 3.12494333084895 -0.911629390832366 0 0 0
2727 1 -2.75071541391473 3.12494333084895 -3.399934367432366 0 0 0
2728 1 -0.9817259474147306 4.325145200848951 0.3355165223676346 0 0 0
2729 1 -0.9969133994147299 6.813514046848937 0.325886801367635 0 0 0
2730 1 -2.761486106914731 5.578523716848949 1.568538844767636 0 0 0
2731 1 -2.761486106914731 5.578523716848949 -0.9197661318323664 0 0 0
2732 1 -0.9969133994147299 6.813514046848937 2.814191777967634 0 0 0
2733 1 -1.003306076914729 9.301882892848951 2.812385272167635 0 0 0
2734 1 -2.765050508914729 8.057201491848943 4.055828594967634 0 0 0
2735 1 -2.765050508914729 8.057201491848943 1.567523618367634 0 0 0
2736 1 -1.003306076914729 9.301882892848951 5.300690248767635 0 0 0
2737 1 -1.005359482414729 11.79124569484897 5.300705178567636 0 0 0
2738 1 -2.765980352914731 10.54532184884893 6.544491886767634 0 0 0
2739 1 -2.765980352914731 10.54532184884893 4.056201839967635 0 0 0
2740 1 -1.005359482414729 11.79124569484897 -7.140797309732366 0 0 1
2741 1 -2.76667773591473 13.03493313984895 6.544894991367634 0 0 0
2742 1 -2.75071541391473 3.12494333084895 -5.888224414232366 0 0 0
2743 1 -0.9817259474147306 4.325145200848951 -4.641078501032366 0 0 0
2744 1 -0.9969133994147299 6.813514046848937 -4.650708222032366 0 0 0
2745 1 -2.761486106914731 5.578523716848949 -3.408071108432365 0 0 0
2746 1 -2.761486106914731 5.578523716848949 -5.896361155232366 0 0 0
2747 1 -0.9969133994147299 6.813514046848937 -2.162418175232366 0 0 0
2748 1 -1.003306076914729 9.301882892848951 -2.164209751232366 0 0 0
2749 1 -2.765050508914729 8.057201491848943 -0.9207664284323656 0 0 0
2750 1 -2.765050508914729 8.057201491848943 -3.409071405032366 0 0 0
2751 1 -1.003306076914729 9.301882892848951 0.3240952253676346 0 0 0
2752 1 -1.005359482414729 11.79124569484897 0.3241101551676335 0 0 0
2753 1 -2.765980352914731 10.54532184884893 1.567896863367634 0 0 0
2754 1 -2.765980352914731 10.54532184884893 -0.9204081132323658 0 0 0
2755 1 -1.005359482414729 11.79124569484897 2.812400201967636 0 0 0
2756 1 -2.76667773591473 13.03493313984895 4.056590014767634 0 0 0
2757 1 -2.76667773591473 13.03493313984895 1.568299967967635 0 0 0
2758 1 -2.765050508914729 8.057201491848943 -5.897376381632366 0 0 0
2759 1 -1.003306076914729 9.301882892848951 -4.652514727832365 0 0 0
2760 1 -1.005359482414729 11.79124569484897 -4.652499798032366 0 0 0
2761 1 -2.765980352914731 10.54532184884893 -3.408698160032366 0 0 0
2762 1 -2.765980352914731 10.54532184884893 -5.897003136632366 0 0 0
2763 1 -1.005359482414729 11.79124569484897 -2.164194821432366 0 0 0
2764 1 -2.76667773591473 13.03493313984895 -0.9200050086323657 0 0 0
2765 1 -2.76667773591473 13.03493313984895 -3.408309985232366 0 0 0
2766 1 -2.76667773591473 13.03493313984895 -5.896600032032365 0 0 0
2767 1 -4.49711741991473 1.855910007848962 5.268367231767636 0 0 0
2768 1 -6.241466020414729 0.6308592378489664 6.336654140967633 0 0 0
2769 1 -6.241466020414729 0.6308592378489664 3.848364094167634 0 0 0
2770 1 -4.49711741991473 1.855910007848962 -7.173126298652366 0 0 1
2771 1 -4.537875581914729 4.323405777848947 -7.148120376632366 0 0 1
2772 1 -6.309577093414731 3.069530283848962 6.514363550367635 0 0 0
2773 1 -4.49711741991473 1.855910007848962 0.2917722083676333 0 0 0
2774 1 -6.241466020414729 0.6308592378489664 1.360059117567634 0 0 0
2775 1 -6.241466020414729 0.6308592378489664 -1.128245859032366 0 0 0
2776 1 -4.49711741991473 1.855910007848962 2.780077184967634 0 0 0
2777 1 -4.537875581914729 4.323405777848947 2.805084599967635 0 0 0
2778 1 -6.309577093414731 3.069530283848962 4.026073503567634 0 0 0
2779 1 -6.309577093414731 3.069530283848962 1.537768526967634 0 0 0
2780 1 -4.537875581914729 4.323405777848947 5.293374646767635 0 0 0
2781 1 -4.531327930414728 6.809538222848929 5.297360903367634 0 0 0
2782 1 -6.29818650441473 5.562123442848971 6.534742727367634 0 0 0
2783 1 -6.29818650441473 5.562123442848971 4.046437750767634 0 0 0
2784 1 -4.531327930414728 6.809538222848929 -7.144138598972366 0 0 1
2785 1 -4.52753106741473 9.299149513848946 -7.141978256912366 0 0 1
2786 1 -6.289469216914728 8.054219623848965 6.541789592967636 0 0 0
2787 1 -4.49711741991473 1.855910007848962 -4.684822815032366 0 0 0
2788 1 -6.241466020414729 0.6308592378489664 -3.616535905832365 0 0 0
2789 1 -6.241466020414729 0.6308592378489664 -6.104839389452366 0 0 0
2790 1 -4.49711741991473 1.855910007848962 -2.196532768232366 0 0 0
2791 1 -4.537875581914729 4.323405777848947 -2.171525353232366 0 0 0
2792 1 -6.309577093414731 3.069530283848962 -0.9505364496323656 0 0 0
2793 1 -6.309577093414731 3.069530283848962 -3.438826496432365 0 0 0
2794 1 -4.537875581914729 4.323405777848947 0.3167796233676352 0 0 0
2795 1 -4.531327930414728 6.809538222848929 0.3207658799676336 0 0 0
2796 1 -6.29818650441473 5.562123442848971 1.558147703967634 0 0 0
2797 1 -6.29818650441473 5.562123442848971 -0.9301572726323659 0 0 0
2798 1 -4.531327930414728 6.809538222848929 2.809055926767636 0 0 0
2799 1 -4.52753106741473 9.299149513848946 2.811220747767635 0 0 0
2800 1 -6.289469216914728 8.054219623848965 4.053499546167636 0 0 0
2801 1 -6.289469216914728 8.054219623848965 1.565194569567636 0 0 0
2802 1 -4.52753106741473 9.299149513848946 5.299525724367635 0 0 0
2803 1 -4.527259862914729 11.78925778284896 5.300451371967634 0 0 0
2804 1 -6.288113194414729 10.54407940384895 6.544088782167634 0 0 0
2805 1 -6.288113194414729 10.54407940384895 4.055783805567634 0 0 0
2806 1 -4.527259862914729 11.78925778284896 -7.141046637392366 0 0 1
2807 1 -6.288578116414728 13.03344220584894 6.544865131767633 0 0 0
2808 1 -6.309577093414731 3.069530283848962 -5.927131473032366 0 0 0
2809 1 -4.537875581914729 4.323405777848947 -4.659815400032366 0 0 0
2810 1 -4.531327930414728 6.809538222848929 -4.655844073232366 0 0 0
2811 1 -6.29818650441473 5.562123442848971 -3.418462249232366 0 0 0
2812 1 -6.29818650441473 5.562123442848971 -5.906752296032366 0 0 0
2813 1 -4.531327930414728 6.809538222848929 -2.167539096632366 0 0 0
2814 1 -4.52753106741473 9.299149513848946 -2.165374275632366 0 0 0
2815 1 -6.289469216914728 8.054219623848965 -0.9231104070323664 0 0 0
2816 1 -6.289469216914728 8.054219623848965 -3.411400453832366 0 0 0
2817 1 -4.52753106741473 9.299149513848946 0.3229157711676338 0 0 0
2818 1 -4.527259862914729 11.78925778284896 0.3238563485676345 0 0 0
2819 1 -6.288113194414729 10.54407940384895 1.567478828967634 0 0 0
2820 1 -6.288113194414729 10.54407940384895 -0.9208112178323651 0 0 0
2821 1 -4.527259862914729 11.78925778284896 2.812146395367634 0 0 0
2822 1 -6.288578116414728 13.03344220584894 4.056575084967633 0 0 0
2823 1 -6.288578116414728 13.03344220584894 1.568270108367633 0 0 0
2824 1 -6.289469216914728 8.054219623848965 -5.899705430432366 0 0 0
2825 1 -4.52753106741473 9.299149513848946 -4.653679252232366 0 0 0
2826 1 -4.527259862914729 11.78925778284896 -4.652753604632366 0 0 0
2827 1 -6.288113194414729 10.54407940384895 -3.409116194432365 0 0 0
2828 1 -6.288113194414729 10.54407940384895 -5.897421171032366 0 0 0
2829 1 -4.527259862914729 11.78925778284896 -2.164448628032366 0 0 0
2830 1 -6.288578116414728 13.03344220584894 -0.9200348682323654 0 0 0
2831 1 -6.288578116414728 13.03344220584894 -3.408324915032366 0 0 0
2832 1 -6.288578116414728 13.03344220584894 -5.896629891632366 0 0 0
2833 1 -8.067679636414729 1.714768255848952 5.174802175167635 0 0 0
2834 1 -9.90237807891473 0.57047641084894 6.253987838367635 0 0 0
2835 1 -9.90237807891473 0.57047641084894 3.765682861767635 0 0 0
2836 1 -8.067679636414729 1.714768255848952 -7.266691355252366 0 0 1
2837 1 -8.052530927914731 4.28861731784896 -7.165740526592366 0 0 1
2838 1 -9.794438687914729 3.062324102848947 6.500687853567635 0 0 0
2839 1 -8.067679636414729 1.714768255848952 0.1982071517676349 0 0 0
2840 1 -9.90237807891473 0.57047641084894 1.277392814967635 0 0 0
2841 1 -9.90237807891473 0.57047641084894 -1.210912161632366 0 0 0
2842 1 -8.067679636414729 1.714768255848952 2.686512128367635 0 0 0
2843 1 -8.052530927914731 4.28861731784896 2.787452506167634 0 0 0
2844 1 -9.794438687914729 3.062324102848947 4.012382876967635 0 0 0
2845 1 -9.794438687914729 3.062324102848947 1.524092830167636 0 0 0
2846 1 -8.052530927914731 4.28861731784896 5.275757482767634 0 0 0
2847 1 -8.047223068414729 6.804071464848946 5.294016628167634 0 0 0
2848 1 -9.796840784914728 5.56535379984895 6.533608062567636 0 0 0
2849 1 -9.796840784914728 5.56535379984895 4.045303085967635 0 0 0
2850 1 -8.047223068414729 6.804071464848946 -7.147484367152366 0 0 1
2851 1 -8.048424116914727 9.298155557848943 -7.142439587732365 0 0 1
2852 1 -9.806952838414729 8.054716601848938 6.542118048567634 0 0 0
2853 1 -8.067679636414729 1.714768255848952 -4.778387871632366 0 0 0
2854 1 -9.90237807891473 0.57047641084894 -3.699217138232366 0 0 0
2855 1 -9.90237807891473 0.57047641084894 -6.187513156952366 0 0 0
2856 1 -8.067679636414729 1.714768255848952 -2.290097824832365 0 0 0
2857 1 -8.052530927914731 4.28861731784896 -2.189142517232366 0 0 0
2858 1 -9.794438687914729 3.062324102848947 -0.9642121464323656 0 0 0
2859 1 -9.794438687914729 3.062324102848947 -3.452517123032366 0 0 0
2860 1 -8.052530927914731 4.28861731784896 0.2991624593676336 0 0 0
2861 1 -8.047223068414729 6.804071464848946 0.3174216047676337 0 0 0
2862 1 -9.796840784914728 5.56535379984895 1.556998109367635 0 0 0
2863 1 -9.796840784914728 5.56535379984895 -0.9312919374323663 0 0 0
2864 1 -8.047223068414729 6.804071464848946 2.805711651567634 0 0 0
2865 1 -8.048424116914727 9.298155557848943 2.810757923967634 0 0 0
2866 1 -9.806952838414729 8.054716601848938 4.053828001767634 0 0 0
2867 1 -9.806952838414729 8.054716601848938 1.565523025167634 0 0 0
2868 1 -8.048424116914727 9.298155557848943 5.299062900567634 0 0 0
2869 1 -8.049547678414728 11.78801533784896 5.300511091167635 0 0 0
2870 1 -9.810633470914729 10.54308544784895 6.544462027167635 0 0 0
2871 1 -9.810633470914729 10.54308544784895 4.056171980367633 0 0 0
2872 1 -8.049547678414728 11.78801533784896 -7.140988411172366 0 0 1
2873 1 -9.81105964941473 13.03219976084894 6.545104008567634 0 0 0
2874 1 -9.794438687914729 3.062324102848947 -5.940807169832366 0 0 0
2875 1 -8.052530927914731 4.28861731784896 -4.677447493832366 0 0 0
2876 1 -8.047223068414729 6.804071464848946 -4.659188348432366 0 0 0
2877 1 -9.796840784914728 5.56535379984895 -3.419596914032367 0 0 0
2878 1 -9.796840784914728 5.56535379984895 -5.907901890632366 0 0 0
2879 1 -8.047223068414729 6.804071464848946 -2.170883371832366 0 0 0
2880 1 -8.048424116914727 9.298155557848943 -2.165837099432366 0 0 0
2881 1 -9.806952838414729 8.054716601848938 -0.9227819514323654 0 0 0
2882 1 -9.806952838414729 8.054716601848938 -3.411071998232366 0 0 0
2883 1 -8.048424116914727 9.298155557848943 0.3224678771676341 0 0 0
2884 1 -8.049547678414728 11.78801533784896 0.3239160677676347 0 0 0
2885 1 -9.810633470914729 10.54308544784895 1.567867003767635 0 0 0
2886 1 -9.810633470914729 10.54308544784895 -0.9204379728323655 0 0 0
2887 1 -8.049547678414728 11.78801533784896 2.812206114567635 0 0 0
2888 1 -9.81105964941473 13.03219976084894 4.056813961767634 0 0 0
2889 1 -9.81105964941473 13.03219976084894 1.568508985167634 0 0 0
2890 1 -9.806952838414729 8.054716601848938 -5.899376974832366 0 0 0
2891 1 -8.048424116914727 9.298155557848943 -4.654142076032366 0 0 0
2892 1 -8.049547678414728 11.78801533784896 -4.652693885432366 0 0 0
2893 1 -9.810633470914729 10.54308544784895 -3.408728019632366 0 0 0
2894 1 -9.810633470914729 10.54308544784895 -5.897032996232365 0 0 0
2895 1 -8.049547678414728 11.78801533784896 -2.164388908832366 0 0 0
2896 1 -9.81105964941473 13.03219976084894 -0.9197959914323661 0 0 0
2897 1 -9.81105964941473 13.03219976084894 -3.408086038232366 0 0 0
2898 1 -9.81105964941473 13.03219976084894 -5.896391014832366 0 0 0
2899 1 -11.59159467891473 1.865104100848953 5.233177693167635 0 0 0
2900 1 -13.30463853141473 0.6624173408489611 6.530846049567636 0 0 0
2901 1 -13.30463853141473 0.6624173408489611 4.042541072967635 0 0 0
2902 1 -11.59159467891473 1.865104100848953 -7.208323302152365 0 0 1
2903 1 -11.55134018241473 4.334090804848969 -7.153481667812366 0 0 1
2904 1 -13.32881447541473 3.141343604848956 6.542282276367635 0 0 0
2905 1 -11.59159467891473 1.865104100848953 0.2565826697676341 0 0 0
2906 1 -13.30463853141473 0.6624173408489611 1.554236096367635 0 0 0
2907 1 -13.30463853141473 0.6624173408489611 -0.9340539504323662 0 0 0
2908 1 -11.59159467891473 1.865104100848953 2.744872716567635 0 0 0
2909 1 -11.55134018241473 4.334090804848969 2.799724801767635 0 0 0
2910 1 -13.32881447541473 3.141343604848956 4.053977299767634 0 0 0
2911 1 -13.32881447541473 3.141343604848956 1.565687252967635 0 0 0
2912 1 -11.55134018241473 4.334090804848969 5.288014848567634 0 0 0
2913 1 -11.56691506941473 6.812520090848935 5.297674429167634 0 0 0
2914 1 -13.33908150291473 5.581008606848954 6.544909921167635 0 0 0
2915 1 -13.33908150291473 5.581008606848954 4.056604944567635 0 0 0
2916 1 -11.56691506941473 6.812520090848935 -7.143832538072366 0 0 1
2917 1 -11.57237790291473 9.297907068848971 -7.141089933812366 0 0 1
2918 1 -13.33772548041473 8.054468112848966 6.545701200567635 0 0 0
2919 1 -11.59159467891473 1.865104100848953 -4.720027283432366 0 0 0
2920 1 -13.30463853141473 0.6624173408489611 -3.422358927032366 0 0 0
2921 1 -13.30463853141473 0.6624173408489611 -5.910663903632366 0 0 0
2922 1 -11.59159467891473 1.865104100848953 -2.231722306832366 0 0 0
2923 1 -11.55134018241473 4.334090804848969 -2.176885151432366 0 0 0
2924 1 -13.32881447541473 3.141343604848956 -0.9226177236323663 0 0 0
2925 1 -13.32881447541473 3.141343604848956 -3.410922700232366 0 0 0
2926 1 -11.55134018241473 4.334090804848969 0.3114198251676346 0 0 0
2927 1 -11.56691506941473 6.812520090848935 0.321064475967634 0 0 0
2928 1 -13.33908150291473 5.581008606848954 1.568314897767635 0 0 0
2929 1 -13.33908150291473 5.581008606848954 -0.9199900788323658 0 0 0
2930 1 -11.56691506941473 6.812520090848935 2.809369452567633 0 0 0
2931 1 -11.57237790291473 9.297907068848971 2.812116535767634 0 0 0
2932 1 -13.33772548041473 8.054468112848966 4.057396223967634 0 0 0
2933 1 -13.33772548041473 8.054468112848966 1.569106177167635 0 0 0
2934 1 -11.57237790291473 9.297907068848971 5.300406582567636 0 0 0
2935 1 -11.57264910741473 11.78677289284893 5.301063493767634 0 0 0
2936 1 -13.33505217891473 10.54184300284895 6.545656411167634 0 0 0
2937 1 -13.33505217891473 10.54184300284895 4.057366364367633 0 0 0
2938 1 -11.57264910741473 11.78677289284893 -7.140433022612366 0 0 1
2939 1 -13.33292128641473 13.03195127184897 6.545581762167634 0 0 0
2940 1 -13.32881447541473 3.141343604848956 -5.899212747032365 0 0 0
2941 1 -11.55134018241473 4.334090804848969 -4.665175198232365 0 0 0
2942 1 -11.56691506941473 6.812520090848935 -4.655530547432366 0 0 0
2943 1 -13.33908150291473 5.581008606848954 -3.408295055432366 0 0 0
2944 1 -13.33908150291473 5.581008606848954 -5.896585102232366 0 0 0
2945 1 -11.56691506941473 6.812520090848935 -2.167225570832366 0 0 0
2946 1 -11.57237790291473 9.297907068848971 -2.164493417432366 0 0 0
2947 1 -13.33772548041473 8.054468112848966 -0.9191987994323654 0 0 0
2948 1 -13.33772548041473 8.054468112848966 -3.407503776032366 0 0 0
2949 1 -11.57237790291473 9.297907068848971 0.3238115591676349 0 0 0
2950 1 -11.57264910741473 11.78677289284893 0.3244684703676342 0 0 0
2951 1 -13.33505217891473 10.54184300284895 1.569061387767634 0 0 0
2952 1 -13.33505217891473 10.54184300284895 -0.9192435888323658 0 0 0
2953 1 -11.57264910741473 11.78677289284893 2.812773446967634 0 0 0
2954 1 -13.33292128641473 13.03195127184897 4.057276785567634 0 0 0
2955 1 -13.33292128641473 13.03195127184897 1.568971808967634 0 0 0
2956 1 -13.33772548041473 8.054468112848966 -5.895793822832366 0 0 0
2957 1 -11.57237790291473 9.297907068848971 -4.652783464232366 0 0 0
2958 1 -11.57264910741473 11.78677289284893 -4.652126553032366 0 0 0
2959 1 -13.33505217891473 10.54184300284895 -3.407533635632365 0 0 0
2960 1 -13.33505217891473 10.54184300284895 -5.895838612232366 0 0 0
2961 1 -11.57264910741473 11.78677289284893 -2.163836506232365 0 0 0
2962 1 -13.33292128641473 13.03195127184897 -0.9193182378323659 0 0 0
2963 1 -13.33292128641473 13.03195127184897 -3.407623214432366 0 0 0
2964 1 -13.33292128641473 13.03195127184897 -5.895928191032366 0 0 0
2965 1 -15.05596096191473 1.85914036484894 5.357453348367635 0 0 0
2966 1 -15.05596096191473 1.85914036484894 -7.084046153972365 0 0 1
2967 1 -15.12352962591473 4.319429953848967 -7.130092643132365 0 0 1
2968 1 -15.05596096191473 1.85914036484894 0.3808583249676341 0 0 0
2969 1 -15.05596096191473 1.85914036484894 2.869148371767634 0 0 0
2970 1 -15.12352962591473 4.319429953848967 2.823104868567635 0 0 0
2971 1 -15.12352962591473 4.319429953848967 5.311409845167635 0 0 0
2972 1 -15.10884583941473 6.805810887848949 5.305303556967635 0 0 0
2973 1 -15.10884583941473 6.805810887848949 -7.136195945372366 0 0 1
2974 1 -15.09900499041473 9.295919156848967 -7.138781786732366 0 0 1
2975 1 -15.05596096191473 1.85914036484894 -4.595751628232366 0 0 0
2976 1 -15.05596096191473 1.85914036484894 -2.107446651632366 0 0 0
2977 1 -15.12352962591473 4.319429953848967 -2.153490154832365 0 0 0
2978 1 -15.12352962591473 4.319429953848967 0.3347998919676343 0 0 0
2979 1 -15.10884583941473 6.805810887848949 0.3287085335676352 0 0 0
2980 1 -15.10884583941473 6.805810887848949 2.816998580367635 0 0 0
2981 1 -15.09900499041473 9.295919156848967 2.814415724967635 0 0 0
2982 1 -15.09900499041473 9.295919156848967 5.302720701567635 0 0 0
2983 1 -15.09439451391473 11.78726987084896 5.301869702967634 0 0 0
2984 1 -15.09439451391473 11.78726987084896 -7.139632785332366 0 0 1
2985 1 -15.12352962591473 4.319429953848967 -4.641795131432366 0 0 0
2986 1 -15.10884583941473 6.805810887848949 -4.647901419632365 0 0 0
2987 1 -15.10884583941473 6.805810887848949 -2.159596443032365 0 0 0
2988 1 -15.09900499041473 9.295919156848967 -2.162179298432366 0 0 0
2989 1 -15.09900499041473 9.295919156848967 0.3261256781676334 0 0 0
2990 1 -15.09439451391473 11.78726987084896 0.3252597497676355 0 0 0
2991 1 -15.09439451391473 11.78726987084896 2.813564726367634 0 0 0
2992 1 -15.09900499041473 9.295919156848967 -4.650484275032365 0 0 0
2993 1 -15.09439451391473 11.78726987084896 -4.651335273632366 0 0 0
2994 1 -15.09439451391473 11.78726987084896 -2.163030297032366 0 0 0
2995 1 0.7546802355852726 15.52678083184894 6.545193587367635 0 0 0
2996 1 0.7546802355852726 15.52678083184894 4.056903540567633 0 0 0
2997 1 0.7547964660852706 18.01564665584895 6.545313025767635 0 0 0
2998 1 0.7546802355852726 15.52678083184894 1.568598563967635 0 0 0
2999 1 0.7546802355852726 15.52678083184894 -0.9197064126323662 0 0 0
3000 1 0.7547964660852706 18.01564665584895 4.057008049167635 0 0 0
3001 1 0.7547964660852706 18.01564665584895 1.568703072567635 0 0 0
3002 1 0.7551451575852717 20.50451247984897 6.545372744967635 0 0 0
3003 1 0.7551451575852717 20.50451247984897 4.057067768367634 0 0 0
3004 1 0.7555713360852714 22.99337830384893 6.545402604567634 0 0 0
3005 1 0.7546802355852726 15.52678083184894 -3.407996459432366 0 0 0
3006 1 0.7546802355852726 15.52678083184894 -5.896301436032366 0 0 0
3007 1 0.7547964660852706 18.01564665584895 -0.9195869742323657 0 0 0
3008 1 0.7547964660852706 18.01564665584895 -3.407891950832366 0 0 0
3009 1 0.7551451575852717 20.50451247984897 1.568777721567633 0 0 0
3010 1 0.7551451575852717 20.50451247984897 -0.9195272550323654 0 0 0
3011 1 0.7555713360852714 22.99337830384893 4.057097627967634 0 0 0
3012 1 0.7555713360852714 22.99337830384893 1.568807581167635 0 0 0
3013 1 0.7560362580852704 25.48224412784894 6.545417534367635 0 0 0
3014 1 0.7560362580852704 25.48224412784894 4.057127487567636 0 0 0
3015 1 0.7547964660852706 18.01564665584895 -5.896196927432365 0 0 0
3016 1 0.7551451575852717 20.50451247984897 -3.407832231632366 0 0 0
3017 1 0.7551451575852717 20.50451247984897 -5.896122278432365 0 0 0
3018 1 0.7555713360852714 22.99337830384893 -0.9194973954323657 0 0 0
3019 1 0.7555713360852714 22.99337830384893 -3.407802372032366 0 0 0
3020 1 0.7560362580852704 25.48224412784894 1.568822510967635 0 0 0
3021 1 0.7560362580852704 25.48224412784894 -0.919482465632365 0 0 0
3022 1 0.7555713360852714 22.99337830384893 -5.896092418832366 0 0 0
3023 1 0.7560362580852704 25.48224412784894 -3.407772512432366 0 0 0
3024 1 0.7560362580852704 25.48224412784894 -5.896077489032366 0 0 0
3025 1 -1.00613435241473 14.28085698584896 -7.140573362732366 0 0 1
3026 1 -1.00613435241473 14.28085698584896 2.812624148967634 0 0 0
3027 1 -1.00613435241473 14.28085698584896 5.300929125567635 0 0 0
3028 1 -1.00632806991473 16.77021978784894 5.301093353367635 0 0 0
3029 1 -2.767142657914729 15.52454443084893 6.545148797967634 0 0 0
3030 1 -2.767142657914729 15.52454443084893 4.056843821367636 0 0 0
3031 1 -1.00632806991473 16.77021978784894 -7.140409134932366 0 0 1
3032 1 -1.006173095914729 19.25933410084896 -7.140315077192366 0 0 1
3033 1 -2.767220144914727 18.01415572184895 6.545283166167634 0 0 0
3034 1 -1.00613435241473 14.28085698584896 -2.163970874432366 0 0 0
3035 1 -1.00613435241473 14.28085698584896 0.3243191723676349 0 0 0
3036 1 -1.00632806991473 16.77021978784894 0.324483400167634 0 0 0
3037 1 -2.767142657914729 15.52454443084893 1.568553774567635 0 0 0
3038 1 -2.767142657914729 15.52454443084893 -0.9197512020323657 0 0 0
3039 1 -1.00632806991473 16.77021978784894 2.812788376767635 0 0 0
3040 1 -1.006173095914729 19.25933410084896 2.812877955567634 0 0 0
3041 1 -2.767220144914727 18.01415572184895 4.056993119367634 0 0 0
3042 1 -2.767220144914727 18.01415572184895 1.568688142767634 0 0 0
3043 1 -1.006173095914729 19.25933410084896 5.301182932167634 0 0 0
3044 1 -1.005785660914729 21.74844841384895 5.301242651367634 0 0 0
3045 1 -2.766987683914728 20.50351852384897 6.545357815167634 0 0 0
3046 1 -2.766987683914728 20.50351852384897 4.057067768367634 0 0 0
3047 1 -1.005785660914729 21.74844841384895 -7.140264315872366 0 0 1
3048 1 -1.00532073891473 24.23756272684896 -7.140237442232365 0 0 1
3049 1 -2.766561505414728 22.99288132584896 6.545402604567634 0 0 0
3050 1 -1.00613435241473 14.28085698584896 -4.652275851032366 0 0 0
3051 1 -1.00632806991473 16.77021978784894 -4.652111623232365 0 0 0
3052 1 -2.767142657914729 15.52454443084893 -3.408056178632366 0 0 0
3053 1 -2.767142657914729 15.52454443084893 -5.896346225432366 0 0 0
3054 1 -1.00632806991473 16.77021978784894 -2.163806646632366 0 0 0
3055 1 -1.006173095914729 19.25933410084896 -2.163717067832366 0 0 0
3056 1 -2.767220144914727 18.01415572184895 -0.9196168338323663 0 0 0
3057 1 -2.767220144914727 18.01415572184895 -3.407906880632366 0 0 0
3058 1 -1.006173095914729 19.25933410084896 0.3245879087676338 0 0 0
3059 1 -1.005785660914729 21.74844841384895 0.3246326981676333 0 0 0
3060 1 -2.766987683914728 20.50351852384897 1.568762791767634 0 0 0
3061 1 -2.766987683914728 20.50351852384897 -0.9195421848323653 0 0 0
3062 1 -1.005785660914729 21.74844841384895 2.812937674767634 0 0 0
3063 1 -1.00532073891473 24.23756272684896 2.812967534367635 0 0 0
3064 1 -2.766561505414728 22.99288132584896 4.057097627967634 0 0 0
3065 1 -2.766561505414728 22.99288132584896 1.568807581167635 0 0 0
3066 1 -1.00532073891473 24.23756272684896 5.301257581167635 0 0 0
3067 1 -1.004855816914731 26.72667703984895 5.301272510967635 0 0 0
3068 1 -2.766096583414729 25.48199563884894 6.545417534367635 0 0 0
3069 1 -2.766096583414729 25.48199563884894 4.057112557767635 0 0 0
3070 1 -1.004855816914731 26.72667703984895 -7.140225498392366 0 0 1
3071 1 -2.767220144914727 18.01415572184895 -5.896211857232366 0 0 0
3072 1 -1.006173095914729 19.25933410084896 -4.652022044432366 0 0 0
3073 1 -1.005785660914729 21.74844841384895 -4.651962325232366 0 0 0
3074 1 -2.766987683914728 20.50351852384897 -3.407832231632366 0 0 0
3075 1 -2.766987683914728 20.50351852384897 -5.896137208232366 0 0 0
3076 1 -1.005785660914729 21.74844841384895 -2.163657348632366 0 0 0
3077 1 -1.00532073891473 24.23756272684896 -2.163642418832366 0 0 0
3078 1 -2.766561505414728 22.99288132584896 -0.9194973954323657 0 0 0
3079 1 -2.766561505414728 22.99288132584896 -3.407802372032366 0 0 0
3080 1 -1.00532073891473 24.23756272684896 0.3246625577676348 0 0 0
3081 1 -1.004855816914731 26.72667703984895 0.3246774875676346 0 0 0
3082 1 -2.766096583414729 25.48199563884894 1.568822510967635 0 0 0
3083 1 -2.766096583414729 25.48199563884894 -0.919482465632365 0 0 0
3084 1 -1.004855816914731 26.72667703984895 2.812982464167636 0 0 0
3085 1 -2.766561505414728 22.99288132584896 -5.896092418832366 0 0 0
3086 1 -1.00532073891473 24.23756272684896 -4.651932465632366 0 0 0
3087 1 -1.004855816914731 26.72667703984895 -4.651917535832366 0 0 0
3088 1 -2.766096583414729 25.48199563884894 -3.407787442232365 0 0 0
3089 1 -2.766096583414729 25.48199563884894 -5.896077489032366 0 0 0
3090 1 -1.004855816914731 26.72667703984895 -2.163627489032366 0 0 0
3091 1 -4.52780227191473 14.27886907384895 -7.140618152132366 0 0 1
3092 1 -4.52780227191473 14.27886907384895 2.812579359567636 0 0 0
3093 1 -4.52780227191473 14.27886907384895 5.300884336167634 0 0 0
3094 1 -4.528112219914728 16.76848036484897 5.301093353367635 0 0 0
3095 1 -6.28888806441473 15.52305349684896 6.545178657567634 0 0 0
3096 1 -6.28888806441473 15.52305349684896 4.056873680967634 0 0 0
3097 1 -4.528112219914728 16.76848036484897 -7.140412120892366 0 0 1
3098 1 -4.527995989414729 19.25809165584896 -7.140312091232365 0 0 1
3099 1 -6.28884932091473 18.01291327684895 6.545313025767635 0 0 0
3100 1 -4.52780227191473 14.27886907384895 -2.164015663832366 0 0 0
3101 1 -4.52780227191473 14.27886907384895 0.3242893127676334 0 0 0
3102 1 -4.528112219914728 16.76848036484897 0.324483400167634 0 0 0
3103 1 -6.28888806441473 15.52305349684896 1.568583634167634 0 0 0
3104 1 -6.28888806441473 15.52305349684896 -0.9197213424323651 0 0 0
3105 1 -4.528112219914728 16.76848036484897 2.812788376767635 0 0 0
3106 1 -4.527995989414729 19.25809165584896 2.812892885367635 0 0 0
3107 1 -6.28884932091473 18.01291327684895 4.057008049167635 0 0 0
3108 1 -6.28884932091473 18.01291327684895 1.568718002367635 0 0 0
3109 1 -4.527995989414729 19.25809165584896 5.301182932167634 0 0 0
3110 1 -4.527647297914729 21.74770294684895 5.301242651367634 0 0 0
3111 1 -6.28853937291473 20.50252456784897 6.545372744967635 0 0 0
3112 1 -6.28853937291473 20.50252456784897 4.057082698167633 0 0 0
3113 1 -4.527647297914729 21.74770294684895 -7.140261329912366 0 0 1
3114 1 -4.527221119414728 24.23731423784896 -7.140235949252366 0 0 1
3115 1 -6.28815193791473 22.99238434784893 6.545402604567634 0 0 0
3116 1 -4.52780227191473 14.27886907384895 -4.652320640432366 0 0 0
3117 1 -4.528112219914728 16.76848036484897 -4.652111623232365 0 0 0
3118 1 -6.28888806441473 15.52305349684896 -3.408026319032365 0 0 0
3119 1 -6.28888806441473 15.52305349684896 -5.896316365832366 0 0 0
3120 1 -4.528112219914728 16.76848036484897 -2.163806646632366 0 0 0
3121 1 -4.527995989414729 19.25809165584896 -2.163717067832366 0 0 0
3122 1 -6.28884932091473 18.01291327684895 -0.9195869742323657 0 0 0
3123 1 -6.28884932091473 18.01291327684895 -3.407891950832366 0 0 0
3124 1 -4.527995989414729 19.25809165584896 0.3245879087676338 0 0 0
3125 1 -4.527647297914729 21.74770294684895 0.3246326981676333 0 0 0
3126 1 -6.28853937291473 20.50252456784897 1.568777721567633 0 0 0
3127 1 -6.28853937291473 20.50252456784897 -0.9195272550323654 0 0 0
3128 1 -4.527647297914729 21.74770294684895 2.812937674767634 0 0 0
3129 1 -4.527221119414728 24.23731423784896 2.812967534367635 0 0 0
3130 1 -6.28815193791473 22.99238434784893 4.057112557767635 0 0 0
3131 1 -6.28815193791473 22.99238434784893 1.568807581167635 0 0 0
3132 1 -4.527221119414728 24.23731423784896 5.301257581167635 0 0 0
3133 1 -4.52679494091473 26.72667703984895 5.301272510967635 0 0 0
3134 1 -6.287803246414731 25.48174714984897 6.545417534367635 0 0 0
3135 1 -6.287803246414731 25.48174714984897 4.057127487567636 0 0 0
3136 1 -4.52679494091473 26.72667703984895 -7.140224005412366 0 0 1
3137 1 -6.28884932091473 18.01291327684895 -5.896181997632366 0 0 0
3138 1 -4.527995989414729 19.25809165584896 -4.652007114632366 0 0 0
3139 1 -4.527647297914729 21.74770294684895 -4.651962325232366 0 0 0
3140 1 -6.28853937291473 20.50252456784897 -3.407817301832366 0 0 0
3141 1 -6.28853937291473 20.50252456784897 -5.896122278432365 0 0 0
3142 1 -4.527647297914729 21.74770294684895 -2.163657348632366 0 0 0
3143 1 -4.527221119414728 24.23731423784896 -2.163642418832366 0 0 0
3144 1 -6.28815193791473 22.99238434784893 -0.9194973954323657 0 0 0
3145 1 -6.28815193791473 22.99238434784893 -3.407787442232365 0 0 0
3146 1 -4.527221119414728 24.23731423784896 0.3246625577676348 0 0 0
3147 1 -4.52679494091473 26.72667703984895 0.3246774875676346 0 0 0
3148 1 -6.287803246414731 25.48174714984897 1.568822510967635 0 0 0
3149 1 -6.287803246414731 25.48174714984897 -0.919482465632365 0 0 0
3150 1 -4.52679494091473 26.72667703984895 2.812982464167636 0 0 0
3151 1 -6.28815193791473 22.99238434784893 -5.896092418832366 0 0 0
3152 1 -4.527221119414728 24.23731423784896 -4.651932465632366 0 0 0
3153 1 -4.52679494091473 26.72667703984895 -4.651917535832366 0 0 0
3154 1 -6.287803246414731 25.48174714984897 -3.407772512432366 0 0 0
3155 1 -6.287803246414731 25.48174714984897 -5.896077489032366 0 0 0
3156 1 -4.52679494091473 26.72667703984895 -2.163627489032366 0 0 0
3157 1 -8.049857626414729 14.27762662884895 -7.140522601412366 0 0 1
3158 1 -8.049857626414729 14.27762662884895 2.812683868167635 0 0 0
3159 1 -8.049857626414729 14.27762662884895 5.300973914967635 0 0 0
3160 1 -8.049702652414728 16.76748640884897 5.301153072567635 0 0 0
3161 1 -9.810594727414729 15.52230802984896 6.545313025767635 0 0 0
3162 1 -9.810594727414729 15.52230802984896 4.057008049167635 0 0 0
3163 1 -8.049702652414728 16.76748640884897 -7.140349415732365 0 0 1
3164 1 -8.049353960914729 19.25734618884896 -7.140276259712365 0 0 1
3165 1 -9.810091061914729 18.01241629884895 6.545387674767634 0 0 0
3166 1 -8.049857626414729 14.27762662884895 -2.163926085032365 0 0 0
3167 1 -8.049857626414729 14.27762662884895 0.3243788915676351 0 0 0
3168 1 -8.049702652414728 16.76748640884897 0.324558049167635 0 0 0
3169 1 -9.810594727414729 15.52230802984896 1.568718002367635 0 0 0
3170 1 -9.810594727414729 15.52230802984896 -0.9195869742323657 0 0 0
3171 1 -8.049702652414728 16.76748640884897 2.812848095967635 0 0 0
3172 1 -8.049353960914729 19.25734618884896 2.812922744967635 0 0 0
3173 1 -9.810091061914729 18.01241629884895 4.057082698167633 0 0 0
3174 1 -9.810091061914729 18.01241629884895 1.568777721567633 0 0 0
3175 1 -8.049353960914729 19.25734618884896 5.301227721567633 0 0 0
3176 1 -8.048966525914729 21.74720596884895 5.301257581167635 0 0 0
3177 1 -9.80966488341473 20.50227607884896 6.545417534367635 0 0 0
3178 1 -9.80966488341473 20.50227607884896 4.057112557767635 0 0 0
3179 1 -8.048966525914729 21.74720596884895 -7.140243414152366 0 0 1
3180 1 -8.048656577914729 24.23706574884896 -7.140226991372366 0 0 1
3181 1 -9.809393678914729 22.99213585884895 6.545432464167636 0 0 0
3182 1 -8.049857626414729 14.27762662884895 -4.652216131832366 0 0 0
3183 1 -8.049702652414728 16.76748640884897 -4.652051904032366 0 0 0
3184 1 -9.810594727414729 15.52230802984896 -3.407891950832366 0 0 0
3185 1 -9.810594727414729 15.52230802984896 -5.896181997632366 0 0 0
3186 1 -8.049702652414728 16.76748640884897 -2.163746927432365 0 0 0
3187 1 -8.049353960914729 19.25734618884896 -2.163672278432366 0 0 0
3188 1 -9.810091061914729 18.01241629884895 -0.9195123252323656 0 0 0
3189 1 -9.810091061914729 18.01241629884895 -3.407817301832366 0 0 0
3190 1 -8.049353960914729 19.25734618884896 0.3246177683676352 0 0 0
3191 1 -8.048966525914729 21.74720596884895 0.3246625577676348 0 0 0
3192 1 -9.80966488341473 20.50227607884896 1.568807581167635 0 0 0
3193 1 -9.80966488341473 20.50227607884896 -0.919482465632365 0 0 0
3194 1 -8.048966525914729 21.74720596884895 2.812952604567634 0 0 0
3195 1 -8.048656577914729 24.23706574884896 2.812967534367635 0 0 0
3196 1 -9.809393678914729 22.99213585884895 4.057127487567636 0 0 0
3197 1 -9.809393678914729 22.99213585884895 1.568822510967635 0 0 0
3198 1 -8.048656577914729 24.23706574884896 5.301272510967635 0 0 0
3199 1 -8.04838537341473 26.72642855084895 5.301287440767634 0 0 0
3200 1 -9.809199961414729 25.48174714984897 6.545432464167636 0 0 0
3201 1 -9.809199961414729 25.48174714984897 4.057127487567636 0 0 0
3202 1 -8.04838537341473 26.72642855084895 -7.140219526472365 0 0 1
3203 1 -9.810091061914729 18.01241629884895 -5.896122278432365 0 0 0
3204 1 -8.049353960914729 19.25734618884896 -4.651977255032365 0 0 0
3205 1 -8.048966525914729 21.74720596884895 -4.651947395432366 0 0 0
3206 1 -9.80966488341473 20.50227607884896 -3.407787442232365 0 0 0
3207 1 -9.80966488341473 20.50227607884896 -5.896092418832366 0 0 0
3208 1 -8.048966525914729 21.74720596884895 -2.163642418832366 0 0 0
3209 1 -8.048656577914729 24.23706574884896 -2.163627489032366 0 0 0
3210 1 -9.809393678914729 22.99213585884895 -0.9194675358323661 0 0 0
3211 1 -9.809393678914729 22.99213585884895 -3.407772512432366 0 0 0
3212 1 -8.048656577914729 24.23706574884896 0.3246774875676346 0 0 0
3213 1 -8.04838537341473 26.72642855084895 0.3246774875676346 0 0 0
3214 1 -9.809199961414729 25.48174714984897 1.568837440767634 0 0 0
3215 1 -9.809199961414729 25.48174714984897 -0.9194675358323661 0 0 0
3216 1 -8.04838537341473 26.72642855084895 2.812982464167636 0 0 0
3217 1 -9.809393678914729 22.99213585884895 -5.896077489032366 0 0 0
3218 1 -8.048656577914729 24.23706574884896 -4.651932465632366 0 0 0
3219 1 -8.04838537341473 26.72642855084895 -4.651917535832366 0 0 0
3220 1 -9.809199961414729 25.48174714984897 -3.407772512432366 0 0 0
3221 1 -9.809199961414729 25.48174714984897 -5.896062559232366 0 0 0
3222 1 -8.04838537341473 26.72642855084895 -2.163612559232366 0 0 0
3223 1 -11.57168051991473 14.27688116184895 -7.140268794812366 0 0 1
3224 1 -11.57168051991473 14.27688116184895 2.812937674767634 0 0 0
3225 1 -11.57168051991473 14.27688116184895 5.301227721567633 0 0 0
3226 1 -11.57082816291473 16.76723791984894 5.301272510967635 0 0 0
3227 1 -13.33156526391473 15.52255651884893 6.545507113167634 0 0 0
3228 1 -13.33156526391473 15.52255651884893 4.057217066367635 0 0 0
3229 1 -11.57082816291473 16.76723791984894 -7.140226991372366 0 0 1
3230 1 -11.57028575391473 19.25759467784896 -7.140216540512366 0 0 1
3231 1 -13.33086788091473 18.01291327684895 6.545477253567634 0 0 0
3232 1 -11.57168051991473 14.27688116184895 -2.163672278432366 0 0 0
3233 1 -11.57168051991473 14.27688116184895 0.3246326981676333 0 0 0
3234 1 -11.57082816291473 16.76723791984894 0.3246774875676346 0 0 0
3235 1 -13.33156526391473 15.52255651884893 1.568912089767634 0 0 0
3236 1 -13.33156526391473 15.52255651884893 -0.919392886832366 0 0 0
3237 1 -11.57082816291473 16.76723791984894 2.812967534367635 0 0 0
3238 1 -11.57028575391473 19.25759467784896 2.812982464167636 0 0 0
3239 1 -13.33086788091473 18.01291327684895 4.057172276967634 0 0 0
3240 1 -13.33086788091473 18.01291327684895 1.568882230167635 0 0 0
3241 1 -11.57028575391473 19.25759467784896 5.301287440767634 0 0 0
3242 1 -11.57001454941473 21.74745445784895 5.301287440767634 0 0 0
3243 1 -13.33059667641473 20.50277305684894 6.545462323767634 0 0 0
3244 1 -13.33059667641473 20.50277305684894 4.057157347167633 0 0 0
3245 1 -11.57001454941473 21.74745445784895 -7.140213554552366 0 0 1
3246 1 -11.56989831891473 24.23706574884896 -7.140212061572366 0 0 1
3247 1 -13.33051918941473 22.99263283684895 6.545447393967635 0 0 0
3248 1 -11.57168051991473 14.27688116184895 -4.651962325232366 0 0 0
3249 1 -11.57082816291473 16.76723791984894 -4.651932465632366 0 0 0
3250 1 -13.33156526391473 15.52255651884893 -3.407682933632366 0 0 0
3251 1 -13.33156526391473 15.52255651884893 -5.895987910232366 0 0 0
3252 1 -11.57082816291473 16.76723791984894 -2.163627489032366 0 0 0
3253 1 -11.57028575391473 19.25759467784896 -2.163612559232366 0 0 0
3254 1 -13.33086788091473 18.01291327684895 -0.9194227464323657 0 0 0
3255 1 -13.33086788091473 18.01291327684895 -3.407727723032365 0 0 0
3256 1 -11.57028575391473 19.25759467784896 0.3246774875676346 0 0 0
3257 1 -11.57001454941473 21.74745445784895 0.3246924173676335 0 0 0
3258 1 -13.33059667641473 20.50277305684894 1.568852370567635 0 0 0
3259 1 -13.33059667641473 20.50277305684894 -0.9194376762323655 0 0 0
3260 1 -11.57001454941473 21.74745445784895 2.812982464167636 0 0 0
3261 1 -11.56989831891473 24.23706574884896 2.812982464167636 0 0 0
3262 1 -13.33051918941473 22.99263283684895 4.057142417367634 0 0 0
3263 1 -13.33051918941473 22.99263283684895 1.568852370567635 0 0 0
3264 1 -11.56989831891473 24.23706574884896 5.301287440767634 0 0 0
3265 1 -11.56985957541473 26.72667703984895 5.301287440767634 0 0 0
3266 1 -13.33055793291473 25.48199563884894 6.545447393967635 0 0 0
3267 1 -13.33055793291473 25.48199563884894 4.057142417367634 0 0 0
3268 1 -11.56985957541473 26.72667703984895 -7.140212061572366 0 0 1
3269 1 -13.33086788091473 18.01291327684895 -5.896017769832365 0 0 0
3270 1 -11.57028575391473 19.25759467784896 -4.651917535832366 0 0 0
3271 1 -11.57001454941473 21.74745445784895 -4.651917535832366 0 0 0
3272 1 -13.33059667641473 20.50277305684894 -3.407742652832366 0 0 0
3273 1 -13.33059667641473 20.50277305684894 -5.896047629432366 0 0 0
3274 1 -11.57001454941473 21.74745445784895 -2.163612559232366 0 0 0
3275 1 -11.56989831891473 24.23706574884896 -2.163612559232366 0 0 0
3276 1 -13.33051918941473 22.99263283684895 -0.9194526060323653 0 0 0
3277 1 -13.33051918941473 22.99263283684895 -3.407757582632366 0 0 0
3278 1 -11.56989831891473 24.23706574884896 0.3246924173676335 0 0 0
3279 1 -11.56985957541473 26.72667703984895 0.3246924173676335 0 0 0
3280 1 -13.33055793291473 25.48199563884894 1.568837440767634 0 0 0
3281 1 -13.33055793291473 25.48199563884894 -0.9194526060323653 0 0 0
3282 1 -11.56985957541473 26.72667703984895 2.812982464167636 0 0 0
3283 1 -13.33051918941473 22.99263283684895 -5.896047629432366 0 0 0
3284 1 -11.56989831891473 24.23706574884896 -4.651917535832366 0 0 0
3285 1 -11.56985957541473 26.72667703984895 -4.651917535832366 0 0 0
3286 1 -13.33055793291473 25.48199563884894 -3.407757582632366 0 0 0
3287 1 -13.33055793291473 25.48199563884894 -5.896062559232366 0 0 0
3288 1 -11.56985957541473 26.72667703984895 -2.163612559232366 0 0 0
3289 1 -15.09230236491473 14.27812360684895 -7.139955269012366 0 0 1
3290 1 -15.09230236491473 14.27812360684895 2.813251200567635 0 0 0
3291 1 -15.09230236491473 14.27812360684895 5.301541247367634 0 0 0
3292 1 -15.09141126441473 16.76848036484897 5.301406879167633 0 0 0
3293 1 -15.09141126441473 16.76848036484897 -7.140091130192365 0 0 1
3294 1 -15.09114005991473 19.25834014484896 -7.140153835352366 0 0 1
3295 1 -15.09230236491473 14.27812360684895 -2.163358752632366 0 0 0
3296 1 -15.09230236491473 14.27812360684895 0.3249462239676344 0 0 0
3297 1 -15.09141126441473 16.76848036484897 0.3248118557676341 0 0 0
3298 1 -15.09141126441473 16.76848036484897 2.813101902567634 0 0 0
3299 1 -15.09114005991473 19.25834014484896 2.813042183367633 0 0 0
3300 1 -15.09114005991473 19.25834014484896 5.301347159967634 0 0 0
3301 1 -15.09114005991473 21.74795143584898 5.301317300367634 0 0 0
3302 1 -15.09114005991473 21.74795143584898 -7.140182201972365 0 0 1
3303 1 -15.09125629041473 24.23756272684896 -7.140197131772366 0 0 1
3304 1 -15.09230236491473 14.27812360684895 -4.651648799432365 0 0 0
3305 1 -15.09141126441473 16.76848036484897 -4.651798097432366 0 0 0
3306 1 -15.09141126441473 16.76848036484897 -2.163493120832365 0 0 0
3307 1 -15.09114005991473 19.25834014484896 -2.163552840032366 0 0 0
3308 1 -15.09114005991473 19.25834014484896 0.3247521365676338 0 0 0
3309 1 -15.09114005991473 21.74795143584898 0.324722276967635 0 0 0
3310 1 -15.09114005991473 21.74795143584898 2.813012323767634 0 0 0
3311 1 -15.09125629041473 24.23756272684896 2.812997393967635 0 0 0
3312 1 -15.09125629041473 24.23756272684896 5.301302370567635 0 0 0
3313 1 -15.09145000791473 26.72692552884895 5.301302370567635 0 0 0
3314 1 -15.09145000791473 26.72692552884895 -7.140204596672366 0 0 1
3315 1 -15.09114005991473 19.25834014484896 -4.651857816632366 0 0 0
3316 1 -15.09114005991473 21.74795143584898 -4.651887676232366 0 0 0
3317 1 -15.09114005991473 21.74795143584898 -2.163582699632365 0 0 0
3318 1 -15.09125629041473 24.23756272684896 -2.163597629432366 0 0 0
3319 1 -15.09125629041473 24.23756272684896 0.3247073471676343 0 0 0
3320 1 -15.09145000791473 26.72692552884895 0.3246924173676335 0 0 0
3321 1 -15.09145000791473 26.72692552884895 2.812997393967635 0 0 0
3322 1 -15.09125629041473 24.23756272684896 -4.651902606032365 0 0 0
3323 1 -15.09145000791473 26.72692552884895 -4.651902606032365 0 0 0
3324 1 -15.09145000791473 26.72692552884895 -2.163597629432366 0 0 0
3325 1 0.7564624365852701 27.97135844084896 6.545432464167636 0 0 0
3326 1 0.7564624365852701 27.97135844084896 4.057127487567636 0 0 0
3327 1 0.7564624365852701 27.97135844084896 1.568822510967635 0 0 0
3328 1 0.7568111280852712 30.46047275384895 6.545432464167636 0 0 0
3329 1 0.7568111280852712 30.46047275384895 4.057127487567636 0 0 0
3330 1 0.7571210760852694 32.94958706684896 6.545432464167636 0 0 0
3331 1 0.7564624365852701 27.97135844084896 -0.9194675358323661 0 0 0
3332 1 0.7564624365852701 27.97135844084896 -3.407772512432366 0 0 0
3333 1 0.7568111280852712 30.46047275384895 1.568837440767634 0 0 0
3334 1 0.7568111280852712 30.46047275384895 -0.9194675358323661 0 0 0
3335 1 0.7571210760852694 32.94958706684896 4.057142417367634 0 0 0
3336 1 0.7571210760852694 32.94958706684896 1.568837440767634 0 0 0
3337 1 0.7573535370852724 35.43845289084895 6.545432464167636 0 0 0
3338 1 0.7573535370852724 35.43845289084895 4.057142417367634 0 0 0
3339 1 0.7575472545852726 37.92756720384894 6.545432464167636 0 0 0
3340 1 0.7564624365852701 27.97135844084896 -5.896077489032366 0 0 0
3341 1 0.7568111280852712 30.46047275384895 -3.407772512432366 0 0 0
3342 1 0.7568111280852712 30.46047275384895 -5.896062559232366 0 0 0
3343 1 0.7571210760852694 32.94958706684896 -0.9194675358323661 0 0 0
3344 1 0.7571210760852694 32.94958706684896 -3.407757582632366 0 0 0
3345 1 0.7573535370852724 35.43845289084895 1.568837440767634 0 0 0
3346 1 0.7573535370852724 35.43845289084895 -0.9194675358323661 0 0 0
3347 1 0.7575472545852726 37.92756720384894 4.057142417367634 0 0 0
3348 1 0.7575472545852726 37.92756720384894 1.568837440767634 0 0 0
3349 1 0.7577022285852735 40.41668151684895 6.545432464167636 0 0 0
3350 1 0.7577022285852735 40.41668151684895 4.057142417367634 0 0 0
3351 1 0.7571210760852694 32.94958706684896 -5.896062559232366 0 0 0
3352 1 0.7573535370852724 35.43845289084895 -3.407757582632366 0 0 0
3353 1 0.7573535370852724 35.43845289084895 -5.896062559232366 0 0 0
3354 1 0.7575472545852726 37.92756720384894 -0.9194675358323661 0 0 0
3355 1 0.7575472545852726 37.92756720384894 -3.407757582632366 0 0 0
3356 1 0.7577022285852735 40.41668151684895 1.568837440767634 0 0 0
3357 1 0.7577022285852735 40.41668151684895 -0.9194675358323661 0 0 0
3358 1 0.7575472545852726 37.92756720384894 -5.896062559232366 0 0 0
3359 1 0.7577022285852735 40.41668151684895 -3.407757582632366 0 0 0
3360 1 0.7577022285852735 40.41668151684895 -5.896062559232366 0 0 0
3361 1 -1.004429638414727 29.21579135284897 -7.140218033492366 0 0 1
3362 1 -2.76563166141473 27.97135844084896 6.545432464167636 0 0 0
3363 1 -1.004429638414727 29.21579135284897 2.812982464167636 0 0 0
3364 1 -2.76563166141473 27.97135844084896 4.057127487567636 0 0 0
3365 1 -2.76563166141473 27.97135844084896 1.568822510967635 0 0 0
3366 1 -1.004429638414727 29.21579135284897 5.301287440767634 0 0 0
3367 1 -1.00408094691473 31.70490566584895 5.301287440767634 0 0 0
3368 1 -2.765282969914729 30.46047275384895 6.545432464167636 0 0 0
3369 1 -2.765282969914729 30.46047275384895 4.057127487567636 0 0 0
3370 1 -1.00408094691473 31.70490566584895 -7.140215047532366 0 0 1
3371 1 -1.003809742414731 34.19401997884897 -7.140213554552366 0 0 1
3372 1 -2.764973021914727 32.94958706684896 6.545432464167636 0 0 0
3373 1 -1.004429638414727 29.21579135284897 -2.163612559232366 0 0 0
3374 1 -2.76563166141473 27.97135844084896 -0.9194675358323661 0 0 0
3375 1 -2.76563166141473 27.97135844084896 -3.407772512432366 0 0 0
3376 1 -1.004429638414727 29.21579135284897 0.3246774875676346 0 0 0
3377 1 -1.00408094691473 31.70490566584895 0.3246924173676335 0 0 0
3378 1 -2.765282969914729 30.46047275384895 1.568837440767634 0 0 0
3379 1 -2.765282969914729 30.46047275384895 -0.9194675358323661 0 0 0
3380 1 -1.00408094691473 31.70490566584895 2.812982464167636 0 0 0
3381 1 -1.003809742414731 34.19401997884897 2.812982464167636 0 0 0
3382 1 -2.764973021914727 32.94958706684896 4.057142417367634 0 0 0
3383 1 -2.764973021914727 32.94958706684896 1.568837440767634 0 0 0
3384 1 -1.003809742414731 34.19401997884897 5.301287440767634 0 0 0
3385 1 -1.003577281414731 36.68313429184896 5.301287440767634 0 0 0
3386 1 -2.764740560914728 35.43870137984895 6.545432464167636 0 0 0
3387 1 -2.764740560914728 35.43870137984895 4.057142417367634 0 0 0
3388 1 -1.003577281414731 36.68313429184896 -7.140212061572366 0 0 1
3389 1 -1.003422307414731 39.17224860484897 -7.140212061572366 0 0 1
3390 1 -2.764546843414731 37.92781569284897 6.545432464167636 0 0 0
3391 1 -2.76563166141473 27.97135844084896 -5.896077489032366 0 0 0
3392 1 -1.004429638414727 29.21579135284897 -4.651917535832366 0 0 0
3393 1 -1.00408094691473 31.70490566584895 -4.651917535832366 0 0 0
3394 1 -2.765282969914729 30.46047275384895 -3.407772512432366 0 0 0
3395 1 -2.765282969914729 30.46047275384895 -5.896062559232366 0 0 0
3396 1 -1.00408094691473 31.70490566584895 -2.163612559232366 0 0 0
3397 1 -1.003809742414731 34.19401997884897 -2.163612559232366 0 0 0
3398 1 -2.764973021914727 32.94958706684896 -0.9194675358323661 0 0 0
3399 1 -2.764973021914727 32.94958706684896 -3.407757582632366 0 0 0
3400 1 -1.003809742414731 34.19401997884897 0.3246924173676335 0 0 0
3401 1 -1.003577281414731 36.68313429184896 0.3246924173676335 0 0 0
3402 1 -2.764740560914728 35.43870137984895 1.568837440767634 0 0 0
3403 1 -2.764740560914728 35.43870137984895 -0.9194675358323661 0 0 0
3404 1 -1.003577281414731 36.68313429184896 2.812982464167636 0 0 0
3405 1 -1.003422307414731 39.17224860484897 2.812982464167636 0 0 0
3406 1 -2.764546843414731 37.92781569284897 4.057142417367634 0 0 0
3407 1 -2.764546843414731 37.92781569284897 1.568837440767634 0 0 0
3408 1 -1.003422307414731 39.17224860484897 5.301287440767634 0 0 0
3409 1 -2.76439186941473 40.41693000584895 6.545432464167636 0 0 0
3410 1 -2.76439186941473 40.41693000584895 4.057142417367634 0 0 0
3411 1 -2.764973021914727 32.94958706684896 -5.896062559232366 0 0 0
3412 1 -1.003809742414731 34.19401997884897 -4.651917535832366 0 0 0
3413 1 -1.003577281414731 36.68313429184896 -4.651917535832366 0 0 0
3414 1 -2.764740560914728 35.43870137984895 -3.407757582632366 0 0 0
3415 1 -2.764740560914728 35.43870137984895 -5.896062559232366 0 0 0
3416 1 -1.003577281414731 36.68313429184896 -2.163612559232366 0 0 0
3417 1 -1.003422307414731 39.17224860484897 -2.163612559232366 0 0 0
3418 1 -2.764546843414731 37.92781569284897 -0.9194675358323661 0 0 0
3419 1 -2.764546843414731 37.92781569284897 -3.407757582632366 0 0 0
3420 1 -1.003422307414731 39.17224860484897 0.3246924173676335 0 0 0
3421 1 -2.76439186941473 40.41693000584895 1.568837440767634 0 0 0
3422 1 -2.76439186941473 40.41693000584895 -0.9194675358323661 0 0 0
3423 1 -2.764546843414731 37.92781569284897 -5.896062559232366 0 0 0
3424 1 -1.003422307414731 39.17224860484897 -4.651917535832366 0 0 0
3425 1 -2.76439186941473 40.41693000584895 -3.407757582632366 0 0 0
3426 1 -2.76439186941473 40.41693000584895 -5.896062559232366 0 0 0
3427 1 -4.52640750591473 29.21579135284897 -7.140218033492366 0 0 1
3428 1 -6.287454554914728 27.97110995184896 6.545432464167636 0 0 0
3429 1 -4.52640750591473 29.21579135284897 2.812982464167636 0 0 0
3430 1 -6.287454554914728 27.97110995184896 4.057127487567636 0 0 0
3431 1 -6.287454554914728 27.97110995184896 1.568837440767634 0 0 0
3432 1 -4.52640750591473 29.21579135284897 5.301287440767634 0 0 0
3433 1 -4.526097557914728 31.70490566584895 5.301287440767634 0 0 0
3434 1 -6.287183350414729 30.46047275384895 6.545432464167636 0 0 0
3435 1 -6.287183350414729 30.46047275384895 4.057127487567636 0 0 0
3436 1 -4.526097557914728 31.70490566584895 -7.140215047532366 0 0 1
3437 1 -4.525865096914728 34.19426846784894 -7.140213554552366 0 0 1
3438 1 -6.286950889414729 32.94958706684896 6.545432464167636 0 0 0
3439 1 -4.52640750591473 29.21579135284897 -2.163612559232366 0 0 0
3440 1 -6.287454554914728 27.97110995184896 -0.9194675358323661 0 0 0
3441 1 -6.287454554914728 27.97110995184896 -3.407772512432366 0 0 0
3442 1 -4.52640750591473 29.21579135284897 0.3246774875676346 0 0 0
3443 1 -4.526097557914728 31.70490566584895 0.3246924173676335 0 0 0
3444 1 -6.287183350414729 30.46047275384895 1.568837440767634 0 0 0
3445 1 -6.287183350414729 30.46047275384895 -0.9194675358323661 0 0 0
3446 1 -4.526097557914728 31.70490566584895 2.812982464167636 0 0 0
3447 1 -4.525865096914728 34.19426846784894 2.812982464167636 0 0 0
3448 1 -6.286950889414729 32.94958706684896 4.057142417367634 0 0 0
3449 1 -6.286950889414729 32.94958706684896 1.568837440767634 0 0 0
3450 1 -4.525865096914728 34.19426846784894 5.301287440767634 0 0 0
3451 1 -4.52567137941473 36.68338278084896 5.301287440767634 0 0 0
3452 1 -6.286757171914729 35.43870137984895 6.545432464167636 0 0 0
3453 1 -6.286757171914729 35.43870137984895 4.057142417367634 0 0 0
3454 1 -4.52567137941473 36.68338278084896 -7.140212061572366 0 0 1
3455 1 -4.525516405414729 39.17224860484897 -7.140212061572366 0 0 1
3456 1 -6.28664094141473 37.92781569284897 6.545432464167636 0 0 0
3457 1 -6.287454554914728 27.97110995184896 -5.896062559232366 0 0 0
3458 1 -4.52640750591473 29.21579135284897 -4.651917535832366 0 0 0
3459 1 -4.526097557914728 31.70490566584895 -4.651917535832366 0 0 0
3460 1 -6.287183350414729 30.46047275384895 -3.407772512432366 0 0 0
3461 1 -6.287183350414729 30.46047275384895 -5.896062559232366 0 0 0
3462 1 -4.526097557914728 31.70490566584895 -2.163612559232366 0 0 0
3463 1 -4.525865096914728 34.19426846784894 -2.163612559232366 0 0 0
3464 1 -6.286950889414729 32.94958706684896 -0.9194675358323661 0 0 0
3465 1 -6.286950889414729 32.94958706684896 -3.407757582632366 0 0 0
3466 1 -4.525865096914728 34.19426846784894 0.3246924173676335 0 0 0
3467 1 -4.52567137941473 36.68338278084896 0.3246924173676335 0 0 0
3468 1 -6.286757171914729 35.43870137984895 1.568837440767634 0 0 0
3469 1 -6.286757171914729 35.43870137984895 -0.9194675358323661 0 0 0
3470 1 -4.52567137941473 36.68338278084896 2.812982464167636 0 0 0
3471 1 -4.525516405414729 39.17224860484897 2.812982464167636 0 0 0
3472 1 -6.28664094141473 37.92781569284897 4.057142417367634 0 0 0
3473 1 -6.28664094141473 37.92781569284897 1.568837440767634 0 0 0
3474 1 -4.525516405414729 39.17224860484897 5.301287440767634 0 0 0
3475 1 -6.28652471091473 40.41693000584895 6.545432464167636 0 0 0
3476 1 -6.28652471091473 40.41693000584895 4.057142417367634 0 0 0
3477 1 -6.286950889414729 32.94958706684896 -5.896062559232366 0 0 0
3478 1 -4.525865096914728 34.19426846784894 -4.651917535832366 0 0 0
3479 1 -4.52567137941473 36.68338278084896 -4.651917535832366 0 0 0
3480 1 -6.286757171914729 35.43870137984895 -3.407757582632366 0 0 0
3481 1 -6.286757171914729 35.43870137984895 -5.896062559232366 0 0 0
3482 1 -4.52567137941473 36.68338278084896 -2.163612559232366 0 0 0
3483 1 -4.525516405414729 39.17224860484897 -2.163612559232366 0 0 0
3484 1 -6.28664094141473 37.92781569284897 -0.9194675358323661 0 0 0
3485 1 -6.28664094141473 37.92781569284897 -3.407757582632366 0 0 0
3486 1 -4.525516405414729 39.17224860484897 0.3246924173676335 0 0 0
3487 1 -6.28652471091473 40.41693000584895 1.568837440767634 0 0 0
3488 1 -6.28652471091473 40.41693000584895 -0.9194675358323661 0 0 0
3489 1 -6.28664094141473 37.92781569284897 -5.896062559232366 0 0 0
3490 1 -4.525516405414729 39.17224860484897 -4.651917535832366 0 0 0
3491 1 -6.28652471091473 40.41693000584895 -3.407757582632366 0 0 0
3492 1 -6.28652471091473 40.41693000584895 -5.896062559232366 0 0 0
3493 1 -8.048152912414729 29.21579135284897 -7.140215047532366 0 0 1
3494 1 -9.809044987414728 27.97135844084896 6.545432464167636 0 0 0
3495 1 -8.048152912414729 29.21579135284897 2.812982464167636 0 0 0
3496 1 -9.809044987414728 27.97135844084896 4.057142417367634 0 0 0
3497 1 -9.809044987414728 27.97135844084896 1.568837440767634 0 0 0
3498 1 -8.048152912414729 29.21579135284897 5.301287440767634 0 0 0
3499 1 -8.04795919491473 31.70515415484896 5.301287440767634 0 0 0
3500 1 -9.80892875691473 30.46047275384895 6.545432464167636 0 0 0
3501 1 -9.80892875691473 30.46047275384895 4.057142417367634 0 0 0
3502 1 -8.04795919491473 31.70515415484896 -7.140213554552366 0 0 1
3503 1 -8.047842964414729 34.19426846784894 -7.140212061572366 0 0 1
3504 1 -9.808851269914729 32.94983555584894 6.545432464167636 0 0 0
3505 1 -8.048152912414729 29.21579135284897 -2.163612559232366 0 0 0
3506 1 -9.809044987414728 27.97135844084896 -0.9194675358323661 0 0 0
3507 1 -9.809044987414728 27.97135844084896 -3.407757582632366 0 0 0
3508 1 -8.048152912414729 29.21579135284897 0.3246774875676346 0 0 0
3509 1 -8.04795919491473 31.70515415484896 0.3246924173676335 0 0 0
3510 1 -9.80892875691473 30.46047275384895 1.568837440767634 0 0 0
3511 1 -9.80892875691473 30.46047275384895 -0.9194675358323661 0 0 0
3512 1 -8.04795919491473 31.70515415484896 2.812982464167636 0 0 0
3513 1 -8.047842964414729 34.19426846784894 2.812982464167636 0 0 0
3514 1 -9.808851269914729 32.94983555584894 4.057142417367634 0 0 0
3515 1 -9.808851269914729 32.94983555584894 1.568837440767634 0 0 0
3516 1 -8.047842964414729 34.19426846784894 5.301287440767634 0 0 0
3517 1 -8.047726733914729 36.68338278084896 5.301287440767634 0 0 0
3518 1 -9.808773782914729 35.43894986884895 6.545432464167636 0 0 0
3519 1 -9.808773782914729 35.43894986884895 4.057142417367634 0 0 0
3520 1 -8.047726733914729 36.68338278084896 -7.140212061572366 0 0 1
3521 1 -8.047610503414729 39.17249709384895 -7.140212061572366 0 0 1
3522 1 -9.808696295914729 37.92781569284897 6.545432464167636 0 0 0
3523 1 -9.809044987414728 27.97135844084896 -5.896062559232366 0 0 0
3524 1 -8.048152912414729 29.21579135284897 -4.651917535832366 0 0 0
3525 1 -8.04795919491473 31.70515415484896 -4.651917535832366 0 0 0
3526 1 -9.80892875691473 30.46047275384895 -3.407757582632366 0 0 0
3527 1 -9.80892875691473 30.46047275384895 -5.896062559232366 0 0 0
3528 1 -8.04795919491473 31.70515415484896 -2.163612559232366 0 0 0
3529 1 -8.047842964414729 34.19426846784894 -2.163612559232366 0 0 0
3530 1 -9.808851269914729 32.94983555584894 -0.9194675358323661 0 0 0
3531 1 -9.808851269914729 32.94983555584894 -3.407757582632366 0 0 0
3532 1 -8.047842964414729 34.19426846784894 0.3246924173676335 0 0 0
3533 1 -8.047726733914729 36.68338278084896 0.3246924173676335 0 0 0
3534 1 -9.808773782914729 35.43894986884895 1.568837440767634 0 0 0
3535 1 -9.808773782914729 35.43894986884895 -0.9194675358323661 0 0 0
3536 1 -8.047726733914729 36.68338278084896 2.812982464167636 0 0 0
3537 1 -8.047610503414729 39.17249709384895 2.812982464167636 0 0 0
3538 1 -9.808696295914729 37.92781569284897 4.057142417367634 0 0 0
3539 1 -9.808696295914729 37.92781569284897 1.568837440767634 0 0 0
3540 1 -8.047610503414729 39.17249709384895 5.301287440767634 0 0 0
3541 1 -9.808618808914728 40.41693000584895 6.545432464167636 0 0 0
3542 1 -9.808618808914728 40.41693000584895 4.057142417367634 0 0 0
3543 1 -9.808851269914729 32.94983555584894 -5.896062559232366 0 0 0
3544 1 -8.047842964414729 34.19426846784894 -4.651917535832366 0 0 0
3545 1 -8.047726733914729 36.68338278084896 -4.651917535832366 0 0 0
3546 1 -9.808773782914729 35.43894986884895 -3.407757582632366 0 0 0
3547 1 -9.808773782914729 35.43894986884895 -5.896062559232366 0 0 0
3548 1 -8.047726733914729 36.68338278084896 -2.163612559232366 0 0 0
3549 1 -8.047610503414729 39.17249709384895 -2.163612559232366 0 0 0
3550 1 -9.808696295914729 37.92781569284897 -0.9194675358323661 0 0 0
3551 1 -9.808696295914729 37.92781569284897 -3.407757582632366 0 0 0
3552 1 -8.047610503414729 39.17249709384895 0.3246924173676335 0 0 0
3553 1 -9.808618808914728 40.41693000584895 1.568837440767634 0 0 0
3554 1 -9.808618808914728 40.41693000584895 -0.9194675358323661 0 0 0
3555 1 -9.808696295914729 37.92781569284897 -5.896062559232366 0 0 0
3556 1 -8.047610503414729 39.17249709384895 -4.651917535832366 0 0 0
3557 1 -9.808618808914728 40.41693000584895 -3.407757582632366 0 0 0
3558 1 -9.808618808914728 40.41693000584895 -5.896062559232366 0 0 0
3559 1 -11.56982083191473 29.21603984184894 -7.140212061572366 0 0 1
3560 1 -13.33063541991473 27.97135844084896 6.545447393967635 0 0 0
3561 1 -11.56982083191473 29.21603984184894 2.812982464167636 0 0 0
3562 1 -13.33063541991473 27.97135844084896 4.057142417367634 0 0 0
3563 1 -13.33063541991473 27.97135844084896 1.568837440767634 0 0 0
3564 1 -11.56982083191473 29.21603984184894 5.301287440767634 0 0 0
3565 1 -11.56982083191473 31.70515415484896 5.301287440767634 0 0 0
3566 1 -13.33071290691473 30.46072124284895 6.545432464167636 0 0 0
3567 1 -13.33071290691473 30.46072124284895 4.057142417367634 0 0 0
3568 1 -11.56982083191473 31.70515415484896 -7.140212061572366 0 0 1
3569 1 -11.56978208841473 34.19426846784894 -7.140212061572366 0 0 1
3570 1 -13.33075165041473 32.94983555584894 6.545432464167636 0 0 0
3571 1 -11.56982083191473 29.21603984184894 -2.163612559232366 0 0 0
3572 1 -13.33063541991473 27.97135844084896 -0.9194526060323653 0 0 0
3573 1 -13.33063541991473 27.97135844084896 -3.407757582632366 0 0 0
3574 1 -11.56982083191473 29.21603984184894 0.3246924173676335 0 0 0
3575 1 -11.56982083191473 31.70515415484896 0.3246924173676335 0 0 0
3576 1 -13.33071290691473 30.46072124284895 1.568837440767634 0 0 0
3577 1 -13.33071290691473 30.46072124284895 -0.9194675358323661 0 0 0
3578 1 -11.56982083191473 31.70515415484896 2.812982464167636 0 0 0
3579 1 -11.56978208841473 34.19426846784894 2.812982464167636 0 0 0
3580 1 -13.33075165041473 32.94983555584894 4.057142417367634 0 0 0
3581 1 -13.33075165041473 32.94983555584894 1.568837440767634 0 0 0
3582 1 -11.56978208841473 34.19426846784894 5.301287440767634 0 0 0
3583 1 -11.56974334491473 36.68338278084896 5.301287440767634 0 0 0
3584 1 -13.33079039391473 35.43894986884895 6.545432464167636 0 0 0
3585 1 -13.33079039391473 35.43894986884895 4.057142417367634 0 0 0
3586 1 -11.56974334491473 36.68338278084896 -7.140212061572366 0 0 1
3587 1 -11.56970460141473 39.17249709384895 -7.140212061572366 0 0 1
3588 1 -13.33075165041473 37.92781569284897 6.545432464167636 0 0 0
3589 1 -13.33063541991473 27.97135844084896 -5.896062559232366 0 0 0
3590 1 -11.56982083191473 29.21603984184894 -4.651917535832366 0 0 0
3591 1 -11.56982083191473 31.70515415484896 -4.651917535832366 0 0 0
3592 1 -13.33071290691473 30.46072124284895 -3.407757582632366 0 0 0
3593 1 -13.33071290691473 30.46072124284895 -5.896062559232366 0 0 0
3594 1 -11.56982083191473 31.70515415484896 -2.163612559232366 0 0 0
3595 1 -11.56978208841473 34.19426846784894 -2.163612559232366 0 0 0
3596 1 -13.33075165041473 32.94983555584894 -0.9194675358323661 0 0 0
3597 1 -13.33075165041473 32.94983555584894 -3.407757582632366 0 0 0
3598 1 -11.56978208841473 34.19426846784894 0.3246924173676335 0 0 0
3599 1 -11.56974334491473 36.68338278084896 0.3246924173676335 0 0 0
3600 1 -13.33079039391473 35.43894986884895 1.568837440767634 0 0 0
3601 1 -13.33079039391473 35.43894986884895 -0.9194675358323661 0 0 0
3602 1 -11.56974334491473 36.68338278084896 2.812982464167636 0 0 0
3603 1 -11.56970460141473 39.17249709384895 2.812982464167636 0 0 0
3604 1 -13.33075165041473 37.92781569284897 4.057142417367634 0 0 0
3605 1 -13.33075165041473 37.92781569284897 1.568837440767634 0 0 0
3606 1 -11.56970460141473 39.17249709384895 5.301287440767634 0 0 0
3607 1 -13.33075165041473 40.41693000584895 6.545432464167636 0 0 0
3608 1 -13.33075165041473 40.41693000584895 4.057142417367634 0 0 0
3609 1 -13.33075165041473 32.94983555584894 -5.896062559232366 0 0 0
3610 1 -11.56978208841473 34.19426846784894 -4.651917535832366 0 0 0
3611 1 -11.56974334491473 36.68338278084896 -4.651917535832366 0 0 0
3612 1 -13.33079039391473 35.43894986884895 -3.407757582632366 0 0 0
3613 1 -13.33079039391473 35.43894986884895 -5.896062559232366 0 0 0
3614 1 -11.56974334491473 36.68338278084896 -2.163612559232366 0 0 0
3615 1 -11.56970460141473 39.17249709384895 -2.163612559232366 0 0 0
3616 1 -13.33075165041473 37.92781569284897 -0.9194675358323661 0 0 0
3617 1 -13.33075165041473 37.92781569284897 -3.407757582632366 0 0 0
3618 1 -11.56970460141473 39.17249709384895 0.3246924173676335 0 0 0
3619 1 -13.33075165041473 40.41693000584895 1.568837440767634 0 0 0
3620 1 -13.33075165041473 40.41693000584895 -0.9194675358323661 0 0 0
3621 1 -13.33075165041473 37.92781569284897 -5.896062559232366 0 0 0
3622 1 -11.56970460141473 39.17249709384895 -4.651917535832366 0 0 0
3623 1 -13.33075165041473 40.41693000584895 -3.407757582632366 0 0 0
3624 1 -13.33075165041473 40.41693000584895 -5.896062559232366 0 0 0
3625 1 -15.09160498191473 29.21603984184894 -7.140207582632366 0 0 1
3626 1 -15.09160498191473 29.21603984184894 2.812997393967635 0 0 0
3627 1 -15.09160498191473 29.21603984184894 5.301287440767634 0 0 0
3628 1 -15.09172121241473 31.70515415484896 5.301287440767634 0 0 0
3629 1 -15.09172121241473 31.70515415484896 -7.140209075612366 0 0 1
3630 1 -15.09175995591473 34.19426846784894 -7.140210568592366 0 0 1
3631 1 -15.09160498191473 29.21603984184894 -2.163612559232366 0 0 0
3632 1 -15.09160498191473 29.21603984184894 0.3246924173676335 0 0 0
3633 1 -15.09172121241473 31.70515415484896 0.3246924173676335 0 0 0
3634 1 -15.09172121241473 31.70515415484896 2.812997393967635 0 0 0
3635 1 -15.09175995591473 34.19426846784894 2.812982464167636 0 0 0
3636 1 -15.09175995591473 34.19426846784894 5.301287440767634 0 0 0
3637 1 -15.09179869941473 36.68338278084896 5.301287440767634 0 0 0
3638 1 -15.09179869941473 36.68338278084896 -7.140210568592366 0 0 1
3639 1 -15.09179869941473 39.17249709384895 -7.140210568592366 0 0 1
3640 1 -15.09160498191473 29.21603984184894 -4.651902606032365 0 0 0
3641 1 -15.09172121241473 31.70515415484896 -4.651902606032365 0 0 0
3642 1 -15.09172121241473 31.70515415484896 -2.163612559232366 0 0 0
3643 1 -15.09175995591473 34.19426846784894 -2.163612559232366 0 0 0
3644 1 -15.09175995591473 34.19426846784894 0.3246924173676335 0 0 0
3645 1 -15.09179869941473 36.68338278084896 0.3246924173676335 0 0 0
3646 1 -15.09179869941473 36.68338278084896 2.812982464167636 0 0 0
3647 1 -15.09179869941473 39.17249709384895 2.812982464167636 0 0 0
3648 1 -15.09179869941473 39.17249709384895 5.301287440767634 0 0 0
3649 1 -15.09175995591473 34.19426846784894 -4.651917535832366 0 0 0
3650 1 -15.09179869941473 36.68338278084896 -4.651917535832366 0 0 0
3651 1 -15.09179869941473 36.68338278084896 -2.163612559232366 0 0 0
3652 1 -15.09179869941473 39.17249709384895 -2.163612559232366 0 0 0
3653 1 -15.09179869941473 39.17249709384895 0.3246924173676335 0 0 0
3654 1 -15.09179869941473 39.17249709384895 -4.651917535832366 0 0 0
3655 1 0.7578184590852715 42.90579582984894 6.545432464167636 0 0 0
3656 1 0.7578184590852715 42.90579582984894 4.057142417367634 0 0 0
3657 1 0.7578184590852715 42.90579582984894 1.568837440767634 0 0 0
3658 1 0.7579346895852694 45.39491014284896 6.545432464167636 0 0 0
3659 1 0.7579346895852694 45.39491014284896 4.057142417367634 0 0 0
3660 1 0.7580121765852716 47.88402445584894 6.545432464167636 0 0 0
3661 1 0.7578184590852715 42.90579582984894 -0.9194675358323661 0 0 0
3662 1 0.7578184590852715 42.90579582984894 -3.407757582632366 0 0 0
3663 1 0.7579346895852694 45.39491014284896 1.568837440767634 0 0 0
3664 1 0.7579346895852694 45.39491014284896 -0.9194675358323661 0 0 0
3665 1 0.7580121765852716 47.88402445584894 4.057142417367634 0 0 0
3666 1 0.7580121765852716 47.88402445584894 1.568837440767634 0 0 0
3667 1 0.7580896635852703 50.37313876884896 6.545432464167636 0 0 0
3668 1 0.7580896635852703 50.37313876884896 4.057142417367634 0 0 0
3669 1 0.758167150585269 52.86225308184895 6.545432464167636 0 0 0
3670 1 0.7578184590852715 42.90579582984894 -5.896062559232366 0 0 0
3671 1 0.7579346895852694 45.39491014284896 -3.407757582632366 0 0 0
3672 1 0.7579346895852694 45.39491014284896 -5.896062559232366 0 0 0
3673 1 0.7580121765852716 47.88402445584894 -0.9194675358323661 0 0 0
3674 1 0.7580121765852716 47.88402445584894 -3.407757582632366 0 0 0
3675 1 0.7580896635852703 50.37313876884896 1.568837440767634 0 0 0
3676 1 0.7580896635852703 50.37313876884896 -0.9194675358323661 0 0 0
3677 1 0.758167150585269 52.86225308184895 4.057142417367634 0 0 0
3678 1 0.758167150585269 52.86225308184895 1.568837440767634 0 0 0
3679 1 0.7580121765852716 47.88402445584894 -5.896062559232366 0 0 0
3680 1 0.7580896635852703 50.37313876884896 -3.407757582632366 0 0 0
3681 1 0.7580896635852703 50.37313876884896 -5.896062559232366 0 0 0
3682 1 0.758167150585269 52.86225308184895 -0.9194675358323661 0 0 0
3683 1 0.758167150585269 52.86225308184895 -3.407757582632366 0 0 0
3684 1 0.758167150585269 52.86225308184895 -5.896062559232366 0 0 0
3685 1 -1.003306076914729 41.66136291784893 5.301287440767634 0 0 0
3686 1 -1.003306076914729 41.66136291784893 -7.140212061572366 0 0 1
3687 1 -1.003189846414731 44.15047723084895 -7.140212061572366 0 0 1
3688 1 -2.764275638914729 42.90604431884897 6.545432464167636 0 0 0
3689 1 -1.003306076914729 41.66136291784893 0.3246924173676335 0 0 0
3690 1 -1.003306076914729 41.66136291784893 2.812982464167636 0 0 0
3691 1 -1.003189846414731 44.15047723084895 2.812982464167636 0 0 0
3692 1 -2.764275638914729 42.90604431884897 4.057142417367634 0 0 0
3693 1 -2.764275638914729 42.90604431884897 1.568837440767634 0 0 0
3694 1 -1.003189846414731 44.15047723084895 5.301287440767634 0 0 0
3695 1 -1.00307361591473 46.63959154384894 5.301287440767634 0 0 0
3696 1 -2.76419815191473 45.39491014284896 6.545432464167636 0 0 0
3697 1 -2.76419815191473 45.39491014284896 4.057142417367634 0 0 0
3698 1 -1.00307361591473 46.63959154384894 -7.140212061572366 0 0 1
3699 1 -1.002996128914731 49.12845736784895 -7.140212061572366 0 0 1
3700 1 -2.764120664914731 47.88402445584894 6.545432464167636 0 0 0
3701 1 -1.003306076914729 41.66136291784893 -4.651917535832366 0 0 0
3702 1 -1.003306076914729 41.66136291784893 -2.163612559232366 0 0 0
3703 1 -1.003189846414731 44.15047723084895 -2.163612559232366 0 0 0
3704 1 -2.764275638914729 42.90604431884897 -0.9194675358323661 0 0 0
3705 1 -2.764275638914729 42.90604431884897 -3.407757582632366 0 0 0
3706 1 -1.003189846414731 44.15047723084895 0.3246924173676335 0 0 0
3707 1 -1.00307361591473 46.63959154384894 0.3246924173676335 0 0 0
3708 1 -2.76419815191473 45.39491014284896 1.568837440767634 0 0 0
3709 1 -2.76419815191473 45.39491014284896 -0.9194675358323661 0 0 0
3710 1 -1.00307361591473 46.63959154384894 2.812982464167636 0 0 0
3711 1 -1.002996128914731 49.12845736784895 2.812982464167636 0 0 0
3712 1 -2.764120664914731 47.88402445584894 4.057142417367634 0 0 0
3713 1 -2.764120664914731 47.88402445584894 1.568837440767634 0 0 0
3714 1 -1.002996128914731 49.12845736784895 5.301287440767634 0 0 0
3715 1 -1.002957385414728 51.61757168084894 5.301287440767634 0 0 0
3716 1 -2.764043177914729 50.37313876884896 6.545432464167636 0 0 0
3717 1 -2.764043177914729 50.37313876884896 4.057142417367634 0 0 0
3718 1 -1.002957385414728 51.61757168084894 -7.140212061572366 0 0 1
3719 1 -1.002879898414729 54.10668599384896 -7.140210568592366 0 0 1
3720 1 -2.763965690914731 52.86225308184895 6.545432464167636 0 0 0
3721 1 -2.764275638914729 42.90604431884897 -5.896062559232366 0 0 0
3722 1 -1.003189846414731 44.15047723084895 -4.651917535832366 0 0 0
3723 1 -1.00307361591473 46.63959154384894 -4.651917535832366 0 0 0
3724 1 -2.76419815191473 45.39491014284896 -3.407757582632366 0 0 0
3725 1 -2.76419815191473 45.39491014284896 -5.896062559232366 0 0 0
3726 1 -1.00307361591473 46.63959154384894 -2.163612559232366 0 0 0
3727 1 -1.002996128914731 49.12845736784895 -2.163612559232366 0 0 0
3728 1 -2.764120664914731 47.88402445584894 -0.9194675358323661 0 0 0
3729 1 -2.764120664914731 47.88402445584894 -3.407757582632366 0 0 0
3730 1 -1.002996128914731 49.12845736784895 0.3246924173676335 0 0 0
3731 1 -1.002957385414728 51.61757168084894 0.3246924173676335 0 0 0
3732 1 -2.764043177914729 50.37313876884896 1.568837440767634 0 0 0
3733 1 -2.764043177914729 50.37313876884896 -0.9194675358323661 0 0 0
3734 1 -1.002957385414728 51.61757168084894 2.812982464167636 0 0 0
3735 1 -1.002879898414729 54.10668599384896 2.812982464167636 0 0 0
3736 1 -2.763965690914731 52.86225308184895 4.057142417367634 0 0 0
3737 1 -2.763965690914731 52.86225308184895 1.568837440767634 0 0 0
3738 1 -1.002879898414729 54.10668599384896 5.301287440767634 0 0 0
3739 1 -2.764120664914731 47.88402445584894 -5.896062559232366 0 0 0
3740 1 -1.002996128914731 49.12845736784895 -4.651917535832366 0 0 0
3741 1 -1.002957385414728 51.61757168084894 -4.651917535832366 0 0 0
3742 1 -2.764043177914729 50.37313876884896 -3.407757582632366 0 0 0
3743 1 -2.764043177914729 50.37313876884896 -5.896062559232366 0 0 0
3744 1 -1.002957385414728 51.61757168084894 -2.163612559232366 0 0 0
3745 1 -1.002879898414729 54.10668599384896 -2.163612559232366 0 0 0
3746 1 -2.763965690914731 52.86225308184895 -0.9194675358323661 0 0 0
3747 1 -2.763965690914731 52.86225308184895 -3.407757582632366 0 0 0
3748 1 -1.002879898414729 54.10668599384896 0.3246924173676335 0 0 0
3749 1 -2.763965690914731 52.86225308184895 -5.896062559232366 0 0 0
3750 1 -1.002879898414729 54.10668599384896 -4.651917535832366 0 0 0
3751 1 -4.525400174914729 41.66136291784893 5.301287440767634 0 0 0
3752 1 -4.525400174914729 41.66136291784893 -7.140212061572366 0 0 1
3753 1 -4.525322687914731 44.15047723084895 -7.140212061572366 0 0 1
3754 1 -6.286408480414728 42.90604431884897 6.545432464167636 0 0 0
3755 1 -4.525400174914729 41.66136291784893 0.3246924173676335 0 0 0
3756 1 -4.525400174914729 41.66136291784893 2.812982464167636 0 0 0
3757 1 -4.525322687914731 44.15047723084895 2.812982464167636 0 0 0
3758 1 -6.286408480414728 42.90604431884897 4.057142417367634 0 0 0
3759 1 -6.286408480414728 42.90604431884897 1.568837440767634 0 0 0
3760 1 -4.525322687914731 44.15047723084895 5.301287440767634 0 0 0
3761 1 -4.52524520091473 46.63959154384894 5.301287440767634 0 0 0
3762 1 -6.286330993414728 45.39515863184896 6.545432464167636 0 0 0
3763 1 -6.286330993414728 45.39515863184896 4.057142417367634 0 0 0
3764 1 -4.52524520091473 46.63959154384894 -7.140212061572366 0 0 1
3765 1 -4.52516771391473 49.12870585684895 -7.140212061572366 0 0 1
3766 1 -6.286253506414729 47.88402445584894 6.545432464167636 0 0 0
3767 1 -4.525400174914729 41.66136291784893 -4.651917535832366 0 0 0
3768 1 -4.525400174914729 41.66136291784893 -2.163612559232366 0 0 0
3769 1 -4.525322687914731 44.15047723084895 -2.163612559232366 0 0 0
3770 1 -6.286408480414728 42.90604431884897 -0.9194675358323661 0 0 0
3771 1 -6.286408480414728 42.90604431884897 -3.407757582632366 0 0 0
3772 1 -4.525322687914731 44.15047723084895 0.3246924173676335 0 0 0
3773 1 -4.52524520091473 46.63959154384894 0.3246924173676335 0 0 0
3774 1 -6.286330993414728 45.39515863184896 1.568837440767634 0 0 0
3775 1 -6.286330993414728 45.39515863184896 -0.9194675358323661 0 0 0
3776 1 -4.52524520091473 46.63959154384894 2.812982464167636 0 0 0
3777 1 -4.52516771391473 49.12870585684895 2.812982464167636 0 0 0
3778 1 -6.286253506414729 47.88402445584894 4.057142417367634 0 0 0
3779 1 -6.286253506414729 47.88402445584894 1.568837440767634 0 0 0
3780 1 -4.52516771391473 49.12870585684895 5.301287440767634 0 0 0
3781 1 -4.525090226914729 51.61757168084894 5.301287440767634 0 0 0
3782 1 -6.286176019414729 50.37313876884896 6.545432464167636 0 0 0
3783 1 -6.286176019414729 50.37313876884896 4.057142417367634 0 0 0
3784 1 -4.525090226914729 51.61757168084894 -7.140212061572366 0 0 1
3785 1 -4.525012739914729 54.10668599384896 -7.140212061572366 0 0 1
3786 1 -6.286137275914729 52.86225308184895 6.545432464167636 0 0 0
3787 1 -6.286408480414728 42.90604431884897 -5.896062559232366 0 0 0
3788 1 -4.525322687914731 44.15047723084895 -4.651917535832366 0 0 0
3789 1 -4.52524520091473 46.63959154384894 -4.651917535832366 0 0 0
3790 1 -6.286330993414728 45.39515863184896 -3.407757582632366 0 0 0
3791 1 -6.286330993414728 45.39515863184896 -5.896062559232366 0 0 0
3792 1 -4.52524520091473 46.63959154384894 -2.163612559232366 0 0 0
3793 1 -4.52516771391473 49.12870585684895 -2.163612559232366 0 0 0
3794 1 -6.286253506414729 47.88402445584894 -0.9194675358323661 0 0 0
3795 1 -6.286253506414729 47.88402445584894 -3.407757582632366 0 0 0
3796 1 -4.52516771391473 49.12870585684895 0.3246924173676335 0 0 0
3797 1 -4.525090226914729 51.61757168084894 0.3246924173676335 0 0 0
3798 1 -6.286176019414729 50.37313876884896 1.568837440767634 0 0 0
3799 1 -6.286176019414729 50.37313876884896 -0.9194675358323661 0 0 0
3800 1 -4.525090226914729 51.61757168084894 2.812982464167636 0 0 0
3801 1 -4.525012739914729 54.10668599384896 2.812982464167636 0 0 0
3802 1 -6.286137275914729 52.86225308184895 4.057142417367634 0 0 0
3803 1 -6.286137275914729 52.86225308184895 1.568837440767634 0 0 0
3804 1 -4.525012739914729 54.10668599384896 5.301287440767634 0 0 0
3805 1 -6.286253506414729 47.88402445584894 -5.896062559232366 0 0 0
3806 1 -4.52516771391473 49.12870585684895 -4.651917535832366 0 0 0
3807 1 -4.525090226914729 51.61757168084894 -4.651917535832366 0 0 0
3808 1 -6.286176019414729 50.37313876884896 -3.407757582632366 0 0 0
3809 1 -6.286176019414729 50.37313876884896 -5.896062559232366 0 0 0
3810 1 -4.525090226914729 51.61757168084894 -2.163612559232366 0 0 0
3811 1 -4.525012739914729 54.10668599384896 -2.163612559232366 0 0 0
3812 1 -6.286137275914729 52.86225308184895 -0.9194675358323661 0 0 0
3813 1 -6.286137275914729 52.86225308184895 -3.407757582632366 0 0 0
3814 1 -4.525012739914729 54.10668599384896 0.3246924173676335 0 0 0
3815 1 -6.286137275914729 52.86225308184895 -5.896062559232366 0 0 0
3816 1 -4.525012739914729 54.10668599384896 -4.651917535832366 0 0 0
3817 1 -8.047533016414729 41.66136291784893 5.301287440767634 0 0 0
3818 1 -8.047533016414729 41.66136291784893 -7.140212061572366 0 0 1
3819 1 -8.047455529414728 44.15047723084895 -7.140212061572366 0 0 1
3820 1 -9.808541321914729 42.90604431884897 6.545432464167636 0 0 0
3821 1 -8.047533016414729 41.66136291784893 0.3246924173676335 0 0 0
3822 1 -8.047533016414729 41.66136291784893 2.812982464167636 0 0 0
3823 1 -8.047455529414728 44.15047723084895 2.812982464167636 0 0 0
3824 1 -9.808541321914729 42.90604431884897 4.057142417367634 0 0 0
3825 1 -9.808541321914729 42.90604431884897 1.568837440767634 0 0 0
3826 1 -8.047455529414728 44.15047723084895 5.301287440767634 0 0 0
3827 1 -8.047378042414728 46.63959154384894 5.301287440767634 0 0 0
3828 1 -9.808502578414728 45.39515863184896 6.545432464167636 0 0 0
3829 1 -9.808502578414728 45.39515863184896 4.057142417367634 0 0 0
3830 1 -8.047378042414728 46.63959154384894 -7.140212061572366 0 0 1
3831 1 -8.047300555414727 49.12870585684895 -7.140212061572366 0 0 1
3832 1 -9.808425091414728 47.88402445584894 6.545432464167636 0 0 0
3833 1 -8.047533016414729 41.66136291784893 -4.651917535832366 0 0 0
3834 1 -8.047533016414729 41.66136291784893 -2.163612559232366 0 0 0
3835 1 -8.047455529414728 44.15047723084895 -2.163612559232366 0 0 0
3836 1 -9.808541321914729 42.90604431884897 -0.9194675358323661 0 0 0
3837 1 -9.808541321914729 42.90604431884897 -3.407757582632366 0 0 0
3838 1 -8.047455529414728 44.15047723084895 0.3246924173676335 0 0 0
3839 1 -8.047378042414728 46.63959154384894 0.3246924173676335 0 0 0
3840 1 -9.808502578414728 45.39515863184896 1.568837440767634 0 0 0
3841 1 -9.808502578414728 45.39515863184896 -0.9194675358323661 0 0 0
3842 1 -8.047378042414728 46.63959154384894 2.812982464167636 0 0 0
3843 1 -8.047300555414727 49.12870585684895 2.812982464167636 0 0 0
3844 1 -9.808425091414728 47.88402445584894 4.057142417367634 0 0 0
3845 1 -9.808425091414728 47.88402445584894 1.568837440767634 0 0 0
3846 1 -8.047300555414727 49.12870585684895 5.301287440767634 0 0 0
3847 1 -8.047223068414729 51.61757168084894 5.301287440767634 0 0 0
3848 1 -9.808347604414729 50.37313876884896 6.545432464167636 0 0 0
3849 1 -9.808347604414729 50.37313876884896 4.057142417367634 0 0 0
3850 1 -8.047223068414729 51.61757168084894 -7.140212061572366 0 0 1
3851 1 -8.047184324914729 54.10668599384896 -7.140210568592366 0 0 1
3852 1 -9.808270117414729 52.86225308184895 6.545432464167636 0 0 0
3853 1 -9.808541321914729 42.90604431884897 -5.896062559232366 0 0 0
3854 1 -8.047455529414728 44.15047723084895 -4.651917535832366 0 0 0
3855 1 -8.047378042414728 46.63959154384894 -4.651917535832366 0 0 0
3856 1 -9.808502578414728 45.39515863184896 -3.407757582632366 0 0 0
3857 1 -9.808502578414728 45.39515863184896 -5.896062559232366 0 0 0
3858 1 -8.047378042414728 46.63959154384894 -2.163612559232366 0 0 0
3859 1 -8.047300555414727 49.12870585684895 -2.163612559232366 0 0 0
3860 1 -9.808425091414728 47.88402445584894 -0.9194675358323661 0 0 0
3861 1 -9.808425091414728 47.88402445584894 -3.407757582632366 0 0 0
3862 1 -8.047300555414727 49.12870585684895 0.3246924173676335 0 0 0
3863 1 -8.047223068414729 51.61757168084894 0.3246924173676335 0 0 0
3864 1 -9.808347604414729 50.37313876884896 1.568837440767634 0 0 0
3865 1 -9.808347604414729 50.37313876884896 -0.9194675358323661 0 0 0
3866 1 -8.047223068414729 51.61757168084894 2.812982464167636 0 0 0
3867 1 -8.047184324914729 54.10668599384896 2.812982464167636 0 0 0
3868 1 -9.808270117414729 52.86225308184895 4.057142417367634 0 0 0
3869 1 -9.808270117414729 52.86225308184895 1.568837440767634 0 0 0
3870 1 -8.047184324914729 54.10668599384896 5.301287440767634 0 0 0
3871 1 -9.808425091414728 47.88402445584894 -5.896062559232366 0 0 0
3872 1 -8.047300555414727 49.12870585684895 -4.651917535832366 0 0 0
3873 1 -8.047223068414729 51.61757168084894 -4.651917535832366 0 0 0
3874 1 -9.808347604414729 50.37313876884896 -3.407757582632366 0 0 0
3875 1 -9.808347604414729 50.37313876884896 -5.896062559232366 0 0 0
3876 1 -8.047223068414729 51.61757168084894 -2.163612559232366 0 0 0
3877 1 -8.047184324914729 54.10668599384896 -2.163612559232366 0 0 0
3878 1 -9.808270117414729 52.86225308184895 -0.9194675358323661 0 0 0
3879 1 -9.808270117414729 52.86225308184895 -3.407757582632366 0 0 0
3880 1 -8.047184324914729 54.10668599384896 0.3246924173676335 0 0 0
3881 1 -9.808270117414729 52.86225308184895 -5.896062559232366 0 0 0
3882 1 -8.047184324914729 54.10668599384896 -4.651917535832366 0 0 0
3883 1 -11.56966585791473 41.66161140684896 5.301287440767634 0 0 0
3884 1 -11.56966585791473 41.66161140684896 -7.140212061572366 0 0 1
3885 1 -11.56958837091473 44.15047723084895 -7.140212061572366 0 0 1
3886 1 -13.33071290691473 42.90604431884897 6.545432464167636 0 0 0
3887 1 -11.56966585791473 41.66161140684896 0.3246924173676335 0 0 0
3888 1 -11.56966585791473 41.66161140684896 2.812982464167636 0 0 0
3889 1 -11.56958837091473 44.15047723084895 2.812982464167636 0 0 0
3890 1 -13.33071290691473 42.90604431884897 4.057142417367634 0 0 0
3891 1 -13.33071290691473 42.90604431884897 1.568837440767634 0 0 0
3892 1 -11.56958837091473 44.15047723084895 5.301287440767634 0 0 0
3893 1 -11.56954962741473 46.63959154384894 5.301287440767634 0 0 0
3894 1 -13.33063541991473 45.39515863184896 6.545432464167636 0 0 0
3895 1 -13.33063541991473 45.39515863184896 4.057142417367634 0 0 0
3896 1 -11.56954962741473 46.63959154384894 -7.140212061572366 0 0 1
3897 1 -11.56947214041473 49.12870585684895 -7.140212061572366 0 0 1
3898 1 -13.33059667641473 47.88402445584894 6.545432464167636 0 0 0
3899 1 -11.56966585791473 41.66161140684896 -4.651917535832366 0 0 0
3900 1 -11.56966585791473 41.66161140684896 -2.163612559232366 0 0 0
3901 1 -11.56958837091473 44.15047723084895 -2.163612559232366 0 0 0
3902 1 -13.33071290691473 42.90604431884897 -0.9194675358323661 0 0 0
3903 1 -13.33071290691473 42.90604431884897 -3.407757582632366 0 0 0
3904 1 -11.56958837091473 44.15047723084895 0.3246924173676335 0 0 0
3905 1 -11.56954962741473 46.63959154384894 0.3246924173676335 0 0 0
3906 1 -13.33063541991473 45.39515863184896 1.568837440767634 0 0 0
3907 1 -13.33063541991473 45.39515863184896 -0.9194675358323661 0 0 0
3908 1 -11.56954962741473 46.63959154384894 2.812982464167636 0 0 0
3909 1 -11.56947214041473 49.12870585684895 2.812982464167636 0 0 0
3910 1 -13.33059667641473 47.88402445584894 4.057142417367634 0 0 0
3911 1 -13.33059667641473 47.88402445584894 1.568837440767634 0 0 0
3912 1 -11.56947214041473 49.12870585684895 5.301287440767634 0 0 0
3913 1 -11.56939465341473 51.61757168084894 5.301287440767634 0 0 0
3914 1 -13.33051918941473 50.37313876884896 6.545432464167636 0 0 0
3915 1 -13.33051918941473 50.37313876884896 4.057142417367634 0 0 0
3916 1 -11.56939465341473 51.61757168084894 -7.140212061572366 0 0 1
3917 1 -11.56931716641473 54.10668599384896 -7.140210568592366 0 0 1
3918 1 -13.33044170241473 52.86225308184895 6.545432464167636 0 0 0
3919 1 -13.33071290691473 42.90604431884897 -5.896062559232366 0 0 0
3920 1 -11.56958837091473 44.15047723084895 -4.651917535832366 0 0 0
3921 1 -11.56954962741473 46.63959154384894 -4.651917535832366 0 0 0
3922 1 -13.33063541991473 45.39515863184896 -3.407757582632366 0 0 0
3923 1 -13.33063541991473 45.39515863184896 -5.896062559232366 0 0 0
3924 1 -11.56954962741473 46.63959154384894 -2.163612559232366 0 0 0
3925 1 -11.56947214041473 49.12870585684895 -2.163612559232366 0 0 0
3926 1 -13.33059667641473 47.88402445584894 -0.9194675358323661 0 0 0
3927 1 -13.33059667641473 47.88402445584894 -3.407757582632366 0 0 0
3928 1 -11.56947214041473 49.12870585684895 0.3246924173676335 0 0 0
3929 1 -11.56939465341473 51.61757168084894 0.3246924173676335 0 0 0
3930 1 -13.33051918941473 50.37313876884896 1.568837440767634 0 0 0
3931 1 -13.33051918941473 50.37313876884896 -0.9194675358323661 0 0 0
3932 1 -11.56939465341473 51.61757168084894 2.812982464167636 0 0 0
3933 1 -11.56931716641473 54.10668599384896 2.812982464167636 0 0 0
3934 1 -13.33044170241473 52.86225308184895 4.057142417367634 0 0 0
3935 1 -13.33044170241473 52.86225308184895 1.568837440767634 0 0 0
3936 1 -11.56931716641473 54.10668599384896 5.301287440767634 0 0 0
3937 1 -13.33059667641473 47.88402445584894 -5.896062559232366 0 0 0
3938 1 -11.56947214041473 49.12870585684895 -4.651917535832366 0 0 0
3939 1 -11.56939465341473 51.61757168084894 -4.651917535832366 0 0 0
3940 1 -13.33051918941473 50.37313876884896 -3.407757582632366 0 0 0
3941 1 -13.33051918941473 50.37313876884896 -5.896062559232366 0 0 0
3942 1 -11.56939465341473 51.61757168084894 -2.163612559232366 0 0 0
3943 1 -11.56931716641473 54.10668599384896 -2.163612559232366 0 0 0
3944 1 -13.33044170241473 52.86225308184895 -0.9194675358323661 0 0 0
3945 1 -13.33044170241473 52.86225308184895 -3.407757582632366 0 0 0
3946 1 -11.56931716641473 54.10668599384896 0.3246924173676335 0 0 0
3947 1 -13.33044170241473 52.86225308184895 -5.896062559232366 0 0 0
3948 1 -11.56931716641473 54.10668599384896 -4.651917535832366 0 0 0
3949 1 -15.09179869941473 41.66136291784893 5.301287440767634 0 0 0
3950 1 -15.09179869941473 41.66136291784893 -7.140210568592366 0 0 1
3951 1 -15.09175995591473 44.15047723084895 -7.140210568592366 0 0 1
3952 1 -15.09179869941473 41.66136291784893 0.3246924173676335 0 0 0
3953 1 -15.09179869941473 41.66136291784893 2.812982464167636 0 0 0
3954 1 -15.09175995591473 44.15047723084895 2.812982464167636 0 0 0
3955 1 -15.09175995591473 44.15047723084895 5.301287440767634 0 0 0
3956 1 -15.09168246891473 46.63959154384894 5.301287440767634 0 0 0
3957 1 -15.09168246891473 46.63959154384894 -7.140212061572366 0 0 1
3958 1 -15.09164372541473 49.12870585684895 -7.140212061572366 0 0 1
3959 1 -15.09179869941473 41.66136291784893 -4.651917535832366 0 0 0
3960 1 -15.09179869941473 41.66136291784893 -2.163612559232366 0 0 0
3961 1 -15.09175995591473 44.15047723084895 -2.163612559232366 0 0 0
3962 1 -15.09175995591473 44.15047723084895 0.3246924173676335 0 0 0
3963 1 -15.09168246891473 46.63959154384894 0.3246924173676335 0 0 0
3964 1 -15.09168246891473 46.63959154384894 2.812982464167636 0 0 0
3965 1 -15.09164372541473 49.12870585684895 2.812982464167636 0 0 0
3966 1 -15.09164372541473 49.12870585684895 5.301287440767634 0 0 0
3967 1 -15.09156623841473 51.61757168084894 5.301287440767634 0 0 0
3968 1 -15.09156623841473 51.61757168084894 -7.140210568592366 0 0 1
3969 1 -15.09148875141473 54.10668599384896 -7.140210568592366 0 0 1
3970 1 -15.09175995591473 44.15047723084895 -4.651917535832366 0 0 0
3971 1 -15.09168246891473 46.63959154384894 -4.651917535832366 0 0 0
3972 1 -15.09168246891473 46.63959154384894 -2.163612559232366 0 0 0
3973 1 -15.09164372541473 49.12870585684895 -2.163612559232366 0 0 0
3974 1 -15.09164372541473 49.12870585684895 0.3246924173676335 0 0 0
3975 1 -15.09156623841473 51.61757168084894 0.3246924173676335 0 0 0
3976 1 -15.09156623841473 51.61757168084894 2.812982464167636 0 0 0
3977 1 -15.09148875141473 54.10668599384896 2.812982464167636 0 0 0
3978 1 -15.09148875141473 54.10668599384896 5.301287440767634 0 0 0
3979 1 -15.09164372541473 49.12870585684895 -4.651917535832366 0 0 0
3980 1 -15.09156623841473 51.61757168084894 -4.651917535832366 0 0 0
3981 1 -15.09156623841473 51.61757168084894 -2.163612559232366 0 0 0
3982 1 -15.09148875141473 54.10668599384896 -2.163612559232366 0 0 0
3983 1 -15.09148875141473 54.10668599384896 0.3246924173676335 0 0 0
3984 1 -15.09148875141473 54.10668599384896 -4.651917535832366 0 0 0
3985 1 0.7582058940852683 55.35111890584896 6.545432464167636 0 0 0
3986 1 0.7582058940852683 55.35111890584896 4.057142417367634 0 0 0
3987 1 0.7582833810852705 57.84023321884895 6.545432464167636 0 0 0
3988 1 0.7582058940852683 55.35111890584896 1.568837440767634 0 0 0
3989 1 0.7582058940852683 55.35111890584896 -0.9194675358323661 0 0 0
3990 1 0.7582833810852705 57.84023321884895 4.057142417367634 0 0 0
3991 1 0.7582833810852705 57.84023321884895 1.568837440767634 0 0 0
3992 1 0.7583608680852691 60.32934753184897 6.545432464167636 0 0 0
3993 1 0.7583608680852691 60.32934753184897 4.057142417367634 0 0 0
3994 1 0.7584383550852714 62.81846184484893 6.545432464167636 0 0 0
3995 1 0.7582058940852683 55.35111890584896 -3.407757582632366 0 0 0
3996 1 0.7582058940852683 55.35111890584896 -5.896062559232366 0 0 0
3997 1 0.7582833810852705 57.84023321884895 -0.9194675358323661 0 0 0
3998 1 0.7582833810852705 57.84023321884895 -3.407757582632366 0 0 0
3999 1 0.7583608680852691 60.32934753184897 1.568837440767634 0 0 0
4000 1 0.7583608680852691 60.32934753184897 -0.9194675358323661 0 0 0
4001 1 0.7584383550852714 62.81846184484893 4.057142417367634 0 0 0
4002 1 0.7584383550852714 62.81846184484893 1.568837440767634 0 0 0
4003 1 0.7584770985852671 65.30757615784894 6.545432464167636 0 0 0
4004 1 0.7584770985852671 65.30757615784894 4.057142417367634 0 0 0
4005 1 0.7585545855852693 67.79669047084893 6.545432464167636 0 0 0
4006 1 0.7582833810852705 57.84023321884895 -5.896062559232366 0 0 0
4007 1 0.7583608680852691 60.32934753184897 -3.407757582632366 0 0 0
4008 1 0.7583608680852691 60.32934753184897 -5.896062559232366 0 0 0
4009 1 0.7584383550852714 62.81846184484893 -0.9194675358323661 0 0 0
4010 1 0.7584383550852714 62.81846184484893 -3.407757582632366 0 0 0
4011 1 0.7584770985852671 65.30757615784894 1.568837440767634 0 0 0
4012 1 0.7584770985852671 65.30757615784894 -0.9194675358323661 0 0 0
4013 1 0.7585545855852693 67.79669047084893 4.057142417367634 0 0 0
4014 1 0.7585545855852693 67.79669047084893 1.568837440767634 0 0 0
4015 1 0.7584383550852714 62.81846184484893 -5.896062559232366 0 0 0
4016 1 0.7584770985852671 65.30757615784894 -3.407757582632366 0 0 0
4017 1 0.7584770985852671 65.30757615784894 -5.896062559232366 0 0 0
4018 1 0.7585545855852693 67.79669047084893 -0.9194675358323661 0 0 0
4019 1 0.7585545855852693 67.79669047084893 -3.407757582632366 0 0 0
4020 1 0.7585545855852693 67.79669047084893 -5.896062559232366 0 0 0
4021 1 -1.002802411414731 56.59580030684897 5.301287440767634 0 0 0
4022 1 -2.763926947414728 55.35136739484896 6.545432464167636 0 0 0
4023 1 -2.763926947414728 55.35136739484896 4.057142417367634 0 0 0
4024 1 -1.002802411414731 56.59580030684897 -7.140210568592366 0 0 1
4025 1 -1.002724924414728 59.08491461984896 -7.140210568592366 0 0 1
4026 1 -2.763849460414729 57.84023321884895 6.545432464167636 0 0 0
4027 1 -1.002802411414731 56.59580030684897 0.3246924173676335 0 0 0
4028 1 -2.763926947414728 55.35136739484896 1.568837440767634 0 0 0
4029 1 -2.763926947414728 55.35136739484896 -0.9194675358323661 0 0 0
4030 1 -1.002802411414731 56.59580030684897 2.812982464167636 0 0 0
4031 1 -1.002724924414728 59.08491461984896 2.812982464167636 0 0 0
4032 1 -2.763849460414729 57.84023321884895 4.057142417367634 0 0 0
4033 1 -2.763849460414729 57.84023321884895 1.568837440767634 0 0 0
4034 1 -1.002724924414728 59.08491461984896 5.301287440767634 0 0 0
4035 1 -1.002686180914729 61.57402893284898 5.301287440767634 0 0 0
4036 1 -2.76377197341473 60.32934753184897 6.545432464167636 0 0 0
4037 1 -2.76377197341473 60.32934753184897 4.057142417367634 0 0 0
4038 1 -1.002686180914729 61.57402893284898 -7.140210568592366 0 0 1
4039 1 -1.002608693914731 64.06289475684893 -7.140210568592366 0 0 1
4040 1 -2.763694486414728 62.81846184484893 6.545432464167636 0 0 0
4041 1 -1.002802411414731 56.59580030684897 -4.651917535832366 0 0 0
4042 1 -2.763926947414728 55.35136739484896 -3.407757582632366 0 0 0
4043 1 -2.763926947414728 55.35136739484896 -5.896062559232366 0 0 0
4044 1 -1.002802411414731 56.59580030684897 -2.163612559232366 0 0 0
4045 1 -1.002724924414728 59.08491461984896 -2.163612559232366 0 0 0
4046 1 -2.763849460414729 57.84023321884895 -0.9194675358323661 0 0 0
4047 1 -2.763849460414729 57.84023321884895 -3.407757582632366 0 0 0
4048 1 -1.002724924414728 59.08491461984896 0.3246924173676335 0 0 0
4049 1 -1.002686180914729 61.57402893284898 0.3246924173676335 0 0 0
4050 1 -2.76377197341473 60.32934753184897 1.568837440767634 0 0 0
4051 1 -2.76377197341473 60.32934753184897 -0.9194675358323661 0 0 0
4052 1 -1.002686180914729 61.57402893284898 2.812982464167636 0 0 0
4053 1 -1.002608693914731 64.06289475684893 2.812982464167636 0 0 0
4054 1 -2.763694486414728 62.81846184484893 4.057142417367634 0 0 0
4055 1 -2.763694486414728 62.81846184484893 1.568837440767634 0 0 0
4056 1 -1.002608693914731 64.06289475684893 5.301287440767634 0 0 0
4057 1 -1.002531206914728 66.55200906984895 5.301287440767634 0 0 0
4058 1 -2.763655742914729 65.30757615784894 6.545432464167636 0 0 0
4059 1 -2.763655742914729 65.30757615784894 4.057142417367634 0 0 0
4060 1 -1.002531206914728 66.55200906984895 -7.140210568592366 0 0 1
4061 1 -2.76357825591473 67.79669047084893 6.545432464167636 0 0 0
4062 1 -2.763849460414729 57.84023321884895 -5.896062559232366 0 0 0
4063 1 -1.002724924414728 59.08491461984896 -4.651917535832366 0 0 0
4064 1 -1.002686180914729 61.57402893284898 -4.651917535832366 0 0 0
4065 1 -2.76377197341473 60.32934753184897 -3.407757582632366 0 0 0
4066 1 -2.76377197341473 60.32934753184897 -5.896062559232366 0 0 0
4067 1 -1.002686180914729 61.57402893284898 -2.163612559232366 0 0 0
4068 1 -1.002608693914731 64.06289475684893 -2.163612559232366 0 0 0
4069 1 -2.763694486414728 62.81846184484893 -0.9194675358323661 0 0 0
4070 1 -2.763694486414728 62.81846184484893 -3.407757582632366 0 0 0
4071 1 -1.002608693914731 64.06289475684893 0.3246924173676335 0 0 0
4072 1 -1.002531206914728 66.55200906984895 0.3246924173676335 0 0 0
4073 1 -2.763655742914729 65.30757615784894 1.568837440767634 0 0 0
4074 1 -2.763655742914729 65.30757615784894 -0.9194675358323661 0 0 0
4075 1 -1.002531206914728 66.55200906984895 2.812982464167636 0 0 0
4076 1 -2.76357825591473 67.79669047084893 4.057142417367634 0 0 0
4077 1 -2.76357825591473 67.79669047084893 1.568837440767634 0 0 0
4078 1 -2.763694486414728 62.81846184484893 -5.896062559232366 0 0 0
4079 1 -1.002608693914731 64.06289475684893 -4.651917535832366 0 0 0
4080 1 -1.002531206914728 66.55200906984895 -4.651917535832366 0 0 0
4081 1 -2.763655742914729 65.30757615784894 -3.407757582632366 0 0 0
4082 1 -2.763655742914729 65.30757615784894 -5.896062559232366 0 0 0
4083 1 -1.002531206914728 66.55200906984895 -2.163612559232366 0 0 0
4084 1 -2.76357825591473 67.79669047084893 -0.9194675358323661 0 0 0
4085 1 -2.76357825591473 67.79669047084893 -3.407757582632366 0 0 0
4086 1 -2.76357825591473 67.79669047084893 -5.896062559232366 0 0 0
4087 1 -4.52493525291473 56.59580030684897 5.301287440767634 0 0 0
4088 1 -6.286059788914729 55.35136739484896 6.545432464167636 0 0 0
4089 1 -6.286059788914729 55.35136739484896 4.057142417367634 0 0 0
4090 1 -4.52493525291473 56.59580030684897 -7.140210568592366 0 0 1
4091 1 -4.524896509414729 59.08491461984896 -7.140210568592366 0 0 1
4092 1 -6.285982301914729 57.84023321884895 6.545432464167636 0 0 0
4093 1 -4.52493525291473 56.59580030684897 0.3246924173676335 0 0 0
4094 1 -6.286059788914729 55.35136739484896 1.568837440767634 0 0 0
4095 1 -6.286059788914729 55.35136739484896 -0.9194675358323661 0 0 0
4096 1 -4.52493525291473 56.59580030684897 2.812982464167636 0 0 0
4097 1 -4.524896509414729 59.08491461984896 2.812982464167636 0 0 0
4098 1 -6.285982301914729 57.84023321884895 4.057142417367634 0 0 0
4099 1 -6.285982301914729 57.84023321884895 1.568837440767634 0 0 0
4100 1 -4.524896509414729 59.08491461984896 5.301287440767634 0 0 0
4101 1 -4.524819022414729 61.57402893284898 5.301287440767634 0 0 0
4102 1 -6.28590481491473 60.32934753184897 6.545432464167636 0 0 0
4103 1 -6.28590481491473 60.32934753184897 4.057142417367634 0 0 0
4104 1 -4.524819022414729 61.57402893284898 -7.140210568592366 0 0 1
4105 1 -4.524741535414728 64.06289475684893 -7.140210568592366 0 0 1
4106 1 -6.285866071414731 62.81846184484893 6.545432464167636 0 0 0
4107 1 -4.52493525291473 56.59580030684897 -4.651917535832366 0 0 0
4108 1 -6.286059788914729 55.35136739484896 -3.407757582632366 0 0 0
4109 1 -6.286059788914729 55.35136739484896 -5.896062559232366 0 0 0
4110 1 -4.52493525291473 56.59580030684897 -2.163612559232366 0 0 0
4111 1 -4.524896509414729 59.08491461984896 -2.163612559232366 0 0 0
4112 1 -6.285982301914729 57.84023321884895 -0.9194675358323661 0 0 0
4113 1 -6.285982301914729 57.84023321884895 -3.407757582632366 0 0 0
4114 1 -4.524896509414729 59.08491461984896 0.3246924173676335 0 0 0
4115 1 -4.524819022414729 61.57402893284898 0.3246924173676335 0 0 0
4116 1 -6.28590481491473 60.32934753184897 1.568837440767634 0 0 0
4117 1 -6.28590481491473 60.32934753184897 -0.9194675358323661 0 0 0
4118 1 -4.524819022414729 61.57402893284898 2.812982464167636 0 0 0
4119 1 -4.524741535414728 64.06289475684893 2.812982464167636 0 0 0
4120 1 -6.285866071414731 62.81846184484893 4.057142417367634 0 0 0
4121 1 -6.285866071414731 62.81846184484893 1.568837440767634 0 0 0
4122 1 -4.524741535414728 64.06289475684893 5.301287440767634 0 0 0
4123 1 -4.52466404841473 66.55200906984895 5.301287440767634 0 0 0
4124 1 -6.28578858441473 65.30757615784894 6.545432464167636 0 0 0
4125 1 -6.28578858441473 65.30757615784894 4.057142417367634 0 0 0
4126 1 -4.52466404841473 66.55200906984895 -7.140210568592366 0 0 1
4127 1 -6.28571109741473 67.79669047084893 6.545432464167636 0 0 0
4128 1 -6.285982301914729 57.84023321884895 -5.896062559232366 0 0 0
4129 1 -4.524896509414729 59.08491461984896 -4.651917535832366 0 0 0
4130 1 -4.524819022414729 61.57402893284898 -4.651917535832366 0 0 0
4131 1 -6.28590481491473 60.32934753184897 -3.407757582632366 0 0 0
4132 1 -6.28590481491473 60.32934753184897 -5.896062559232366 0 0 0
4133 1 -4.524819022414729 61.57402893284898 -2.163612559232366 0 0 0
4134 1 -4.524741535414728 64.06289475684893 -2.163612559232366 0 0 0
4135 1 -6.285866071414731 62.81846184484893 -0.9194675358323661 0 0 0
4136 1 -6.285866071414731 62.81846184484893 -3.407757582632366 0 0 0
4137 1 -4.524741535414728 64.06289475684893 0.3246924173676335 0 0 0
4138 1 -4.52466404841473 66.55200906984895 0.3246924173676335 0 0 0
4139 1 -6.28578858441473 65.30757615784894 1.568837440767634 0 0 0
4140 1 -6.28578858441473 65.30757615784894 -0.9194675358323661 0 0 0
4141 1 -4.52466404841473 66.55200906984895 2.812982464167636 0 0 0
4142 1 -6.28571109741473 67.79669047084893 4.057142417367634 0 0 0
4143 1 -6.28571109741473 67.79669047084893 1.568837440767634 0 0 0
4144 1 -6.285866071414731 62.81846184484893 -5.896062559232366 0 0 0
4145 1 -4.524741535414728 64.06289475684893 -4.651917535832366 0 0 0
4146 1 -4.52466404841473 66.55200906984895 -4.651917535832366 0 0 0
4147 1 -6.28578858441473 65.30757615784894 -3.407757582632366 0 0 0
4148 1 -6.28578858441473 65.30757615784894 -5.896062559232366 0 0 0
4149 1 -4.52466404841473 66.55200906984895 -2.163612559232366 0 0 0
4150 1 -6.28571109741473 67.79669047084893 -0.9194675358323661 0 0 0
4151 1 -6.28571109741473 67.79669047084893 -3.407757582632366 0 0 0
4152 1 -6.28571109741473 67.79669047084893 -5.896062559232366 0 0 0
4153 1 -8.047106837914729 56.59580030684897 5.301287440767634 0 0 0
4154 1 -9.808192630414728 55.35136739484896 6.545432464167636 0 0 0
4155 1 -9.808192630414728 55.35136739484896 4.057142417367634 0 0 0
4156 1 -8.047106837914729 56.59580030684897 -7.140210568592366 0 0 1
4157 1 -8.047029350914729 59.08491461984896 -7.140210568592366 0 0 1
4158 1 -9.808153886914729 57.84023321884895 6.545432464167636 0 0 0
4159 1 -8.047106837914729 56.59580030684897 0.3246924173676335 0 0 0
4160 1 -9.808192630414728 55.35136739484896 1.568837440767634 0 0 0
4161 1 -9.808192630414728 55.35136739484896 -0.9194675358323661 0 0 0
4162 1 -8.047106837914729 56.59580030684897 2.812982464167636 0 0 0
4163 1 -8.047029350914729 59.08491461984896 2.812982464167636 0 0 0
4164 1 -9.808153886914729 57.84023321884895 4.057142417367634 0 0 0
4165 1 -9.808153886914729 57.84023321884895 1.568837440767634 0 0 0
4166 1 -8.047029350914729 59.08491461984896 5.301287440767634 0 0 0
4167 1 -8.046951863914728 61.57402893284898 5.301287440767634 0 0 0
4168 1 -9.808076399914729 60.32934753184897 6.545432464167636 0 0 0
4169 1 -9.808076399914729 60.32934753184897 4.057142417367634 0 0 0
4170 1 -8.046951863914728 61.57402893284898 -7.140210568592366 0 0 1
4171 1 -8.04687437691473 64.06289475684893 -7.140210568592366 0 0 1
4172 1 -9.807998912914728 62.81846184484893 6.545432464167636 0 0 0
4173 1 -8.047106837914729 56.59580030684897 -4.651917535832366 0 0 0
4174 1 -9.808192630414728 55.35136739484896 -3.407757582632366 0 0 0
4175 1 -9.808192630414728 55.35136739484896 -5.896062559232366 0 0 0
4176 1 -8.047106837914729 56.59580030684897 -2.163612559232366 0 0 0
4177 1 -8.047029350914729 59.08491461984896 -2.163612559232366 0 0 0
4178 1 -9.808153886914729 57.84023321884895 -0.9194675358323661 0 0 0
4179 1 -9.808153886914729 57.84023321884895 -3.407757582632366 0 0 0
4180 1 -8.047029350914729 59.08491461984896 0.3246924173676335 0 0 0
4181 1 -8.046951863914728 61.57402893284898 0.3246924173676335 0 0 0
4182 1 -9.808076399914729 60.32934753184897 1.568837440767634 0 0 0
4183 1 -9.808076399914729 60.32934753184897 -0.9194675358323661 0 0 0
4184 1 -8.046951863914728 61.57402893284898 2.812982464167636 0 0 0
4185 1 -8.04687437691473 64.06289475684893 2.812982464167636 0 0 0
4186 1 -9.807998912914728 62.81846184484893 4.057142417367634 0 0 0
4187 1 -9.807998912914728 62.81846184484893 1.568837440767634 0 0 0
4188 1 -8.04687437691473 64.06289475684893 5.301287440767634 0 0 0
4189 1 -8.046796889914729 66.55200906984895 5.301287440767634 0 0 0
4190 1 -9.807921425914728 65.30757615784894 6.545432464167636 0 0 0
4191 1 -9.807921425914728 65.30757615784894 4.057142417367634 0 0 0
4192 1 -8.046796889914729 66.55200906984895 -7.140210568592366 0 0 1
4193 1 -9.807843938914729 67.79669047084893 6.545432464167636 0 0 0
4194 1 -9.808153886914729 57.84023321884895 -5.896062559232366 0 0 0
4195 1 -8.047029350914729 59.08491461984896 -4.651917535832366 0 0 0
4196 1 -8.046951863914728 61.57402893284898 -4.651917535832366 0 0 0
4197 1 -9.808076399914729 60.32934753184897 -3.407757582632366 0 0 0
4198 1 -9.808076399914729 60.32934753184897 -5.896062559232366 0 0 0
4199 1 -8.046951863914728 61.57402893284898 -2.163612559232366 0 0 0
4200 1 -8.04687437691473 64.06289475684893 -2.163612559232366 0 0 0
4201 1 -9.807998912914728 62.81846184484893 -0.9194675358323661 0 0 0
4202 1 -9.807998912914728 62.81846184484893 -3.407757582632366 0 0 0
4203 1 -8.04687437691473 64.06289475684893 0.3246924173676335 0 0 0
4204 1 -8.046796889914729 66.55200906984895 0.3246924173676335 0 0 0
4205 1 -9.807921425914728 65.30757615784894 1.568837440767634 0 0 0
4206 1 -9.807921425914728 65.30757615784894 -0.9194675358323661 0 0 0
4207 1 -8.046796889914729 66.55200906984895 2.812982464167636 0 0 0
4208 1 -9.807843938914729 67.79669047084893 4.057142417367634 0 0 0
4209 1 -9.807843938914729 67.79669047084893 1.568837440767634 0 0 0
4210 1 -9.807998912914728 62.81846184484893 -5.896062559232366 0 0 0
4211 1 -8.04687437691473 64.06289475684893 -4.651917535832366 0 0 0
4212 1 -8.046796889914729 66.55200906984895 -4.651917535832366 0 0 0
4213 1 -9.807921425914728 65.30757615784894 -3.407757582632366 0 0 0
4214 1 -9.807921425914728 65.30757615784894 -5.896062559232366 0 0 0
4215 1 -8.046796889914729 66.55200906984895 -2.163612559232366 0 0 0
4216 1 -9.807843938914729 67.79669047084893 -0.9194675358323661 0 0 0
4217 1 -9.807843938914729 67.79669047084893 -3.407757582632366 0 0 0
4218 1 -9.807843938914729 67.79669047084893 -5.896062559232366 0 0 0
4219 1 -11.56923967941473 56.59580030684897 5.301287440767634 0 0 0
4220 1 -13.33036421541473 55.35136739484896 6.545432464167636 0 0 0
4221 1 -13.33036421541473 55.35136739484896 4.057142417367634 0 0 0
4222 1 -11.56923967941473 56.59580030684897 -7.140210568592366 0 0 1
4223 1 -11.56916219241473 59.08491461984896 -7.140210568592366 0 0 1
4224 1 -13.33028672841473 57.84023321884895 6.545432464167636 0 0 0
4225 1 -11.56923967941473 56.59580030684897 0.3246924173676335 0 0 0
4226 1 -13.33036421541473 55.35136739484896 1.568837440767634 0 0 0
4227 1 -13.33036421541473 55.35136739484896 -0.9194675358323661 0 0 0
4228 1 -11.56923967941473 56.59580030684897 2.812982464167636 0 0 0
4229 1 -11.56916219241473 59.08491461984896 2.812982464167636 0 0 0
4230 1 -13.33028672841473 57.84023321884895 4.057142417367634 0 0 0
4231 1 -13.33028672841473 57.84023321884895 1.568837440767634 0 0 0
4232 1 -11.56916219241473 59.08491461984896 5.301287440767634 0 0 0
4233 1 -11.56912344891473 61.57402893284898 5.301287440767634 0 0 0
4234 1 -13.33020924141473 60.32934753184897 6.545432464167636 0 0 0
4235 1 -13.33020924141473 60.32934753184897 4.057142417367634 0 0 0
4236 1 -11.56912344891473 61.57402893284898 -7.140210568592366 0 0 1
4237 1 -11.56904596191473 64.06289475684893 -7.140210568592366 0 0 1
4238 1 -13.33013175441473 62.81846184484893 6.545432464167636 0 0 0
4239 1 -11.56923967941473 56.59580030684897 -4.651917535832366 0 0 0
4240 1 -13.33036421541473 55.35136739484896 -3.407757582632366 0 0 0
4241 1 -13.33036421541473 55.35136739484896 -5.896062559232366 0 0 0
4242 1 -11.56923967941473 56.59580030684897 -2.163612559232366 0 0 0
4243 1 -11.56916219241473 59.08491461984896 -2.163612559232366 0 0 0
4244 1 -13.33028672841473 57.84023321884895 -0.9194675358323661 0 0 0
4245 1 -13.33028672841473 57.84023321884895 -3.407757582632366 0 0 0
4246 1 -11.56916219241473 59.08491461984896 0.3246924173676335 0 0 0
4247 1 -11.56912344891473 61.57402893284898 0.3246924173676335 0 0 0
4248 1 -13.33020924141473 60.32934753184897 1.568837440767634 0 0 0
4249 1 -13.33020924141473 60.32934753184897 -0.9194675358323661 0 0 0
4250 1 -11.56912344891473 61.57402893284898 2.812982464167636 0 0 0
4251 1 -11.56904596191473 64.06289475684893 2.812982464167636 0 0 0
4252 1 -13.33013175441473 62.81846184484893 4.057142417367634 0 0 0
4253 1 -13.33013175441473 62.81846184484893 1.568837440767634 0 0 0
4254 1 -11.56904596191473 64.06289475684893 5.301287440767634 0 0 0
4255 1 -11.56896847491473 66.55200906984895 5.301287440767634 0 0 0
4256 1 -13.33005426741473 65.30757615784894 6.545432464167636 0 0 0
4257 1 -13.33005426741473 65.30757615784894 4.057142417367634 0 0 0
4258 1 -11.56896847491473 66.55200906984895 -7.140210568592366 0 0 1
4259 1 -13.32997678041473 67.79669047084893 6.545432464167636 0 0 0
4260 1 -13.33028672841473 57.84023321884895 -5.896062559232366 0 0 0
4261 1 -11.56916219241473 59.08491461984896 -4.651917535832366 0 0 0
4262 1 -11.56912344891473 61.57402893284898 -4.651917535832366 0 0 0
4263 1 -13.33020924141473 60.32934753184897 -3.407757582632366 0 0 0
4264 1 -13.33020924141473 60.32934753184897 -5.896062559232366 0 0 0
4265 1 -11.56912344891473 61.57402893284898 -2.163612559232366 0 0 0
4266 1 -11.56904596191473 64.06289475684893 -2.163612559232366 0 0 0
4267 1 -13.33013175441473 62.81846184484893 -0.9194675358323661 0 0 0
4268 1 -13.33013175441473 62.81846184484893 -3.407757582632366 0 0 0
4269 1 -11.56904596191473 64.06289475684893 0.3246924173676335 0 0 0
4270 1 -11.56896847491473 66.55200906984895 0.3246924173676335 0 0 0
4271 1 -13.33005426741473 65.30757615784894 1.568837440767634 0 0 0
4272 1 -13.33005426741473 65.30757615784894 -0.9194675358323661 0 0 0
4273 1 -11.56896847491473 66.55200906984895 2.812982464167636 0 0 0
4274 1 -13.32997678041473 67.79669047084893 4.057142417367634 0 0 0
4275 1 -13.32997678041473 67.79669047084893 1.568837440767634 0 0 0
4276 1 -13.33013175441473 62.81846184484893 -5.896062559232366 0 0 0
4277 1 -11.56904596191473 64.06289475684893 -4.651917535832366 0 0 0
4278 1 -11.56896847491473 66.55200906984895 -4.651917535832366 0 0 0
4279 1 -13.33005426741473 65.30757615784894 -3.407757582632366 0 0 0
4280 1 -13.33005426741473 65.30757615784894 -5.896062559232366 0 0 0
4281 1 -11.56896847491473 66.55200906984895 -2.163612559232366 0 0 0
4282 1 -13.32997678041473 67.79669047084893 -0.9194675358323661 0 0 0
4283 1 -13.32997678041473 67.79669047084893 -3.407757582632366 0 0 0
4284 1 -13.32997678041473 67.79669047084893 -5.896062559232366 0 0 0
4285 1 -15.09141126441473 56.59580030684897 5.301287440767634 0 0 0
4286 1 -15.09141126441473 56.59580030684897 -7.140210568592366 0 0 1
4287 1 -15.09133377741473 59.08491461984896 -7.140210568592366 0 0 1
4288 1 -15.09141126441473 56.59580030684897 0.3246924173676335 0 0 0
4289 1 -15.09141126441473 56.59580030684897 2.812982464167636 0 0 0
4290 1 -15.09133377741473 59.08491461984896 2.812982464167636 0 0 0
4291 1 -15.09133377741473 59.08491461984896 5.301287440767634 0 0 0
4292 1 -15.09125629041473 61.57402893284898 5.301287440767634 0 0 0
4293 1 -15.09125629041473 61.57402893284898 -7.140210568592366 0 0 1
4294 1 -15.09117880341473 64.06289475684893 -7.140210568592366 0 0 1
4295 1 -15.09141126441473 56.59580030684897 -4.651917535832366 0 0 0
4296 1 -15.09141126441473 56.59580030684897 -2.163612559232366 0 0 0
4297 1 -15.09133377741473 59.08491461984896 -2.163612559232366 0 0 0
4298 1 -15.09133377741473 59.08491461984896 0.3246924173676335 0 0 0
4299 1 -15.09125629041473 61.57402893284898 0.3246924173676335 0 0 0
4300 1 -15.09125629041473 61.57402893284898 2.812982464167636 0 0 0
4301 1 -15.09117880341473 64.06289475684893 2.812982464167636 0 0 0
4302 1 -15.09117880341473 64.06289475684893 5.301287440767634 0 0 0
4303 1 -15.09110131641473 66.55200906984895 5.301287440767634 0 0 0
4304 1 -15.09110131641473 66.55200906984895 -7.140210568592366 0 0 1
4305 1 -15.09133377741473 59.08491461984896 -4.651917535832366 0 0 0
4306 1 -15.09125629041473 61.57402893284898 -4.651917535832366 0 0 0
4307 1 -15.09125629041473 61.57402893284898 -2.163612559232366 0 0 0
4308 1 -15.09117880341473 64.06289475684893 -2.163612559232366 0 0 0
4309 1 -15.09117880341473 64.06289475684893 0.3246924173676335 0 0 0
4310 1 -15.09110131641473 66.55200906984895 0.3246924173676335 0 0 0
4311 1 -15.09110131641473 66.55200906984895 2.812982464167636 0 0 0
4312 1 -15.09117880341473 64.06289475684893 -4.651917535832366 0 0 0
4313 1 -15.09110131641473 66.55200906984895 -4.651917535832366 0 0 0
4314 1 -15.09110131641473 66.55200906984895 -2.163612559232366 0 0 0
4315 1 0.758632072585268 70.28555629484894 6.545432464167636 0 0 0
4316 1 0.758632072585268 70.28555629484894 4.057142417367634 0 0 0
4317 1 0.7587095595852702 72.77467060784896 6.545432464167636 0 0 0
4318 1 0.758632072585268 70.28555629484894 1.568837440767634 0 0 0
4319 1 0.758632072585268 70.28555629484894 -0.9194675358323661 0 0 0
4320 1 0.7587095595852702 72.77467060784896 4.057142417367634 0 0 0
4321 1 0.7587095595852702 72.77467060784896 1.568837440767634 0 0 0
4322 1 0.7587870465852689 75.26378492084895 6.545432464167636 0 0 0
4323 1 0.7587870465852689 75.26378492084895 4.057142417367634 0 0 0
4324 1 0.7588645335852711 77.75289923384896 6.545432464167636 0 0 0
4325 1 0.758632072585268 70.28555629484894 -3.407757582632366 0 0 0
4326 1 0.758632072585268 70.28555629484894 -5.896062559232366 0 0 0
4327 1 0.7587095595852702 72.77467060784896 -0.9194675358323661 0 0 0
4328 1 0.7587095595852702 72.77467060784896 -3.407757582632366 0 0 0
4329 1 0.7587870465852689 75.26378492084895 1.568837440767634 0 0 0
4330 1 0.7587870465852689 75.26378492084895 -0.9194675358323661 0 0 0
4331 1 0.7588645335852711 77.75289923384896 4.057142417367634 0 0 0
4332 1 0.7588645335852711 77.75289923384896 1.568837440767634 0 0 0
4333 1 0.7589420205852697 80.24201354684895 6.545432464167636 0 0 0
4334 1 0.7589420205852697 80.24201354684895 4.057142417367634 0 0 0
4335 1 0.7587095595852702 72.77467060784896 -5.896062559232366 0 0 0
4336 1 0.7587870465852689 75.26378492084895 -3.407757582632366 0 0 0
4337 1 0.7587870465852689 75.26378492084895 -5.896062559232366 0 0 0
4338 1 0.7588645335852711 77.75289923384896 -0.9194675358323661 0 0 0
4339 1 0.7588645335852711 77.75289923384896 -3.407757582632366 0 0 0
4340 1 0.7589420205852697 80.24201354684895 1.568837440767634 0 0 0
4341 1 0.7589420205852697 80.24201354684895 -0.9194675358323661 0 0 0
4342 1 0.7588645335852711 77.75289923384896 -5.896062559232366 0 0 0
4343 1 0.7589420205852697 80.24201354684895 -3.407757582632366 0 0 0
4344 1 0.7589420205852697 80.24201354684895 -5.896062559232366 0 0 0
4345 1 -1.00245371991473 69.04112338284894 -7.140210568592366 0 0 1
4346 1 -1.00245371991473 69.04112338284894 2.812982464167636 0 0 0
4347 1 -1.00245371991473 69.04112338284894 5.301287440767634 0 0 0
4348 1 -1.002376232914731 71.53023769584895 5.301287440767634 0 0 0
4349 1 -2.763500768914728 70.28555629484894 6.545432464167636 0 0 0
4350 1 -2.763500768914728 70.28555629484894 4.057142417367634 0 0 0
4351 1 -1.002376232914731 71.53023769584895 -7.140210568592366 0 0 1
4352 1 -1.002337489414728 74.01935200884894 -7.140210568592366 0 0 1
4353 1 -2.763423281914729 72.77467060784896 6.545432464167636 0 0 0
4354 1 -1.00245371991473 69.04112338284894 -2.163612559232366 0 0 0
4355 1 -1.00245371991473 69.04112338284894 0.3246924173676335 0 0 0
4356 1 -1.002376232914731 71.53023769584895 0.3246924173676335 0 0 0
4357 1 -2.763500768914728 70.28555629484894 1.568837440767634 0 0 0
4358 1 -2.763500768914728 70.28555629484894 -0.9194675358323661 0 0 0
4359 1 -1.002376232914731 71.53023769584895 2.812982464167636 0 0 0
4360 1 -1.002337489414728 74.01935200884894 2.812982464167636 0 0 0
4361 1 -2.763423281914729 72.77467060784896 4.057142417367634 0 0 0
4362 1 -2.763423281914729 72.77467060784896 1.568837440767634 0 0 0
4363 1 -1.002337489414728 74.01935200884894 5.301287440767634 0 0 0
4364 1 -1.002260002414729 76.50846632184896 5.301287440767634 0 0 0
4365 1 -2.763345794914731 75.26378492084895 6.545432464167636 0 0 0
4366 1 -2.763345794914731 75.26378492084895 4.057142417367634 0 0 0
4367 1 -1.002260002414729 76.50846632184896 -7.140210568592366 0 0 1
4368 1 -1.002182515414727 78.99733214584897 -7.140210568592366 0 0 1
4369 1 -2.763268307914728 77.75289923384896 6.545432464167636 0 0 0
4370 1 -1.00245371991473 69.04112338284894 -4.651917535832366 0 0 0
4371 1 -1.002376232914731 71.53023769584895 -4.651917535832366 0 0 0
4372 1 -2.763500768914728 70.28555629484894 -3.407757582632366 0 0 0
4373 1 -2.763500768914728 70.28555629484894 -5.896062559232366 0 0 0
4374 1 -1.002376232914731 71.53023769584895 -2.163612559232366 0 0 0
4375 1 -1.002337489414728 74.01935200884894 -2.163612559232366 0 0 0
4376 1 -2.763423281914729 72.77467060784896 -0.9194675358323661 0 0 0
4377 1 -2.763423281914729 72.77467060784896 -3.407757582632366 0 0 0
4378 1 -1.002337489414728 74.01935200884894 0.3246924173676335 0 0 0
4379 1 -1.002260002414729 76.50846632184896 0.3246924173676335 0 0 0
4380 1 -2.763345794914731 75.26378492084895 1.568837440767634 0 0 0
4381 1 -2.763345794914731 75.26378492084895 -0.9194675358323661 0 0 0
4382 1 -1.002260002414729 76.50846632184896 2.812982464167636 0 0 0
4383 1 -1.002182515414727 78.99733214584897 2.812982464167636 0 0 0
4384 1 -2.763268307914728 77.75289923384896 4.057142417367634 0 0 0
4385 1 -2.763268307914728 77.75289923384896 1.568837440767634 0 0 0
4386 1 -1.002182515414727 78.99733214584897 5.301287440767634 0 0 0
4387 1 -1.002105028414732 81.48644645884896 5.301287440767634 0 0 0
4388 1 -2.76319082091473 80.24201354684895 6.545432464167636 0 0 0
4389 1 -2.76319082091473 80.24201354684895 4.057142417367634 0 0 0
4390 1 -1.002105028414732 81.48644645884896 -7.140210568592366 0 0 1
4391 1 -2.763423281914729 72.77467060784896 -5.896062559232366 0 0 0
4392 1 -1.002337489414728 74.01935200884894 -4.651917535832366 0 0 0
4393 1 -1.002260002414729 76.50846632184896 -4.651917535832366 0 0 0
4394 1 -2.763345794914731 75.26378492084895 -3.407757582632366 0 0 0
4395 1 -2.763345794914731 75.26378492084895 -5.896062559232366 0 0 0
4396 1 -1.002260002414729 76.50846632184896 -2.163612559232366 0 0 0
4397 1 -1.002182515414727 78.99733214584897 -2.163612559232366 0 0 0
4398 1 -2.763268307914728 77.75289923384896 -0.9194675358323661 0 0 0
4399 1 -2.763268307914728 77.75289923384896 -3.407757582632366 0 0 0
4400 1 -1.002182515414727 78.99733214584897 0.3246924173676335 0 0 0
4401 1 -1.002105028414732 81.48644645884896 0.3246924173676335 0 0 0
4402 1 -2.76319082091473 80.24201354684895 1.568837440767634 0 0 0
4403 1 -2.76319082091473 80.24201354684895 -0.9194675358323661 0 0 0
4404 1 -1.002105028414732 81.48644645884896 2.812982464167636 0 0 0
4405 1 -2.763268307914728 77.75289923384896 -5.896062559232366 0 0 0
4406 1 -1.002182515414727 78.99733214584897 -4.651917535832366 0 0 0
4407 1 -1.002105028414732 81.48644645884896 -4.651917535832366 0 0 0
4408 1 -2.76319082091473 80.24201354684895 -3.407757582632366 0 0 0
4409 1 -2.76319082091473 80.24201354684895 -5.896062559232366 0 0 0
4410 1 -1.002105028414732 81.48644645884896 -2.163612559232366 0 0 0
4411 1 -4.524586561414731 69.04112338284894 -7.140210568592366 0 0 1
4412 1 -4.524586561414731 69.04112338284894 2.812982464167636 0 0 0
4413 1 -4.524586561414731 69.04112338284894 5.301287440767634 0 0 0
4414 1 -4.52454781791473 71.53023769584895 5.301287440767634 0 0 0
4415 1 -6.285633610414729 70.28555629484894 6.545432464167636 0 0 0
4416 1 -6.285633610414729 70.28555629484894 4.057142417367634 0 0 0
4417 1 -4.52454781791473 71.53023769584895 -7.140210568592366 0 0 1
4418 1 -4.524470330914729 74.01935200884894 -7.140210568592366 0 0 1
4419 1 -6.285556123414731 72.77467060784896 6.545432464167636 0 0 0
4420 1 -4.524586561414731 69.04112338284894 -2.163612559232366 0 0 0
4421 1 -4.524586561414731 69.04112338284894 0.3246924173676335 0 0 0
4422 1 -4.52454781791473 71.53023769584895 0.3246924173676335 0 0 0
4423 1 -6.285633610414729 70.28555629484894 1.568837440767634 0 0 0
4424 1 -6.285633610414729 70.28555629484894 -0.9194675358323661 0 0 0
4425 1 -4.52454781791473 71.53023769584895 2.812982464167636 0 0 0
4426 1 -4.524470330914729 74.01935200884894 2.812982464167636 0 0 0
4427 1 -6.285556123414731 72.77467060784896 4.057142417367634 0 0 0
4428 1 -6.285556123414731 72.77467060784896 1.568837440767634 0 0 0
4429 1 -4.524470330914729 74.01935200884894 5.301287440767634 0 0 0
4430 1 -4.524392843914729 76.50846632184896 5.301287440767634 0 0 0
4431 1 -6.28547863641473 75.26378492084895 6.545432464167636 0 0 0
4432 1 -6.28547863641473 75.26378492084895 4.057142417367634 0 0 0
4433 1 -4.524392843914729 76.50846632184896 -7.140210568592366 0 0 1
4434 1 -4.524315356914729 78.99733214584897 -7.140210568592366 0 0 1
4435 1 -6.28540114941473 77.75289923384896 6.545432464167636 0 0 0
4436 1 -4.524586561414731 69.04112338284894 -4.651917535832366 0 0 0
4437 1 -4.52454781791473 71.53023769584895 -4.651917535832366 0 0 0
4438 1 -6.285633610414729 70.28555629484894 -3.407757582632366 0 0 0
4439 1 -6.285633610414729 70.28555629484894 -5.896062559232366 0 0 0
4440 1 -4.52454781791473 71.53023769584895 -2.163612559232366 0 0 0
4441 1 -4.524470330914729 74.01935200884894 -2.163612559232366 0 0 0
4442 1 -6.285556123414731 72.77467060784896 -0.9194675358323661 0 0 0
4443 1 -6.285556123414731 72.77467060784896 -3.407757582632366 0 0 0
4444 1 -4.524470330914729 74.01935200884894 0.3246924173676335 0 0 0
4445 1 -4.524392843914729 76.50846632184896 0.3246924173676335 0 0 0
4446 1 -6.28547863641473 75.26378492084895 1.568837440767634 0 0 0
4447 1 -6.28547863641473 75.26378492084895 -0.9194675358323661 0 0 0
4448 1 -4.524392843914729 76.50846632184896 2.812982464167636 0 0 0
4449 1 -4.524315356914729 78.99733214584897 2.812982464167636 0 0 0
4450 1 -6.28540114941473 77.75289923384896 4.057142417367634 0 0 0
4451 1 -6.28540114941473 77.75289923384896 1.568837440767634 0 0 0
4452 1 -4.524315356914729 78.99733214584897 5.301287440767634 0 0 0
4453 1 -4.524237869914728 81.48644645884896 5.301287440767634 0 0 0
4454 1 -6.285362405914729 80.24201354684895 6.545432464167636 0 0 0
4455 1 -6.285362405914729 80.24201354684895 4.057142417367634 0 0 0
4456 1 -4.524237869914728 81.48644645884896 -7.140210568592366 0 0 1
4457 1 -6.285556123414731 72.77467060784896 -5.896062559232366 0 0 0
4458 1 -4.524470330914729 74.01935200884894 -4.651917535832366 0 0 0
4459 1 -4.524392843914729 76.50846632184896 -4.651917535832366 0 0 0
4460 1 -6.28547863641473 75.26378492084895 -3.407757582632366 0 0 0
4461 1 -6.28547863641473 75.26378492084895 -5.896062559232366 0 0 0
4462 1 -4.524392843914729 76.50846632184896 -2.163612559232366 0 0 0
4463 1 -4.524315356914729 78.99733214584897 -2.163612559232366 0 0 0
4464 1 -6.28540114941473 77.75289923384896 -0.9194675358323661 0 0 0
4465 1 -6.28540114941473 77.75289923384896 -3.407757582632366 0 0 0
4466 1 -4.524315356914729 78.99733214584897 0.3246924173676335 0 0 0
4467 1 -4.524237869914728 81.48644645884896 0.3246924173676335 0 0 0
4468 1 -6.285362405914729 80.24201354684895 1.568837440767634 0 0 0
4469 1 -6.285362405914729 80.24201354684895 -0.9194675358323661 0 0 0
4470 1 -4.524237869914728 81.48644645884896 2.812982464167636 0 0 0
4471 1 -6.28540114941473 77.75289923384896 -5.896062559232366 0 0 0
4472 1 -4.524315356914729 78.99733214584897 -4.651917535832366 0 0 0
4473 1 -4.524237869914728 81.48644645884896 -4.651917535832366 0 0 0
4474 1 -6.285362405914729 80.24201354684895 -3.407757582632366 0 0 0
4475 1 -6.285362405914729 80.24201354684895 -5.896062559232366 0 0 0
4476 1 -4.524237869914728 81.48644645884896 -2.163612559232366 0 0 0
4477 1 -8.04675814641473 69.04112338284894 -7.140210568592366 0 0 1
4478 1 -8.04675814641473 69.04112338284894 2.812982464167636 0 0 0
4479 1 -8.04675814641473 69.04112338284894 5.301287440767634 0 0 0
4480 1 -8.046680659414729 71.53023769584895 5.301287440767634 0 0 0
4481 1 -9.807766451914729 70.28555629484894 6.545432464167636 0 0 0
4482 1 -9.807766451914729 70.28555629484894 4.057142417367634 0 0 0
4483 1 -8.046680659414729 71.53023769584895 -7.140210568592366 0 0 1
4484 1 -8.046603172414729 74.01935200884894 -7.140210568592366 0 0 1
4485 1 -9.807688964914728 72.77467060784896 6.545432464167636 0 0 0
4486 1 -8.04675814641473 69.04112338284894 -2.163612559232366 0 0 0
4487 1 -8.04675814641473 69.04112338284894 0.3246924173676335 0 0 0
4488 1 -8.046680659414729 71.53023769584895 0.3246924173676335 0 0 0
4489 1 -9.807766451914729 70.28555629484894 1.568837440767634 0 0 0
4490 1 -9.807766451914729 70.28555629484894 -0.9194675358323661 0 0 0
4491 1 -8.046680659414729 71.53023769584895 2.812982464167636 0 0 0
4492 1 -8.046603172414729 74.01935200884894 2.812982464167636 0 0 0
4493 1 -9.807688964914728 72.77467060784896 4.057142417367634 0 0 0
4494 1 -9.807688964914728 72.77467060784896 1.568837440767634 0 0 0
4495 1 -8.046603172414729 74.01935200884894 5.301287440767634 0 0 0
4496 1 -8.04652568541473 76.50846632184896 5.301287440767634 0 0 0
4497 1 -9.80761147791473 75.26378492084895 6.545432464167636 0 0 0
4498 1 -9.80761147791473 75.26378492084895 4.057142417367634 0 0 0
4499 1 -8.04652568541473 76.50846632184896 -7.140210568592366 0 0 1
4500 1 -8.04644819841473 78.99733214584897 -7.140210568592366 0 0 1
4501 1 -9.807572734414729 77.75289923384896 6.545432464167636 0 0 0
4502 1 -8.04675814641473 69.04112338284894 -4.651917535832366 0 0 0
4503 1 -8.046680659414729 71.53023769584895 -4.651917535832366 0 0 0
4504 1 -9.807766451914729 70.28555629484894 -3.407757582632366 0 0 0
4505 1 -9.807766451914729 70.28555629484894 -5.896062559232366 0 0 0
4506 1 -8.046680659414729 71.53023769584895 -2.163612559232366 0 0 0
4507 1 -8.046603172414729 74.01935200884894 -2.163612559232366 0 0 0
4508 1 -9.807688964914728 72.77467060784896 -0.9194675358323661 0 0 0
4509 1 -9.807688964914728 72.77467060784896 -3.407757582632366 0 0 0
4510 1 -8.046603172414729 74.01935200884894 0.3246924173676335 0 0 0
4511 1 -8.04652568541473 76.50846632184896 0.3246924173676335 0 0 0
4512 1 -9.80761147791473 75.26378492084895 1.568837440767634 0 0 0
4513 1 -9.80761147791473 75.26378492084895 -0.9194675358323661 0 0 0
4514 1 -8.04652568541473 76.50846632184896 2.812982464167636 0 0 0
4515 1 -8.04644819841473 78.99733214584897 2.812982464167636 0 0 0
4516 1 -9.807572734414729 77.75289923384896 4.057142417367634 0 0 0
4517 1 -9.807572734414729 77.75289923384896 1.568837440767634 0 0 0
4518 1 -8.04644819841473 78.99733214584897 5.301287440767634 0 0 0
4519 1 -8.046370711414729 81.48644645884896 5.301287440767634 0 0 0
4520 1 -9.807495247414728 80.24201354684895 6.545432464167636 0 0 0
4521 1 -9.807495247414728 80.24201354684895 4.057142417367634 0 0 0
4522 1 -8.046370711414729 81.48644645884896 -7.140210568592366 0 0 1
4523 1 -9.807688964914728 72.77467060784896 -5.896062559232366 0 0 0
4524 1 -8.046603172414729 74.01935200884894 -4.651917535832366 0 0 0
4525 1 -8.04652568541473 76.50846632184896 -4.651917535832366 0 0 0
4526 1 -9.80761147791473 75.26378492084895 -3.407757582632366 0 0 0
4527 1 -9.80761147791473 75.26378492084895 -5.896062559232366 0 0 0
4528 1 -8.04652568541473 76.50846632184896 -2.163612559232366 0 0 0
4529 1 -8.04644819841473 78.99733214584897 -2.163612559232366 0 0 0
4530 1 -9.807572734414729 77.75289923384896 -0.9194675358323661 0 0 0
4531 1 -9.807572734414729 77.75289923384896 -3.407757582632366 0 0 0
4532 1 -8.04644819841473 78.99733214584897 0.3246924173676335 0 0 0
4533 1 -8.046370711414729 81.48644645884896 0.3246924173676335 0 0 0
4534 1 -9.807495247414728 80.24201354684895 1.568837440767634 0 0 0
4535 1 -9.807495247414728 80.24201354684895 -0.9194675358323661 0 0 0
4536 1 -8.046370711414729 81.48644645884896 2.812982464167636 0 0 0
4537 1 -9.807572734414729 77.75289923384896 -5.896062559232366 0 0 0
4538 1 -8.04644819841473 78.99733214584897 -4.651917535832366 0 0 0
4539 1 -8.046370711414729 81.48644645884896 -4.651917535832366 0 0 0
4540 1 -9.807495247414728 80.24201354684895 -3.407757582632366 0 0 0
4541 1 -9.807495247414728 80.24201354684895 -5.896062559232366 0 0 0
4542 1 -8.046370711414729 81.48644645884896 -2.163612559232366 0 0 0
4543 1 -11.56889098791473 69.04112338284894 -7.140210568592366 0 0 1
4544 1 -11.56889098791473 69.04112338284894 2.812982464167636 0 0 0
4545 1 -11.56889098791473 69.04112338284894 5.301287440767634 0 0 0
4546 1 -11.56881350091473 71.53023769584895 5.301287440767634 0 0 0
4547 1 -13.32989929341473 70.28555629484894 6.545432464167636 0 0 0
4548 1 -13.32989929341473 70.28555629484894 4.057142417367634 0 0 0
4549 1 -11.56881350091473 71.53023769584895 -7.140210568592366 0 0 1
4550 1 -11.56873601391473 74.01935200884894 -7.140210568592366 0 0 1
4551 1 -13.32982180641473 72.77467060784896 6.545432464167636 0 0 0
4552 1 -11.56889098791473 69.04112338284894 -2.163612559232366 0 0 0
4553 1 -11.56889098791473 69.04112338284894 0.3246924173676335 0 0 0
4554 1 -11.56881350091473 71.53023769584895 0.3246924173676335 0 0 0
4555 1 -13.32989929341473 70.28555629484894 1.568837440767634 0 0 0
4556 1 -13.32989929341473 70.28555629484894 -0.9194675358323661 0 0 0
4557 1 -11.56881350091473 71.53023769584895 2.812982464167636 0 0 0
4558 1 -11.56873601391473 74.01935200884894 2.812982464167636 0 0 0
4559 1 -13.32982180641473 72.77467060784896 4.057142417367634 0 0 0
4560 1 -13.32982180641473 72.77467060784896 1.568837440767634 0 0 0
4561 1 -11.56873601391473 74.01935200884894 5.301287440767634 0 0 0
4562 1 -11.56865852691473 76.50846632184896 5.301287440767634 0 0 0
4563 1 -13.32978306291473 75.26378492084895 6.545432464167636 0 0 0
4564 1 -13.32978306291473 75.26378492084895 4.057142417367634 0 0 0
4565 1 -11.56865852691473 76.50846632184896 -7.140210568592366 0 0 1
4566 1 -11.56858103991473 78.99733214584897 -7.140210568592366 0 0 1
4567 1 -13.32970557591473 77.75289923384896 6.545432464167636 0 0 0
4568 1 -11.56889098791473 69.04112338284894 -4.651917535832366 0 0 0
4569 1 -11.56881350091473 71.53023769584895 -4.651917535832366 0 0 0
4570 1 -13.32989929341473 70.28555629484894 -3.407757582632366 0 0 0
4571 1 -13.32989929341473 70.28555629484894 -5.896062559232366 0 0 0
4572 1 -11.56881350091473 71.53023769584895 -2.163612559232366 0 0 0
4573 1 -11.56873601391473 74.01935200884894 -2.163612559232366 0 0 0
4574 1 -13.32982180641473 72.77467060784896 -0.9194675358323661 0 0 0
4575 1 -13.32982180641473 72.77467060784896 -3.407757582632366 0 0 0
4576 1 -11.56873601391473 74.01935200884894 0.3246924173676335 0 0 0
4577 1 -11.56865852691473 76.50846632184896 0.3246924173676335 0 0 0
4578 1 -13.32978306291473 75.26378492084895 1.568837440767634 0 0 0
4579 1 -13.32978306291473 75.26378492084895 -0.9194675358323661 0 0 0
4580 1 -11.56865852691473 76.50846632184896 2.812982464167636 0 0 0
4581 1 -11.56858103991473 78.99733214584897 2.812982464167636 0 0 0
4582 1 -13.32970557591473 77.75289923384896 4.057142417367634 0 0 0
4583 1 -13.32970557591473 77.75289923384896 1.568837440767634 0 0 0
4584 1 -11.56858103991473 78.99733214584897 5.301287440767634 0 0 0
4585 1 -11.56850355291473 81.48644645884896 5.301287440767634 0 0 0
4586 1 -13.32962808891473 80.24201354684895 6.545432464167636 0 0 0
4587 1 -13.32962808891473 80.24201354684895 4.057142417367634 0 0 0
4588 1 -11.56850355291473 81.48644645884896 -7.140210568592366 0 0 1
4589 1 -13.32982180641473 72.77467060784896 -5.896062559232366 0 0 0
4590 1 -11.56873601391473 74.01935200884894 -4.651917535832366 0 0 0
4591 1 -11.56865852691473 76.50846632184896 -4.651917535832366 0 0 0
4592 1 -13.32978306291473 75.26378492084895 -3.407757582632366 0 0 0
4593 1 -13.32978306291473 75.26378492084895 -5.896062559232366 0 0 0
4594 1 -11.56865852691473 76.50846632184896 -2.163612559232366 0 0 0
4595 1 -11.56858103991473 78.99733214584897 -2.163612559232366 0 0 0
4596 1 -13.32970557591473 77.75289923384896 -0.9194675358323661 0 0 0
4597 1 -13.32970557591473 77.75289923384896 -3.407757582632366 0 0 0
4598 1 -11.56858103991473 78.99733214584897 0.3246924173676335 0 0 0
4599 1 -11.56850355291473 81.48644645884896 0.3246924173676335 0 0 0
4600 1 -13.32962808891473 80.24201354684895 1.568837440767634 0 0 0
4601 1 -13.32962808891473 80.24201354684895 -0.9194675358323661 0 0 0
4602 1 -11.56850355291473 81.48644645884896 2.812982464167636 0 0 0
4603 1 -13.32970557591473 77.75289923384896 -5.896062559232366 0 0 0
4604 1 -11.56858103991473 78.99733214584897 -4.651917535832366 0 0 0
4605 1 -11.56850355291473 81.48644645884896 -4.651917535832366 0 0 0
4606 1 -13.32962808891473 80.24201354684895 -3.407757582632366 0 0 0
4607 1 -13.32962808891473 80.24201354684895 -5.896062559232366 0 0 0
4608 1 -11.56850355291473 81.48644645884896 -2.163612559232366 0 0 0
4609 1 -15.09102382941473 69.04112338284894 -7.140210568592366 0 0 1
4610 1 -15.09102382941473 69.04112338284894 2.812982464167636 0 0 0
4611 1 -15.09102382941473 69.04112338284894 5.301287440767634 0 0 0
4612 1 -15.09094634241473 71.53023769584895 5.301287440767634 0 0 0
4613 1 -15.09094634241473 71.53023769584895 -7.140210568592366 0 0 1
4614 1 -15.09086885541473 74.01935200884894 -7.140210568592366 0 0 1
4615 1 -15.09102382941473 69.04112338284894 -2.163612559232366 0 0 0
4616 1 -15.09102382941473 69.04112338284894 0.3246924173676335 0 0 0
4617 1 -15.09094634241473 71.53023769584895 0.3246924173676335 0 0 0
4618 1 -15.09094634241473 71.53023769584895 2.812982464167636 0 0 0
4619 1 -15.09086885541473 74.01935200884894 2.812982464167636 0 0 0
4620 1 -15.09086885541473 74.01935200884894 5.301287440767634 0 0 0
4621 1 -15.09079136841473 76.50846632184896 5.301287440767634 0 0 0
4622 1 -15.09079136841473 76.50846632184896 -7.140210568592366 0 0 1
4623 1 -15.09071388141473 78.99733214584897 -7.140210568592366 0 0 1
4624 1 -15.09102382941473 69.04112338284894 -4.651917535832366 0 0 0
4625 1 -15.09094634241473 71.53023769584895 -4.651917535832366 0 0 0
4626 1 -15.09094634241473 71.53023769584895 -2.163612559232366 0 0 0
4627 1 -15.09086885541473 74.01935200884894 -2.163612559232366 0 0 0
4628 1 -15.09086885541473 74.01935200884894 0.3246924173676335 0 0 0
4629 1 -15.09079136841473 76.50846632184896 0.3246924173676335 0 0 0
4630 1 -15.09079136841473 76.50846632184896 2.812982464167636 0 0 0
4631 1 -15.09071388141473 78.99733214584897 2.812982464167636 0 0 0
4632 1 -15.09071388141473 78.99733214584897 5.301287440767634 0 0 0
4633 1 -15.09063639441473 81.48644645884896 5.301287440767634 0 0 0
4634 1 -15.09063639441473 81.48644645884896 -7.140210568592366 0 0 1
4635 1 -15.09086885541473 74.01935200884894 -4.651917535832366 0 0 0
4636 1 -15.09079136841473 76.50846632184896 -4.651917535832366 0 0 0
4637 1 -15.09079136841473 76.50846632184896 -2.163612559232366 0 0 0
4638 1 -15.09071388141473 78.99733214584897 -2.163612559232366 0 0 0
4639 1 -15.09071388141473 78.99733214584897 0.3246924173676335 0 0 0
4640 1 -15.09063639441473 81.48644645884896 0.3246924173676335 0 0 0
4641 1 -15.09063639441473 81.48644645884896 2.812982464167636 0 0 0
4642 1 -15.09071388141473 78.99733214584897 -4.651917535832366 0 0 0
4643 1 -15.09063639441473 81.48644645884896 -4.651917535832366 0 0 0
4644 1 -15.09063639441473 81.48644645884896 -2.163612559232366 0 0 0
4645 1 0.7590195075852719 82.73112785984897 6.545432464167636 0 0 0
4646 1 0.7590195075852719 82.73112785984897 4.057142417367634 0 0 0
4647 1 0.7590195075852719 82.73112785984897 1.568837440767634 0 0 0
4648 1 0.7590582510852713 85.21999368384895 6.545432464167636 0 0 0
4649 1 0.7590582510852713 85.21999368384895 4.057142417367634 0 0 0
4650 1 0.7591357380852699 87.70910799684894 6.545432464167636 0 0 0
4651 1 0.7590195075852719 82.73112785984897 -0.9194675358323661 0 0 0
4652 1 0.7590195075852719 82.73112785984897 -3.407757582632366 0 0 0
4653 1 0.7590582510852713 85.21999368384895 1.568837440767634 0 0 0
4654 1 0.7590582510852713 85.21999368384895 -0.9194675358323661 0 0 0
4655 1 0.7591357380852699 87.70910799684894 4.057142417367634 0 0 0
4656 1 0.7591357380852699 87.70910799684894 1.568837440767634 0 0 0
4657 1 0.7592132250852686 90.19822230984896 6.545432464167636 0 0 0
4658 1 0.7592132250852686 90.19822230984896 4.057142417367634 0 0 0
4659 1 0.7592907120852708 92.68733662284895 6.545432464167636 0 0 0
4660 1 0.7590195075852719 82.73112785984897 -5.896062559232366 0 0 0
4661 1 0.7590582510852713 85.21999368384895 -3.407757582632366 0 0 0
4662 1 0.7590582510852713 85.21999368384895 -5.896062559232366 0 0 0
4663 1 0.7591357380852699 87.70910799684894 -0.9194675358323661 0 0 0
4664 1 0.7591357380852699 87.70910799684894 -3.407757582632366 0 0 0
4665 1 0.7592132250852686 90.19822230984896 1.568837440767634 0 0 0
4666 1 0.7592132250852686 90.19822230984896 -0.9194675358323661 0 0 0
4667 1 0.7592907120852708 92.68733662284895 4.057142417367634 0 0 0
4668 1 0.7592907120852708 92.68733662284895 1.568837440767634 0 0 0
4669 1 0.7593681990852694 95.17645093584896 6.545432464167636 0 0 0
4670 1 0.7593681990852694 95.17645093584896 4.057142417367634 0 0 0
4671 1 0.7591357380852699 87.70910799684894 -5.896062559232366 0 0 0
4672 1 0.7592132250852686 90.19822230984896 -3.407757582632366 0 0 0
4673 1 0.7592132250852686 90.19822230984896 -5.896062559232366 0 0 0
4674 1 0.7592907120852708 92.68733662284895 -0.9194675358323661 0 0 0
4675 1 0.7592907120852708 92.68733662284895 -3.407757582632366 0 0 0
4676 1 0.7593681990852694 95.17645093584896 1.568837440767634 0 0 0
4677 1 0.7593681990852694 95.17645093584896 -0.9194675358323661 0 0 0
4678 1 0.7592907120852708 92.68733662284895 -5.896062559232366 0 0 0
4679 1 0.7593681990852694 95.17645093584896 -3.407757582632366 0 0 0
4680 1 0.7593681990852694 95.17645093584896 -5.896062559232366 0 0 0
4681 1 -1.00202754141473 83.97556077184895 -7.140210568592366 0 0 1
4682 1 -2.76315207741473 82.73112785984897 6.545432464167636 0 0 0
4683 1 -1.00202754141473 83.97556077184895 2.812982464167636 0 0 0
4684 1 -2.76315207741473 82.73112785984897 4.057142417367634 0 0 0
4685 1 -2.76315207741473 82.73112785984897 1.568837440767634 0 0 0
4686 1 -1.00202754141473 83.97556077184895 5.301287440767634 0 0 0
4687 1 -1.001950054414731 86.46467508484893 5.301287440767634 0 0 0
4688 1 -2.763074590414732 85.21999368384895 6.545432464167636 0 0 0
4689 1 -2.763074590414732 85.21999368384895 4.057142417367634 0 0 0
4690 1 -1.001950054414731 86.46467508484893 -7.140210568592366 0 0 1
4691 1 -1.001872567414729 88.95378939784895 -7.140210568592366 0 0 1
4692 1 -2.76299710341473 87.70910799684894 6.545432464167636 0 0 0
4693 1 -1.00202754141473 83.97556077184895 -2.163612559232366 0 0 0
4694 1 -2.76315207741473 82.73112785984897 -0.9194675358323661 0 0 0
4695 1 -2.76315207741473 82.73112785984897 -3.407757582632366 0 0 0
4696 1 -1.00202754141473 83.97556077184895 0.3246924173676335 0 0 0
4697 1 -1.001950054414731 86.46467508484893 0.3246924173676335 0 0 0
4698 1 -2.763074590414732 85.21999368384895 1.568837440767634 0 0 0
4699 1 -2.763074590414732 85.21999368384895 -0.9194675358323661 0 0 0
4700 1 -1.001950054414731 86.46467508484893 2.812982464167636 0 0 0
4701 1 -1.001872567414729 88.95378939784895 2.812982464167636 0 0 0
4702 1 -2.76299710341473 87.70910799684894 4.057142417367634 0 0 0
4703 1 -2.76299710341473 87.70910799684894 1.568837440767634 0 0 0
4704 1 -1.001872567414729 88.95378939784895 5.301287440767634 0 0 0
4705 1 -1.00179508041473 91.44265522184897 5.301287440767634 0 0 0
4706 1 -2.762919616414731 90.19822230984896 6.545432464167636 0 0 0
4707 1 -2.762919616414731 90.19822230984896 4.057142417367634 0 0 0
4708 1 -1.00179508041473 91.44265522184897 -7.140210568592366 0 0 1
4709 1 -1.001717593414732 93.93176953484895 -7.140210568592366 0 0 1
4710 1 -2.762842129414729 92.68733662284895 6.545432464167636 0 0 0
4711 1 -2.76315207741473 82.73112785984897 -5.896062559232366 0 0 0
4712 1 -1.00202754141473 83.97556077184895 -4.651917535832366 0 0 0
4713 1 -1.001950054414731 86.46467508484893 -4.651917535832366 0 0 0
4714 1 -2.763074590414732 85.21999368384895 -3.407757582632366 0 0 0
4715 1 -2.763074590414732 85.21999368384895 -5.896062559232366 0 0 0
4716 1 -1.001950054414731 86.46467508484893 -2.163612559232366 0 0 0
4717 1 -1.001872567414729 88.95378939784895 -2.163612559232366 0 0 0
4718 1 -2.76299710341473 87.70910799684894 -0.9194675358323661 0 0 0
4719 1 -2.76299710341473 87.70910799684894 -3.407757582632366 0 0 0
4720 1 -1.001872567414729 88.95378939784895 0.3246924173676335 0 0 0
4721 1 -1.00179508041473 91.44265522184897 0.3246924173676335 0 0 0
4722 1 -2.762919616414731 90.19822230984896 1.568837440767634 0 0 0
4723 1 -2.762919616414731 90.19822230984896 -0.9194675358323661 0 0 0
4724 1 -1.00179508041473 91.44265522184897 2.812982464167636 0 0 0
4725 1 -1.001717593414732 93.93176953484895 2.812982464167636 0 0 0
4726 1 -2.762842129414729 92.68733662284895 4.057142417367634 0 0 0
4727 1 -2.762842129414729 92.68733662284895 1.568837440767634 0 0 0
4728 1 -1.001717593414732 93.93176953484895 5.301287440767634 0 0 0
4729 1 -2.76276464241473 95.17645093584896 6.545432464167636 0 0 0
4730 1 -2.76276464241473 95.17645093584896 4.057142417367634 0 0 0
4731 1 -2.76299710341473 87.70910799684894 -5.896062559232366 0 0 0
4732 1 -1.001872567414729 88.95378939784895 -4.651917535832366 0 0 0
4733 1 -1.00179508041473 91.44265522184897 -4.651917535832366 0 0 0
4734 1 -2.762919616414731 90.19822230984896 -3.407757582632366 0 0 0
4735 1 -2.762919616414731 90.19822230984896 -5.896062559232366 0 0 0
4736 1 -1.00179508041473 91.44265522184897 -2.163612559232366 0 0 0
4737 1 -1.001717593414732 93.93176953484895 -2.163612559232366 0 0 0
4738 1 -2.762842129414729 92.68733662284895 -0.9194675358323661 0 0 0
4739 1 -2.762842129414729 92.68733662284895 -3.407757582632366 0 0 0
4740 1 -1.001717593414732 93.93176953484895 0.3246924173676335 0 0 0
4741 1 -2.76276464241473 95.17645093584896 1.568837440767634 0 0 0
4742 1 -2.76276464241473 95.17645093584896 -0.9194675358323661 0 0 0
4743 1 -2.762842129414729 92.68733662284895 -5.896062559232366 0 0 0
4744 1 -1.001717593414732 93.93176953484895 -4.651917535832366 0 0 0
4745 1 -2.76276464241473 95.17645093584896 -3.407757582632366 0 0 0
4746 1 -2.76276464241473 95.17645093584896 -5.896062559232366 0 0 0
4747 1 -4.524160382914729 83.97556077184895 -7.140210568592366 0 0 1
4748 1 -6.285284918914728 82.73112785984897 6.545432464167636 0 0 0
4749 1 -4.524160382914729 83.97556077184895 2.812982464167636 0 0 0
4750 1 -6.285284918914728 82.73112785984897 4.057142417367634 0 0 0
4751 1 -6.285284918914728 82.73112785984897 1.568837440767634 0 0 0
4752 1 -4.524160382914729 83.97556077184895 5.301287440767634 0 0 0
4753 1 -4.524082895914729 86.46467508484893 5.301287440767634 0 0 0
4754 1 -6.285207431914728 85.21999368384895 6.545432464167636 0 0 0
4755 1 -6.285207431914728 85.21999368384895 4.057142417367634 0 0 0
4756 1 -4.524082895914729 86.46467508484893 -7.140210568592366 0 0 1
4757 1 -4.524005408914729 88.95378939784895 -7.140210568592366 0 0 1
4758 1 -6.285129944914729 87.70910799684894 6.545432464167636 0 0 0
4759 1 -4.524160382914729 83.97556077184895 -2.163612559232366 0 0 0
4760 1 -6.285284918914728 82.73112785984897 -0.9194675358323661 0 0 0
4761 1 -6.285284918914728 82.73112785984897 -3.407757582632366 0 0 0
4762 1 -4.524160382914729 83.97556077184895 0.3246924173676335 0 0 0
4763 1 -4.524082895914729 86.46467508484893 0.3246924173676335 0 0 0
4764 1 -6.285207431914728 85.21999368384895 1.568837440767634 0 0 0
4765 1 -6.285207431914728 85.21999368384895 -0.9194675358323661 0 0 0
4766 1 -4.524082895914729 86.46467508484893 2.812982464167636 0 0 0
4767 1 -4.524005408914729 88.95378939784895 2.812982464167636 0 0 0
4768 1 -6.285129944914729 87.70910799684894 4.057142417367634 0 0 0
4769 1 -6.285129944914729 87.70910799684894 1.568837440767634 0 0 0
4770 1 -4.524005408914729 88.95378939784895 5.301287440767634 0 0 0
4771 1 -4.523927921914728 91.44265522184897 5.301287440767634 0 0 0
4772 1 -6.285052457914729 90.19822230984896 6.545432464167636 0 0 0
4773 1 -6.285052457914729 90.19822230984896 4.057142417367634 0 0 0
4774 1 -4.523927921914728 91.44265522184897 -7.140210568592366 0 0 1
4775 1 -4.523889178414729 93.93176953484895 -7.140210568592366 0 0 1
4776 1 -6.284974970914728 92.68733662284895 6.545432464167636 0 0 0
4777 1 -6.285284918914728 82.73112785984897 -5.896062559232366 0 0 0
4778 1 -4.524160382914729 83.97556077184895 -4.651917535832366 0 0 0
4779 1 -4.524082895914729 86.46467508484893 -4.651917535832366 0 0 0
4780 1 -6.285207431914728 85.21999368384895 -3.407757582632366 0 0 0
4781 1 -6.285207431914728 85.21999368384895 -5.896062559232366 0 0 0
4782 1 -4.524082895914729 86.46467508484893 -2.163612559232366 0 0 0
4783 1 -4.524005408914729 88.95378939784895 -2.163612559232366 0 0 0
4784 1 -6.285129944914729 87.70910799684894 -0.9194675358323661 0 0 0
4785 1 -6.285129944914729 87.70910799684894 -3.407757582632366 0 0 0
4786 1 -4.524005408914729 88.95378939784895 0.3246924173676335 0 0 0
4787 1 -4.523927921914728 91.44265522184897 0.3246924173676335 0 0 0
4788 1 -6.285052457914729 90.19822230984896 1.568837440767634 0 0 0
4789 1 -6.285052457914729 90.19822230984896 -0.9194675358323661 0 0 0
4790 1 -4.523927921914728 91.44265522184897 2.812982464167636 0 0 0
4791 1 -4.523889178414729 93.93176953484895 2.812982464167636 0 0 0
4792 1 -6.284974970914728 92.68733662284895 4.057142417367634 0 0 0
4793 1 -6.284974970914728 92.68733662284895 1.568837440767634 0 0 0
4794 1 -4.523889178414729 93.93176953484895 5.301287440767634 0 0 0
4795 1 -6.284897483914728 95.17645093584896 6.545432464167636 0 0 0
4796 1 -6.284897483914728 95.17645093584896 4.057142417367634 0 0 0
4797 1 -6.285129944914729 87.70910799684894 -5.896062559232366 0 0 0
4798 1 -4.524005408914729 88.95378939784895 -4.651917535832366 0 0 0
4799 1 -4.523927921914728 91.44265522184897 -4.651917535832366 0 0 0
4800 1 -6.285052457914729 90.19822230984896 -3.407757582632366 0 0 0
4801 1 -6.285052457914729 90.19822230984896 -5.896062559232366 0 0 0
4802 1 -4.523927921914728 91.44265522184897 -2.163612559232366 0 0 0
4803 1 -4.523889178414729 93.93176953484895 -2.163612559232366 0 0 0
4804 1 -6.284974970914728 92.68733662284895 -0.9194675358323661 0 0 0
4805 1 -6.284974970914728 92.68733662284895 -3.407757582632366 0 0 0
4806 1 -4.523889178414729 93.93176953484895 0.3246924173676335 0 0 0
4807 1 -6.284897483914728 95.17645093584896 1.568837440767634 0 0 0
4808 1 -6.284897483914728 95.17645093584896 -0.9194675358323661 0 0 0
4809 1 -6.284974970914728 92.68733662284895 -5.896062559232366 0 0 0
4810 1 -4.523889178414729 93.93176953484895 -4.651917535832366 0 0 0
4811 1 -6.284897483914728 95.17645093584896 -3.407757582632366 0 0 0
4812 1 -6.284897483914728 95.17645093584896 -5.896062559232366 0 0 0
4813 1 -8.046293224414729 83.97556077184895 -7.140210568592366 0 0 1
4814 1 -9.807417760414729 82.73112785984897 6.545432464167636 0 0 0
4815 1 -8.046293224414729 83.97556077184895 2.812982464167636 0 0 0
4816 1 -9.807417760414729 82.73112785984897 4.057142417367634 0 0 0
4817 1 -9.807417760414729 82.73112785984897 1.568837440767634 0 0 0
4818 1 -8.046293224414729 83.97556077184895 5.301287440767634 0 0 0
4819 1 -8.046215737414729 86.46467508484893 5.301287440767634 0 0 0
4820 1 -9.807340273414729 85.21999368384895 6.545432464167636 0 0 0
4821 1 -9.807340273414729 85.21999368384895 4.057142417367634 0 0 0
4822 1 -8.046215737414729 86.46467508484893 -7.140210568592366 0 0 1
4823 1 -8.04613825041473 88.95378939784895 -7.140210568592366 0 0 1
4824 1 -9.807262786414729 87.70910799684894 6.545432464167636 0 0 0
4825 1 -8.046293224414729 83.97556077184895 -2.163612559232366 0 0 0
4826 1 -9.807417760414729 82.73112785984897 -0.9194675358323661 0 0 0
4827 1 -9.807417760414729 82.73112785984897 -3.407757582632366 0 0 0
4828 1 -8.046293224414729 83.97556077184895 0.3246924173676335 0 0 0
4829 1 -8.046215737414729 86.46467508484893 0.3246924173676335 0 0 0
4830 1 -9.807340273414729 85.21999368384895 1.568837440767634 0 0 0
4831 1 -9.807340273414729 85.21999368384895 -0.9194675358323661 0 0 0
4832 1 -8.046215737414729 86.46467508484893 2.812982464167636 0 0 0
4833 1 -8.04613825041473 88.95378939784895 2.812982464167636 0 0 0
4834 1 -9.807262786414729 87.70910799684894 4.057142417367634 0 0 0
4835 1 -9.807262786414729 87.70910799684894 1.568837440767634 0 0 0
4836 1 -8.04613825041473 88.95378939784895 5.301287440767634 0 0 0
4837 1 -8.046099506914731 91.44265522184897 5.301287440767634 0 0 0
4838 1 -9.807185299414728 90.19822230984896 6.545432464167636 0 0 0
4839 1 -9.807185299414728 90.19822230984896 4.057142417367634 0 0 0
4840 1 -8.046099506914731 91.44265522184897 -7.140210568592366 0 0 1
4841 1 -8.04602201991473 93.93176953484895 -7.140210568592366 0 0 1
4842 1 -9.807107812414728 92.68733662284895 6.545432464167636 0 0 0
4843 1 -9.807417760414729 82.73112785984897 -5.896062559232366 0 0 0
4844 1 -8.046293224414729 83.97556077184895 -4.651917535832366 0 0 0
4845 1 -8.046215737414729 86.46467508484893 -4.651917535832366 0 0 0
4846 1 -9.807340273414729 85.21999368384895 -3.407757582632366 0 0 0
4847 1 -9.807340273414729 85.21999368384895 -5.896062559232366 0 0 0
4848 1 -8.046215737414729 86.46467508484893 -2.163612559232366 0 0 0
4849 1 -8.04613825041473 88.95378939784895 -2.163612559232366 0 0 0
4850 1 -9.807262786414729 87.70910799684894 -0.9194675358323661 0 0 0
4851 1 -9.807262786414729 87.70910799684894 -3.407757582632366 0 0 0
4852 1 -8.04613825041473 88.95378939784895 0.3246924173676335 0 0 0
4853 1 -8.046099506914731 91.44265522184897 0.3246924173676335 0 0 0
4854 1 -9.807185299414728 90.19822230984896 1.568837440767634 0 0 0
4855 1 -9.807185299414728 90.19822230984896 -0.9194675358323661 0 0 0
4856 1 -8.046099506914731 91.44265522184897 2.812982464167636 0 0 0
4857 1 -8.04602201991473 93.93176953484895 2.812982464167636 0 0 0
4858 1 -9.807107812414728 92.68733662284895 4.057142417367634 0 0 0
4859 1 -9.807107812414728 92.68733662284895 1.568837440767634 0 0 0
4860 1 -8.04602201991473 93.93176953484895 5.301287440767634 0 0 0
4861 1 -9.807030325414729 95.17645093584896 6.545432464167636 0 0 0
4862 1 -9.807030325414729 95.17645093584896 4.057142417367634 0 0 0
4863 1 -9.807262786414729 87.70910799684894 -5.896062559232366 0 0 0
4864 1 -8.04613825041473 88.95378939784895 -4.651917535832366 0 0 0
4865 1 -8.046099506914731 91.44265522184897 -4.651917535832366 0 0 0
4866 1 -9.807185299414728 90.19822230984896 -3.407757582632366 0 0 0
4867 1 -9.807185299414728 90.19822230984896 -5.896062559232366 0 0 0
4868 1 -8.046099506914731 91.44265522184897 -2.163612559232366 0 0 0
4869 1 -8.04602201991473 93.93176953484895 -2.163612559232366 0 0 0
4870 1 -9.807107812414728 92.68733662284895 -0.9194675358323661 0 0 0
4871 1 -9.807107812414728 92.68733662284895 -3.407757582632366 0 0 0
4872 1 -8.04602201991473 93.93176953484895 0.3246924173676335 0 0 0
4873 1 -9.807030325414729 95.17645093584896 1.568837440767634 0 0 0
4874 1 -9.807030325414729 95.17645093584896 -0.9194675358323661 0 0 0
4875 1 -9.807107812414728 92.68733662284895 -5.896062559232366 0 0 0
4876 1 -8.04602201991473 93.93176953484895 -4.651917535832366 0 0 0
4877 1 -9.807030325414729 95.17645093584896 -3.407757582632366 0 0 0
4878 1 -9.807030325414729 95.17645093584896 -5.896062559232366 0 0 0
4879 1 -11.56842606591473 83.97556077184895 -7.140210568592366 0 0 1
4880 1 -13.32955060191473 82.73112785984897 6.545432464167636 0 0 0
4881 1 -11.56842606591473 83.97556077184895 2.812982464167636 0 0 0
4882 1 -13.32955060191473 82.73112785984897 4.057142417367634 0 0 0
4883 1 -13.32955060191473 82.73112785984897 1.568837440767634 0 0 0
4884 1 -11.56842606591473 83.97556077184895 5.301287440767634 0 0 0
4885 1 -11.56834857891473 86.46467508484893 5.301287440767634 0 0 0
4886 1 -13.32947311491473 85.21999368384895 6.545432464167636 0 0 0
4887 1 -13.32947311491473 85.21999368384895 4.057142417367634 0 0 0
4888 1 -11.56834857891473 86.46467508484893 -7.140210568592366 0 0 1
4889 1 -11.56830983541473 88.95378939784895 -7.140210568592366 0 0 1
4890 1 -13.32939562791473 87.70910799684894 6.545432464167636 0 0 0
4891 1 -11.56842606591473 83.97556077184895 -2.163612559232366 0 0 0
4892 1 -13.32955060191473 82.73112785984897 -0.9194675358323661 0 0 0
4893 1 -13.32955060191473 82.73112785984897 -3.407757582632366 0 0 0
4894 1 -11.56842606591473 83.97556077184895 0.3246924173676335 0 0 0
4895 1 -11.56834857891473 86.46467508484893 0.3246924173676335 0 0 0
4896 1 -13.32947311491473 85.21999368384895 1.568837440767634 0 0 0
4897 1 -13.32947311491473 85.21999368384895 -0.9194675358323661 0 0 0
4898 1 -11.56834857891473 86.46467508484893 2.812982464167636 0 0 0
4899 1 -11.56830983541473 88.95378939784895 2.812982464167636 0 0 0
4900 1 -13.32939562791473 87.70910799684894 4.057142417367634 0 0 0
4901 1 -13.32939562791473 87.70910799684894 1.568837440767634 0 0 0
4902 1 -11.56830983541473 88.95378939784895 5.301287440767634 0 0 0
4903 1 -11.56823234841473 91.44265522184897 5.301287440767634 0 0 0
4904 1 -13.32931814091473 90.19822230984896 6.545432464167636 0 0 0
4905 1 -13.32931814091473 90.19822230984896 4.057142417367634 0 0 0
4906 1 -11.56823234841473 91.44265522184897 -7.140210568592366 0 0 1
4907 1 -11.56815486141473 93.93176953484895 -7.140210568592366 0 0 1
4908 1 -13.32924065391473 92.68733662284895 6.545432464167636 0 0 0
4909 1 -13.32955060191473 82.73112785984897 -5.896062559232366 0 0 0
4910 1 -11.56842606591473 83.97556077184895 -4.651917535832366 0 0 0
4911 1 -11.56834857891473 86.46467508484893 -4.651917535832366 0 0 0
4912 1 -13.32947311491473 85.21999368384895 -3.407757582632366 0 0 0
4913 1 -13.32947311491473 85.21999368384895 -5.896062559232366 0 0 0
4914 1 -11.56834857891473 86.46467508484893 -2.163612559232366 0 0 0
4915 1 -11.56830983541473 88.95378939784895 -2.163612559232366 0 0 0
4916 1 -13.32939562791473 87.70910799684894 -0.9194675358323661 0 0 0
4917 1 -13.32939562791473 87.70910799684894 -3.407757582632366 0 0 0
4918 1 -11.56830983541473 88.95378939784895 0.3246924173676335 0 0 0
4919 1 -11.56823234841473 91.44265522184897 0.3246924173676335 0 0 0
4920 1 -13.32931814091473 90.19822230984896 1.568837440767634 0 0 0
4921 1 -13.32931814091473 90.19822230984896 -0.9194675358323661 0 0 0
4922 1 -11.56823234841473 91.44265522184897 2.812982464167636 0 0 0
4923 1 -11.56815486141473 93.93176953484895 2.812982464167636 0 0 0
4924 1 -13.32924065391473 92.68733662284895 4.057142417367634 0 0 0
4925 1 -13.32924065391473 92.68733662284895 1.568837440767634 0 0 0
4926 1 -11.56815486141473 93.93176953484895 5.301287440767634 0 0 0
4927 1 -13.32916316691473 95.17645093584896 6.545432464167636 0 0 0
4928 1 -13.32916316691473 95.17645093584896 4.057142417367634 0 0 0
4929 1 -13.32939562791473 87.70910799684894 -5.896062559232366 0 0 0
4930 1 -11.56830983541473 88.95378939784895 -4.651917535832366 0 0 0
4931 1 -11.56823234841473 91.44265522184897 -4.651917535832366 0 0 0
4932 1 -13.32931814091473 90.19822230984896 -3.407757582632366 0 0 0
4933 1 -13.32931814091473 90.19822230984896 -5.896062559232366 0 0 0
4934 1 -11.56823234841473 91.44265522184897 -2.163612559232366 0 0 0
4935 1 -11.56815486141473 93.93176953484895 -2.163612559232366 0 0 0
4936 1 -13.32924065391473 92.68733662284895 -0.9194675358323661 0 0 0
4937 1 -13.32924065391473 92.68733662284895 -3.407757582632366 0 0 0
4938 1 -11.56815486141473 93.93176953484895 0.3246924173676335 0 0 0
4939 1 -13.32916316691473 95.17645093584896 1.568837440767634 0 0 0
4940 1 -13.32916316691473 95.17645093584896 -0.9194675358323661 0 0 0
4941 1 -13.32924065391473 92.68733662284895 -5.896062559232366 0 0 0
4942 1 -11.56815486141473 93.93176953484895 -4.651917535832366 0 0 0
4943 1 -13.32916316691473 95.17645093584896 -3.407757582632366 0 0 0
4944 1 -13.32916316691473 95.17645093584896 -5.896062559232366 0 0 0
4945 1 -15.09055890741473 83.97556077184895 -7.140210568592366 0 0 1
4946 1 -15.09055890741473 83.97556077184895 2.812982464167636 0 0 0
4947 1 -15.09055890741473 83.97556077184895 5.301287440767634 0 0 0
4948 1 -15.09052016391473 86.46467508484893 5.301287440767634 0 0 0
4949 1 -15.09052016391473 86.46467508484893 -7.140210568592366 0 0 1
4950 1 -15.09044267691473 88.95378939784895 -7.140210568592366 0 0 1
4951 1 -15.09055890741473 83.97556077184895 -2.163612559232366 0 0 0
4952 1 -15.09055890741473 83.97556077184895 0.3246924173676335 0 0 0
4953 1 -15.09052016391473 86.46467508484893 0.3246924173676335 0 0 0
4954 1 -15.09052016391473 86.46467508484893 2.812982464167636 0 0 0
4955 1 -15.09044267691473 88.95378939784895 2.812982464167636 0 0 0
4956 1 -15.09044267691473 88.95378939784895 5.301287440767634 0 0 0
4957 1 -15.09036518991473 91.44265522184897 5.301287440767634 0 0 0
4958 1 -15.09036518991473 91.44265522184897 -7.140210568592366 0 0 1
4959 1 -15.09028770291473 93.93176953484895 -7.140210568592366 0 0 1
4960 1 -15.09055890741473 83.97556077184895 -4.651917535832366 0 0 0
4961 1 -15.09052016391473 86.46467508484893 -4.651917535832366 0 0 0
4962 1 -15.09052016391473 86.46467508484893 -2.163612559232366 0 0 0
4963 1 -15.09044267691473 88.95378939784895 -2.163612559232366 0 0 0
4964 1 -15.09044267691473 88.95378939784895 0.3246924173676335 0 0 0
4965 1 -15.09036518991473 91.44265522184897 0.3246924173676335 0 0 0
4966 1 -15.09036518991473 91.44265522184897 2.812982464167636 0 0 0
4967 1 -15.09028770291473 93.93176953484895 2.812982464167636 0 0 0
4968 1 -15.09028770291473 93.93176953484895 5.301287440767634 0 0 0
4969 1 -15.09044267691473 88.95378939784895 -4.651917535832366 0 0 0
4970 1 -15.09036518991473 91.44265522184897 -4.651917535832366 0 0 0
4971 1 -15.09036518991473 91.44265522184897 -2.163612559232366 0 0 0
4972 1 -15.09028770291473 93.93176953484895 -2.163612559232366 0 0 0
4973 1 -15.09028770291473 93.93176953484895 0.3246924173676335 0 0 0
4974 1 -15.09028770291473 93.93176953484895 -4.651917535832366 0 0 0
4975 1 0.7594456860852716 97.66606222684895 6.545432464167636 0 0 0
4976 1 0.7594456860852716 97.66606222684895 4.057142417367634 0 0 0
4977 1 0.7594456860852716 97.66606222684895 1.568837440767634 0 0 0
4978 1 0.7595231730852703 100.1569159628489 6.545432464167636 0 0 0
4979 1 0.7595231730852703 100.1569159628489 4.057142417367634 0 0 0
4980 1 0.7595619165852696 102.6505030778489 6.545432464167636 0 0 0
4981 1 0.7594456860852716 97.66606222684895 -0.9194675358323661 0 0 0
4982 1 0.7594456860852716 97.66606222684895 -3.407757582632366 0 0 0
4983 1 0.7595231730852703 100.1569159628489 1.568837440767634 0 0 0
4984 1 0.7595231730852703 100.1569159628489 -0.9194675358323661 0 0 0
4985 1 0.7595619165852696 102.6505030778489 4.057142417367634 0 0 0
4986 1 0.7595619165852696 102.6505030778489 1.568837440767634 0 0 0
4987 1 0.7594456860852716 97.66606222684895 -5.896062559232366 0 0 0
4988 1 0.7595231730852703 100.1569159628489 -3.407757582632366 0 0 0
4989 1 0.7595231730852703 100.1569159628489 -5.896062559232366 0 0 0
4990 1 0.7595619165852696 102.6505030778489 -0.9194675358323661 0 0 0
4991 1 0.7595619165852696 102.6505030778489 -3.407757582632366 0 0 0
4992 1 0.7595619165852696 102.6505030778489 -5.896062559232366 0 0 0
4993 1 -1.001678849914729 96.42063535884897 5.301287440767634 0 0 0
4994 1 -1.001678849914729 96.42063535884897 -7.140210568592366 0 0 1
4995 1 -1.00160136291473 98.90825873784895 -7.140210568592366 0 0 1
4996 1 -2.762687155414731 97.66606222684895 6.545432464167636 0 0 0
4997 1 -1.001678849914729 96.42063535884897 0.3246924173676335 0 0 0
4998 1 -1.001678849914729 96.42063535884897 2.812982464167636 0 0 0
4999 1 -1.00160136291473 98.90825873784895 2.812982464167636 0 0 0
5000 1 -2.762687155414731 97.66606222684895 4.057142417367634 0 0 0
5001 1 -2.762687155414731 97.66606222684895 1.568837440767634 0 0 0
5002 1 -1.00160136291473 98.90825873784895 5.301287440767634 0 0 0
5003 1 -1.001523875914728 101.390912336849 5.301287440767634 0 0 0
5004 1 -2.762609668414729 100.1569159628489 6.545432464167636 0 0 0
5005 1 -2.762609668414729 100.1569159628489 4.057142417367634 0 0 0
5006 1 -1.001523875914728 101.390912336849 -7.140210568592366 0 0 1
5007 1 -1.001523875914728 103.874311402849 -7.140210568592366 0 0 1
5008 1 -2.76257092491473 102.6505030778489 6.545432464167636 0 0 0
5009 1 -1.001678849914729 96.42063535884897 -4.651917535832366 0 0 0
5010 1 -1.001678849914729 96.42063535884897 -2.163612559232366 0 0 0
5011 1 -1.00160136291473 98.90825873784895 -2.163612559232366 0 0 0
5012 1 -2.762687155414731 97.66606222684895 -0.9194675358323661 0 0 0
5013 1 -2.762687155414731 97.66606222684895 -3.407757582632366 0 0 0
5014 1 -1.00160136291473 98.90825873784895 0.3246924173676335 0 0 0
5015 1 -1.001523875914728 101.390912336849 0.3246924173676335 0 0 0
5016 1 -2.762609668414729 100.1569159628489 1.568837440767634 0 0 0
5017 1 -2.762609668414729 100.1569159628489 -0.9194675358323661 0 0 0
5018 1 -1.001523875914728 101.390912336849 2.812982464167636 0 0 0
5019 1 -1.001523875914728 103.874311402849 2.812982464167636 0 0 0
5020 1 -2.76257092491473 102.6505030778489 4.057142417367634 0 0 0
5021 1 -2.76257092491473 102.6505030778489 1.568837440767634 0 0 0
5022 1 -1.001523875914728 103.874311402849 5.301287440767634 0 0 0
5023 1 -2.762687155414731 97.66606222684895 -5.896062559232366 0 0 0
5024 1 -1.00160136291473 98.90825873784895 -4.651917535832366 0 0 0
5025 1 -1.001523875914728 101.390912336849 -4.651917535832366 0 0 0
5026 1 -2.762609668414729 100.1569159628489 -3.407757582632366 0 0 0
5027 1 -2.762609668414729 100.1569159628489 -5.896062559232366 0 0 0
5028 1 -1.001523875914728 101.390912336849 -2.163612559232366 0 0 0
5029 1 -1.001523875914728 103.874311402849 -2.163612559232366 0 0 0
5030 1 -2.76257092491473 102.6505030778489 -0.9194675358323661 0 0 0
5031 1 -2.76257092491473 102.6505030778489 -3.407757582632366 0 0 0
5032 1 -1.001523875914728 103.874311402849 0.3246924173676335 0 0 0
5033 1 -2.76257092491473 102.6505030778489 -5.896062559232366 0 0 0
5034 1 -1.001523875914728 103.874311402849 -4.651917535832366 0 0 0
5035 1 -4.52381169141473 96.42063535884897 5.301287440767634 0 0 0
5036 1 -4.52381169141473 96.42063535884897 -7.140210568592366 0 0 1
5037 1 -4.52373420441473 98.90825873784895 -7.140210568592366 0 0 1
5038 1 -6.284819996914731 97.66606222684895 6.545432464167636 0 0 0
5039 1 -4.52381169141473 96.42063535884897 0.3246924173676335 0 0 0
5040 1 -4.52381169141473 96.42063535884897 2.812982464167636 0 0 0
5041 1 -4.52373420441473 98.90825873784895 2.812982464167636 0 0 0
5042 1 -6.284819996914731 97.66606222684895 4.057142417367634 0 0 0
5043 1 -6.284819996914731 97.66606222684895 1.568837440767634 0 0 0
5044 1 -4.52373420441473 98.90825873784895 5.301287440767634 0 0 0
5045 1 -4.523656717414729 101.390912336849 5.301287440767634 0 0 0
5046 1 -6.28474250991473 100.1569159628489 6.545432464167636 0 0 0
5047 1 -6.28474250991473 100.1569159628489 4.057142417367634 0 0 0
5048 1 -4.523656717414729 101.390912336849 -7.140210568592366 0 0 1
5049 1 -4.523656717414729 103.874311402849 -7.140210568592366 0 0 1
5050 1 -6.284703766414729 102.6505030778489 6.545432464167636 0 0 0
5051 1 -4.52381169141473 96.42063535884897 -4.651917535832366 0 0 0
5052 1 -4.52381169141473 96.42063535884897 -2.163612559232366 0 0 0
5053 1 -4.52373420441473 98.90825873784895 -2.163612559232366 0 0 0
5054 1 -6.284819996914731 97.66606222684895 -0.9194675358323661 0 0 0
5055 1 -6.284819996914731 97.66606222684895 -3.407757582632366 0 0 0
5056 1 -4.52373420441473 98.90825873784895 0.3246924173676335 0 0 0
5057 1 -4.523656717414729 101.390912336849 0.3246924173676335 0 0 0
5058 1 -6.28474250991473 100.1569159628489 1.568837440767634 0 0 0
5059 1 -6.28474250991473 100.1569159628489 -0.9194675358323661 0 0 0
5060 1 -4.523656717414729 101.390912336849 2.812982464167636 0 0 0
5061 1 -4.523656717414729 103.874311402849 2.812982464167636 0 0 0
5062 1 -6.284703766414729 102.6505030778489 4.057142417367634 0 0 0
5063 1 -6.284703766414729 102.6505030778489 1.568837440767634 0 0 0
5064 1 -4.523656717414729 103.874311402849 5.301287440767634 0 0 0
5065 1 -6.284819996914731 97.66606222684895 -5.896062559232366 0 0 0
5066 1 -4.52373420441473 98.90825873784895 -4.651917535832366 0 0 0
5067 1 -4.523656717414729 101.390912336849 -4.651917535832366 0 0 0
5068 1 -6.28474250991473 100.1569159628489 -3.407757582632366 0 0 0
5069 1 -6.28474250991473 100.1569159628489 -5.896062559232366 0 0 0
5070 1 -4.523656717414729 101.390912336849 -2.163612559232366 0 0 0
5071 1 -4.523656717414729 103.874311402849 -2.163612559232366 0 0 0
5072 1 -6.284703766414729 102.6505030778489 -0.9194675358323661 0 0 0
5073 1 -6.284703766414729 102.6505030778489 -3.407757582632366 0 0 0
5074 1 -4.523656717414729 103.874311402849 0.3246924173676335 0 0 0
5075 1 -6.284703766414729 102.6505030778489 -5.896062559232366 0 0 0
5076 1 -4.523656717414729 103.874311402849 -4.651917535832366 0 0 0
5077 1 -8.04594453291473 96.42063535884897 5.301287440767634 0 0 0
5078 1 -8.04594453291473 96.42063535884897 -7.140210568592366 0 0 1
5079 1 -8.045867045914729 98.90825873784895 -7.140210568592366 0 0 1
5080 1 -9.806952838414729 97.66606222684895 6.545432464167636 0 0 0
5081 1 -8.04594453291473 96.42063535884897 0.3246924173676335 0 0 0
5082 1 -8.04594453291473 96.42063535884897 2.812982464167636 0 0 0
5083 1 -8.045867045914729 98.90825873784895 2.812982464167636 0 0 0
5084 1 -9.806952838414729 97.66606222684895 4.057142417367634 0 0 0
5085 1 -9.806952838414729 97.66606222684895 1.568837440767634 0 0 0
5086 1 -8.045867045914729 98.90825873784895 5.301287440767634 0 0 0
5087 1 -8.045789558914731 101.390912336849 5.301287440767634 0 0 0
5088 1 -9.806875351414728 100.1569159628489 6.545432464167636 0 0 0
5089 1 -9.806875351414728 100.1569159628489 4.057142417367634 0 0 0
5090 1 -8.045789558914731 101.390912336849 -7.140210568592366 0 0 1
5091 1 -8.045789558914731 103.874311402849 -7.140210568592366 0 0 1
5092 1 -9.806836607914729 102.6505030778489 6.545432464167636 0 0 0
5093 1 -8.04594453291473 96.42063535884897 -4.651917535832366 0 0 0
5094 1 -8.04594453291473 96.42063535884897 -2.163612559232366 0 0 0
5095 1 -8.045867045914729 98.90825873784895 -2.163612559232366 0 0 0
5096 1 -9.806952838414729 97.66606222684895 -0.9194675358323661 0 0 0
5097 1 -9.806952838414729 97.66606222684895 -3.407757582632366 0 0 0
5098 1 -8.045867045914729 98.90825873784895 0.3246924173676335 0 0 0
5099 1 -8.045789558914731 101.390912336849 0.3246924173676335 0 0 0
5100 1 -9.806875351414728 100.1569159628489 1.568837440767634 0 0 0
5101 1 -9.806875351414728 100.1569159628489 -0.9194675358323661 0 0 0
5102 1 -8.045789558914731 101.390912336849 2.812982464167636 0 0 0
5103 1 -8.045789558914731 103.874311402849 2.812982464167636 0 0 0
5104 1 -9.806836607914729 102.6505030778489 4.057142417367634 0 0 0
5105 1 -9.806836607914729 102.6505030778489 1.568837440767634 0 0 0
5106 1 -8.045789558914731 103.874311402849 5.301287440767634 0 0 0
5107 1 -9.806952838414729 97.66606222684895 -5.896062559232366 0 0 0
5108 1 -8.045867045914729 98.90825873784895 -4.651917535832366 0 0 0
5109 1 -8.045789558914731 101.390912336849 -4.651917535832366 0 0 0
5110 1 -9.806875351414728 100.1569159628489 -3.407757582632366 0 0 0
5111 1 -9.806875351414728 100.1569159628489 -5.896062559232366 0 0 0
5112 1 -8.045789558914731 101.390912336849 -2.163612559232366 0 0 0
5113 1 -8.045789558914731 103.874311402849 -2.163612559232366 0 0 0
5114 1 -9.806836607914729 102.6505030778489 -0.9194675358323661 0 0 0
5115 1 -9.806836607914729 102.6505030778489 -3.407757582632366 0 0 0
5116 1 -8.045789558914731 103.874311402849 0.3246924173676335 0 0 0
5117 1 -9.806836607914729 102.6505030778489 -5.896062559232366 0 0 0
5118 1 -8.045789558914731 103.874311402849 -4.651917535832366 0 0 0
5119 1 -11.56807737441473 96.42063535884897 5.301287440767634 0 0 0
5120 1 -11.56807737441473 96.42063535884897 -7.140210568592366 0 0 1
5121 1 -11.56799988741473 98.90825873784895 -7.140210568592366 0 0 1
5122 1 -13.32908567991473 97.66606222684895 6.545432464167636 0 0 0
5123 1 -11.56807737441473 96.42063535884897 0.3246924173676335 0 0 0
5124 1 -11.56807737441473 96.42063535884897 2.812982464167636 0 0 0
5125 1 -11.56799988741473 98.90825873784895 2.812982464167636 0 0 0
5126 1 -13.32908567991473 97.66606222684895 4.057142417367634 0 0 0
5127 1 -13.32908567991473 97.66606222684895 1.568837440767634 0 0 0
5128 1 -11.56799988741473 98.90825873784895 5.301287440767634 0 0 0
5129 1 -11.56792240041473 101.390912336849 5.301287440767634 0 0 0
5130 1 -13.32904693641473 100.1569159628489 6.545432464167636 0 0 0
5131 1 -13.32904693641473 100.1569159628489 4.057142417367634 0 0 0
5132 1 -11.56792240041473 101.390912336849 -7.140210568592366 0 0 1
5133 1 -11.56792240041473 103.874311402849 -7.140210568592366 0 0 1
5134 1 -13.32900819291473 102.6505030778489 6.545432464167636 0 0 0
5135 1 -11.56807737441473 96.42063535884897 -4.651917535832366 0 0 0
5136 1 -11.56807737441473 96.42063535884897 -2.163612559232366 0 0 0
5137 1 -11.56799988741473 98.90825873784895 -2.163612559232366 0 0 0
5138 1 -13.32908567991473 97.66606222684895 -0.9194675358323661 0 0 0
5139 1 -13.32908567991473 97.66606222684895 -3.407757582632366 0 0 0
5140 1 -11.56799988741473 98.90825873784895 0.3246924173676335 0 0 0
5141 1 -11.56792240041473 101.390912336849 0.3246924173676335 0 0 0
5142 1 -13.32904693641473 100.1569159628489 1.568837440767634 0 0 0
5143 1 -13.32904693641473 100.1569159628489 -0.9194675358323661 0 0 0
5144 1 -11.56792240041473 101.390912336849 2.812982464167636 0 0 0
5145 1 -11.56792240041473 103.874311402849 2.812982464167636 0 0 0
5146 1 -13.32900819291473 102.6505030778489 4.057142417367634 0 0 0
5147 1 -13.32900819291473 102.6505030778489 1.568837440767634 0 0 0
5148 1 -11.56792240041473 103.874311402849 5.301287440767634 0 0 0
5149 1 -13.32908567991473 97.66606222684895 -5.896062559232366 0 0 0
5150 1 -11.56799988741473 98.90825873784895 -4.651917535832366 0 0 0
5151 1 -11.56792240041473 101.390912336849 -4.651917535832366 0 0 0
5152 1 -13.32904693641473 100.1569159628489 -3.407757582632366 0 0 0
5153 1 -13.32904693641473 100.1569159628489 -5.896062559232366 0 0 0
5154 1 -11.56792240041473 101.390912336849 -2.163612559232366 0 0 0
5155 1 -11.56792240041473 103.874311402849 -2.163612559232366 0 0 0
5156 1 -13.32900819291473 102.6505030778489 -0.9194675358323661 0 0 0
5157 1 -13.32900819291473 102.6505030778489 -3.407757582632366 0 0 0
5158 1 -11.56792240041473 103.874311402849 0.3246924173676335 0 0 0
5159 1 -13.32900819291473 102.6505030778489 -5.896062559232366 0 0 0
5160 1 -11.56792240041473 103.874311402849 -4.651917535832366 0 0 0
5161 1 -15.09021021591473 96.42063535884897 5.301287440767634 0 0 0
5162 1 -15.09021021591473 96.42063535884897 -7.140210568592366 0 0 1
5163 1 -15.09013272891473 98.90825873784895 -7.140210568592366 0 0 1
5164 1 -15.09021021591473 96.42063535884897 0.3246924173676335 0 0 0
5165 1 -15.09021021591473 96.42063535884897 2.812982464167636 0 0 0
5166 1 -15.09013272891473 98.90825873784895 2.812982464167636 0 0 0
5167 1 -15.09013272891473 98.90825873784895 5.301287440767634 0 0 0
5168 1 -15.09005524191473 101.390912336849 5.301287440767634 0 0 0
5169 1 -15.09005524191473 101.390912336849 -7.140210568592366 0 0 1
5170 1 -15.09005524191473 103.874311402849 -7.140210568592366 0 0 1
5171 1 -15.09021021591473 96.42063535884897 -4.651917535832366 0 0 0
5172 1 -15.09021021591473 96.42063535884897 -2.163612559232366 0 0 0
5173 1 -15.09013272891473 98.90825873784895 -2.163612559232366 0 0 0
5174 1 -15.09013272891473 98.90825873784895 0.3246924173676335 0 0 0
5175 1 -15.09005524191473 101.390912336849 0.3246924173676335 0 0 0
5176 1 -15.09005524191473 101.390912336849 2.812982464167636 0 0 0
5177 1 -15.09005524191473 103.874311402849 2.812982464167636 0 0 0
5178 1 -15.09005524191473 103.874311402849 5.301287440767634 0 0 0
5179 1 -15.09013272891473 98.90825873784895 -4.651917535832366 0 0 0
5180 1 -15.09005524191473 101.390912336849 -4.651917535832366 0 0 0
5181 1 -15.09005524191473 101.390912336849 -2.163612559232366 0 0 0
5182 1 -15.09005524191473 103.874311402849 -2.163612559232366 0 0 0
5183 1 -15.09005524191473 103.874311402849 0.3246924173676335 0 0 0
5184 1 -15.09005524191473 103.874311402849 -4.651917535832366 0 0 0
5185 1 19.32238638008527 -103.034079968951 5.892298503567634 0 0 0
5186 1 19.32238638008527 -103.034079968951 3.404008456767635 0 0 0
5187 1 19.32238638008527 -103.034079968951 0.9157034801676343 0 0 0
5188 1 19.32238638008527 -103.034079968951 -1.572601496432365 0 0 0
5189 1 19.32238638008527 -103.034079968951 -4.060891543232366 0 0 0
5190 1 19.32238638008527 -103.034079968951 -6.549198012812366 0 0 0
5191 1 17.16995249408527 -103.034104817851 7.136458456767635 0 0 0
5192 1 15.01755735158527 -103.034104817851 5.892298503567634 0 0 0
5193 1 17.16995249408527 -103.034104817851 2.159848503567634 0 0 0
5194 1 15.01755735158527 -103.034104817851 3.404008456767635 0 0 0
5195 1 15.01755735158527 -103.034104817851 0.9157034801676343 0 0 0
5196 1 17.16995249408527 -103.034104817851 4.648153480167634 0 0 0
5197 1 18.60629026958527 -100.9930410207511 4.648153480167634 0 0 0
5198 1 16.45385638358527 -100.9930410207511 5.892298503567634 0 0 0
5199 1 16.45385638358527 -100.9930410207511 3.404008456767635 0 0 0
5200 1 18.60629026958527 -100.9930410207511 7.136458456767635 0 0 0
5201 1 17.89019415908527 -98.95876097335105 5.892298503567634 0 0 0
5202 1 17.16995249408527 -103.034104817851 -2.816746519832365 0 0 0
5203 1 15.01755735158527 -103.034104817851 -1.572601496432365 0 0 0
5204 1 15.01755735158527 -103.034104817851 -4.060891543232366 0 0 0
5205 1 17.16995249408527 -103.034104817851 -0.3284415432323664 0 0 0
5206 1 18.60629026958527 -100.9930410207511 -0.3284415432323664 0 0 0
5207 1 16.45385638358527 -100.9930410207511 0.9157034801676343 0 0 0
5208 1 16.45385638358527 -100.9930410207511 -1.572601496432365 0 0 0
5209 1 18.60629026958527 -100.9930410207511 2.159848503567634 0 0 0
5210 1 17.89019415908527 -98.95876097335105 3.404008456767635 0 0 0
5211 1 17.89019415908527 -98.95876097335105 0.9157034801676343 0 0 0
5212 1 19.32649319108527 -96.92592216215105 5.892298503567634 0 0 0
5213 1 19.32649319108527 -96.92592216215105 3.404008456767635 0 0 0
5214 1 15.01755735158527 -103.034104817851 -6.549198012812366 0 0 0
5215 1 17.16995249408527 -103.034104817851 -5.305051496432366 0 0 0
5216 1 18.60629026958527 -100.9930410207511 -5.305051496432366 0 0 0
5217 1 16.45385638358527 -100.9930410207511 -4.060891543232366 0 0 0
5218 1 16.45385638358527 -100.9930410207511 -6.549198012812366 0 0 0
5219 1 18.60629026958527 -100.9930410207511 -2.816746519832365 0 0 0
5220 1 17.89019415908527 -98.95876097335105 -1.572601496432365 0 0 0
5221 1 17.89019415908527 -98.95876097335105 -4.060891543232366 0 0 0
5222 1 19.32649319108527 -96.92592216215105 0.9157034801676343 0 0 0
5223 1 19.32649319108527 -96.92592216215105 -1.572601496432365 0 0 0
5224 1 17.89019415908527 -98.95876097335105 -6.549198012812366 0 0 0
5225 1 19.32649319108527 -96.92592216215105 -4.060891543232366 0 0 0
5226 1 19.32649319108527 -96.92592216215105 -6.549198012812366 0 0 0
5227 1 12.86512346558527 -103.034104817851 4.648153480167634 0 0 0
5228 1 10.71272832308527 -103.0341296667511 5.892298503567634 0 0 0
5229 1 10.71272832308527 -103.0341296667511 3.404008456767635 0 0 0
5230 1 12.86512346558527 -103.034104817851 7.136458456767635 0 0 0
5231 1 14.30146124108527 -100.993065869651 7.136458456767635 0 0 0
5232 1 12.14902735508527 -100.993065869651 5.892298503567634 0 0 0
5233 1 12.86512346558527 -103.034104817851 -0.3284415432323664 0 0 0
5234 1 10.71272832308527 -103.0341296667511 0.9157034801676343 0 0 0
5235 1 10.71272832308527 -103.0341296667511 -1.572601496432365 0 0 0
5236 1 12.86512346558527 -103.034104817851 2.159848503567634 0 0 0
5237 1 14.30146124108527 -100.993065869651 2.159848503567634 0 0 0
5238 1 12.14902735508527 -100.993065869651 3.404008456767635 0 0 0
5239 1 12.14902735508527 -100.993065869651 0.9157034801676343 0 0 0
5240 1 14.30146124108527 -100.993065869651 4.648153480167634 0 0 0
5241 1 15.73776027308527 -98.95876097335105 4.648153480167634 0 0 0
5242 1 13.58536513058527 -98.95878582225106 5.892298503567634 0 0 0
5243 1 13.58536513058527 -98.95878582225106 3.404008456767635 0 0 0
5244 1 15.73776027308527 -98.95876097335105 7.136458456767635 0 0 0
5245 1 17.17409804858527 -96.92592216215105 7.136458456767635 0 0 0
5246 1 15.02166416258527 -96.92592216215105 5.892298503567634 0 0 0
5247 1 12.86512346558527 -103.034104817851 -5.305051496432366 0 0 0
5248 1 10.71272832308527 -103.0341296667511 -4.060891543232366 0 0 0
5249 1 10.71272832308527 -103.0341296667511 -6.549198012812366 0 0 0
5250 1 12.86512346558527 -103.034104817851 -2.816746519832365 0 0 0
5251 1 14.30146124108527 -100.993065869651 -2.816746519832365 0 0 0
5252 1 12.14902735508527 -100.993065869651 -1.572601496432365 0 0 0
5253 1 12.14902735508527 -100.993065869651 -4.060891543232366 0 0 0
5254 1 14.30146124108527 -100.993065869651 -0.3284415432323664 0 0 0
5255 1 15.73776027308527 -98.95876097335105 -0.3284415432323664 0 0 0
5256 1 13.58536513058527 -98.95878582225106 0.9157034801676343 0 0 0
5257 1 13.58536513058527 -98.95878582225106 -1.572601496432365 0 0 0
5258 1 15.73776027308527 -98.95876097335105 2.159848503567634 0 0 0
5259 1 17.17409804858527 -96.92592216215105 2.159848503567634 0 0 0
5260 1 15.02166416258527 -96.92592216215105 3.404008456767635 0 0 0
5261 1 15.02166416258527 -96.92592216215105 0.9157034801676343 0 0 0
5262 1 17.17409804858527 -96.92592216215105 4.648153480167634 0 0 0
5263 1 12.14902735508527 -100.993065869651 -6.549198012812366 0 0 0
5264 1 14.30146124108527 -100.993065869651 -5.305051496432366 0 0 0
5265 1 15.73776027308527 -98.95876097335105 -5.305051496432366 0 0 0
5266 1 13.58536513058527 -98.95878582225106 -4.060891543232366 0 0 0
5267 1 13.58536513058527 -98.95878582225106 -6.549198012812366 0 0 0
5268 1 15.73776027308527 -98.95876097335105 -2.816746519832365 0 0 0
5269 1 17.17409804858527 -96.92592216215105 -2.816746519832365 0 0 0
5270 1 15.02166416258527 -96.92592216215105 -1.572601496432365 0 0 0
5271 1 15.02166416258527 -96.92592216215105 -4.060891543232366 0 0 0
5272 1 17.17409804858527 -96.92592216215105 -0.3284415432323664 0 0 0
5273 1 15.02166416258527 -96.92592216215105 -6.549198012812366 0 0 0
5274 1 17.17409804858527 -96.92592216215105 -5.305051496432366 0 0 0
5275 1 8.560294437085272 -103.0341296667511 7.136458456767635 0 0 0
5276 1 6.40789929458527 -103.0341296667511 5.892298503567634 0 0 0
5277 1 8.560294437085272 -103.0341296667511 2.159848503567634 0 0 0
5278 1 6.40789929458527 -103.0341296667511 3.404008456767635 0 0 0
5279 1 6.40789929458527 -103.0341296667511 0.9157034801676343 0 0 0
5280 1 8.560294437085272 -103.0341296667511 4.648153480167634 0 0 0
5281 1 9.996632212585268 -100.993065869651 4.648153480167634 0 0 0
5282 1 7.844198326585271 -100.9930907185511 5.892298503567634 0 0 0
5283 1 7.844198326585271 -100.9930907185511 3.404008456767635 0 0 0
5284 1 9.996632212585268 -100.993065869651 7.136458456767635 0 0 0
5285 1 11.43293124458527 -98.95878582225106 7.136458456767635 0 0 0
5286 1 9.280536102085271 -98.95881067115106 5.892298503567634 0 0 0
5287 1 8.560294437085272 -103.0341296667511 -2.816746519832365 0 0 0
5288 1 6.40789929458527 -103.0341296667511 -1.572601496432365 0 0 0
5289 1 6.40789929458527 -103.0341296667511 -4.060891543232366 0 0 0
5290 1 8.560294437085272 -103.0341296667511 -0.3284415432323664 0 0 0
5291 1 9.996632212585268 -100.993065869651 -0.3284415432323664 0 0 0
5292 1 7.844198326585271 -100.9930907185511 0.9157034801676343 0 0 0
5293 1 7.844198326585271 -100.9930907185511 -1.572601496432365 0 0 0
5294 1 9.996632212585268 -100.993065869651 2.159848503567634 0 0 0
5295 1 11.43293124458527 -98.95878582225106 2.159848503567634 0 0 0
5296 1 9.280536102085271 -98.95881067115106 3.404008456767635 0 0 0
5297 1 9.280536102085271 -98.95881067115106 0.9157034801676343 0 0 0
5298 1 11.43293124458527 -98.95878582225106 4.648153480167634 0 0 0
5299 1 12.86926902008527 -96.92617065115105 4.648153480167634 0 0 0
5300 1 10.71683513408527 -96.92617065115105 5.892298503567634 0 0 0
5301 1 10.71683513408527 -96.92617065115105 3.404008456767635 0 0 0
5302 1 12.86926902008527 -96.92617065115105 7.136458456767635 0 0 0
5303 1 6.40789929458527 -103.0341296667511 -6.549198012812366 0 0 0
5304 1 8.560294437085272 -103.0341296667511 -5.305051496432366 0 0 0
5305 1 9.996632212585268 -100.993065869651 -5.305051496432366 0 0 0
5306 1 7.844198326585271 -100.9930907185511 -4.060891543232366 0 0 0
5307 1 7.844198326585271 -100.9930907185511 -6.549198012812366 0 0 0
5308 1 9.996632212585268 -100.993065869651 -2.816746519832365 0 0 0
5309 1 11.43293124458527 -98.95878582225106 -2.816746519832365 0 0 0
5310 1 9.280536102085271 -98.95881067115106 -1.572601496432365 0 0 0
5311 1 9.280536102085271 -98.95881067115106 -4.060891543232366 0 0 0
5312 1 11.43293124458527 -98.95878582225106 -0.3284415432323664 0 0 0
5313 1 12.86926902008527 -96.92617065115105 -0.3284415432323664 0 0 0
5314 1 10.71683513408527 -96.92617065115105 0.9157034801676343 0 0 0
5315 1 10.71683513408527 -96.92617065115105 -1.572601496432365 0 0 0
5316 1 12.86926902008527 -96.92617065115105 2.159848503567634 0 0 0
5317 1 9.280536102085271 -98.95881067115106 -6.549198012812366 0 0 0
5318 1 11.43293124458527 -98.95878582225106 -5.305051496432366 0 0 0
5319 1 12.86926902008527 -96.92617065115105 -5.305051496432366 0 0 0
5320 1 10.71683513408527 -96.92617065115105 -4.060891543232366 0 0 0
5321 1 10.71683513408527 -96.92617065115105 -6.549198012812366 0 0 0
5322 1 12.86926902008527 -96.92617065115105 -2.816746519832365 0 0 0
5323 1 4.25546540858527 -103.0341545156511 4.648153480167634 0 0 0
5324 1 2.103031522585272 -103.0341545156511 5.892298503567634 0 0 0
5325 1 2.103031522585272 -103.0341545156511 3.404008456767635 0 0 0
5326 1 4.25546540858527 -103.0341545156511 7.136458456767635 0 0 0
5327 1 5.69180318408527 -100.9930907185511 7.136458456767635 0 0 0
5328 1 3.539369298085273 -100.9930907185511 5.892298503567634 0 0 0
5329 1 4.25546540858527 -103.0341545156511 -0.3284415432323664 0 0 0
5330 1 2.103031522585272 -103.0341545156511 0.9157034801676343 0 0 0
5331 1 2.103031522585272 -103.0341545156511 -1.572601496432365 0 0 0
5332 1 4.25546540858527 -103.0341545156511 2.159848503567634 0 0 0
5333 1 5.69180318408527 -100.9930907185511 2.159848503567634 0 0 0
5334 1 3.539369298085273 -100.9930907185511 3.404008456767635 0 0 0
5335 1 3.539369298085273 -100.9930907185511 0.9157034801676343 0 0 0
5336 1 5.69180318408527 -100.9930907185511 4.648153480167634 0 0 0
5337 1 7.128102216085271 -98.95881067115106 4.648153480167634 0 0 0
5338 1 4.975707073585269 -98.95881067115106 5.892298503567634 0 0 0
5339 1 4.975707073585269 -98.95881067115106 3.404008456767635 0 0 0
5340 1 7.128102216085271 -98.95881067115106 7.136458456767635 0 0 0
5341 1 8.564439991585271 -96.92617065115105 7.136458456767635 0 0 0
5342 1 6.412006105585267 -96.92617065115105 5.892298503567634 0 0 0
5343 1 4.25546540858527 -103.0341545156511 -5.305051496432366 0 0 0
5344 1 2.103031522585272 -103.0341545156511 -4.060891543232366 0 0 0
5345 1 2.103031522585272 -103.0341545156511 -6.549198012812366 0 0 0
5346 1 4.25546540858527 -103.0341545156511 -2.816746519832365 0 0 0
5347 1 5.69180318408527 -100.9930907185511 -2.816746519832365 0 0 0
5348 1 3.539369298085273 -100.9930907185511 -1.572601496432365 0 0 0
5349 1 3.539369298085273 -100.9930907185511 -4.060891543232366 0 0 0
5350 1 5.69180318408527 -100.9930907185511 -0.3284415432323664 0 0 0
5351 1 7.128102216085271 -98.95881067115106 -0.3284415432323664 0 0 0
5352 1 4.975707073585269 -98.95881067115106 0.9157034801676343 0 0 0
5353 1 4.975707073585269 -98.95881067115106 -1.572601496432365 0 0 0
5354 1 7.128102216085271 -98.95881067115106 2.159848503567634 0 0 0
5355 1 8.564439991585271 -96.92617065115105 2.159848503567634 0 0 0
5356 1 6.412006105585267 -96.92617065115105 3.404008456767635 0 0 0
5357 1 6.412006105585267 -96.92617065115105 0.9157034801676343 0 0 0
5358 1 8.564439991585271 -96.92617065115105 4.648153480167634 0 0 0
5359 1 3.539369298085273 -100.9930907185511 -6.549198012812366 0 0 0
5360 1 5.69180318408527 -100.9930907185511 -5.305051496432366 0 0 0
5361 1 7.128102216085271 -98.95881067115106 -5.305051496432366 0 0 0
5362 1 4.975707073585269 -98.95881067115106 -4.060891543232366 0 0 0
5363 1 4.975707073585269 -98.95881067115106 -6.549198012812366 0 0 0
5364 1 7.128102216085271 -98.95881067115106 -2.816746519832365 0 0 0
5365 1 8.564439991585271 -96.92617065115105 -2.816746519832365 0 0 0
5366 1 6.412006105585267 -96.92617065115105 -1.572601496432365 0 0 0
5367 1 6.412006105585267 -96.92617065115105 -4.060891543232366 0 0 0
5368 1 8.564439991585271 -96.92617065115105 -0.3284415432323664 0 0 0
5369 1 6.412006105585267 -96.92617065115105 -6.549198012812366 0 0 0
5370 1 8.564439991585271 -96.92617065115105 -5.305051496432366 0 0 0
5371 1 -0.04936361991472893 -103.0341296667511 7.136458456767635 0 0 0
5372 1 -0.04936361991472893 -103.0341296667511 2.159848503567634 0 0 0
5373 1 -0.04936361991472893 -103.0341296667511 4.648153480167634 0 0 0
5374 1 1.386935412085272 -100.9930907185511 4.648153480167634 0 0 0
5375 1 1.386935412085272 -100.9930907185511 7.136458456767635 0 0 0
5376 1 2.823273187585272 -98.95881067115106 7.136458456767635 0 0 0
5377 1 0.6708780450852707 -98.95881067115106 5.892298503567634 0 0 0
5378 1 -0.04936361991472893 -103.0341296667511 -2.816746519832365 0 0 0
5379 1 -0.04936361991472893 -103.0341296667511 -0.3284415432323664 0 0 0
5380 1 1.386935412085272 -100.9930907185511 -0.3284415432323664 0 0 0
5381 1 1.386935412085272 -100.9930907185511 2.159848503567634 0 0 0
5382 1 2.823273187585272 -98.95881067115106 2.159848503567634 0 0 0
5383 1 0.6708780450852707 -98.95881067115106 3.404008456767635 0 0 0
5384 1 0.6708780450852707 -98.95881067115106 0.9157034801676343 0 0 0
5385 1 2.823273187585272 -98.95881067115106 4.648153480167634 0 0 0
5386 1 4.259610963085272 -96.92617065115105 4.648153480167634 0 0 0
5387 1 2.107177077085272 -96.92617065115105 5.892298503567634 0 0 0
5388 1 2.107177077085272 -96.92617065115105 3.404008456767635 0 0 0
5389 1 4.259610963085272 -96.92617065115105 7.136458456767635 0 0 0
5390 1 -0.04936361991472893 -103.0341296667511 -5.305051496432366 0 0 0
5391 1 1.386935412085272 -100.9930907185511 -5.305051496432366 0 0 0
5392 1 1.386935412085272 -100.9930907185511 -2.816746519832365 0 0 0
5393 1 2.823273187585272 -98.95881067115106 -2.816746519832365 0 0 0
5394 1 0.6708780450852707 -98.95881067115106 -1.572601496432365 0 0 0
5395 1 0.6708780450852707 -98.95881067115106 -4.060891543232366 0 0 0
5396 1 2.823273187585272 -98.95881067115106 -0.3284415432323664 0 0 0
5397 1 4.259610963085272 -96.92617065115105 -0.3284415432323664 0 0 0
5398 1 2.107177077085272 -96.92617065115105 0.9157034801676343 0 0 0
5399 1 2.107177077085272 -96.92617065115105 -1.572601496432365 0 0 0
5400 1 4.259610963085272 -96.92617065115105 2.159848503567634 0 0 0
5401 1 0.6708780450852707 -98.95881067115106 -6.549198012812366 0 0 0
5402 1 2.823273187585272 -98.95881067115106 -5.305051496432366 0 0 0
5403 1 4.259610963085272 -96.92617065115105 -5.305051496432366 0 0 0
5404 1 2.107177077085272 -96.92617065115105 -4.060891543232366 0 0 0
5405 1 2.107177077085272 -96.92617065115105 -6.549198012812366 0 0 0
5406 1 4.259610963085272 -96.92617065115105 -2.816746519832365 0 0 0
5407 1 -0.04521806541472984 -96.92617065115105 7.136458456767635 0 0 0
5408 1 -0.04521806541472984 -96.92617065115105 2.159848503567634 0 0 0
5409 1 -0.04521806541472984 -96.92617065115105 4.648153480167634 0 0 0
5410 1 -0.04521806541472984 -96.92617065115105 -2.816746519832365 0 0 0
5411 1 -0.04521806541472984 -96.92617065115105 -0.3284415432323664 0 0 0
5412 1 -0.04521806541472984 -96.92617065115105 -5.305051496432366 0 0 0
5413 1 18.61039708058527 -94.89228818615105 4.648153480167634 0 0 0
5414 1 16.45800193808527 -94.89228818615105 5.892298503567634 0 0 0
5415 1 16.45800193808527 -94.89228818615105 3.404008456767635 0 0 0
5416 1 18.61039708058527 -94.89228818615105 7.136458456767635 0 0 0
5417 1 17.89430097008527 -92.85865421015106 5.892298503567634 0 0 0
5418 1 18.61039708058527 -94.89228818615105 -0.3284415432323664 0 0 0
5419 1 16.45800193808527 -94.89228818615105 0.9157034801676343 0 0 0
5420 1 16.45800193808527 -94.89228818615105 -1.572601496432365 0 0 0
5421 1 18.61039708058527 -94.89228818615105 2.159848503567634 0 0 0
5422 1 17.89430097008527 -92.85865421015106 3.404008456767635 0 0 0
5423 1 17.89430097008527 -92.85865421015106 0.9157034801676343 0 0 0
5424 1 19.33063874558527 -90.82502023415105 5.892298503567634 0 0 0
5425 1 19.33063874558527 -90.82502023415105 3.404008456767635 0 0 0
5426 1 18.61039708058527 -94.89228818615105 -5.305051496432366 0 0 0
5427 1 16.45800193808527 -94.89228818615105 -4.060891543232366 0 0 0
5428 1 16.45800193808527 -94.89228818615105 -6.549198012812366 0 0 0
5429 1 18.61039708058527 -94.89228818615105 -2.816746519832365 0 0 0
5430 1 17.89430097008527 -92.85865421015106 -1.572601496432365 0 0 0
5431 1 17.89430097008527 -92.85865421015106 -4.060891543232366 0 0 0
5432 1 19.33063874558527 -90.82502023415105 0.9157034801676343 0 0 0
5433 1 19.33063874558527 -90.82502023415105 -1.572601496432365 0 0 0
5434 1 17.89430097008527 -92.85865421015106 -6.549198012812366 0 0 0
5435 1 19.33063874558527 -90.82502023415105 -4.060891543232366 0 0 0
5436 1 19.33063874558527 -90.82502023415105 -6.549198012812366 0 0 0
5437 1 14.30556805208527 -94.89228818615105 7.136458456767635 0 0 0
5438 1 12.15317290958527 -94.89228818615105 5.892298503567634 0 0 0
5439 1 14.30556805208527 -94.89228818615105 2.159848503567634 0 0 0
5440 1 12.15317290958527 -94.89228818615105 3.404008456767635 0 0 0
5441 1 12.15317290958527 -94.89228818615105 0.9157034801676343 0 0 0
5442 1 14.30556805208527 -94.89228818615105 4.648153480167634 0 0 0
5443 1 15.74190582758527 -92.85865421015106 4.648153480167634 0 0 0
5444 1 13.58947194158527 -92.85865421015106 5.892298503567634 0 0 0
5445 1 13.58947194158527 -92.85865421015106 3.404008456767635 0 0 0
5446 1 15.74190582758527 -92.85865421015106 7.136458456767635 0 0 0
5447 1 17.17820485958527 -90.82502023415105 7.136458456767635 0 0 0
5448 1 15.02580971708527 -90.82502023415105 5.892298503567634 0 0 0
5449 1 14.30556805208527 -94.89228818615105 -2.816746519832365 0 0 0
5450 1 12.15317290958527 -94.89228818615105 -1.572601496432365 0 0 0
5451 1 12.15317290958527 -94.89228818615105 -4.060891543232366 0 0 0
5452 1 14.30556805208527 -94.89228818615105 -0.3284415432323664 0 0 0
5453 1 15.74190582758527 -92.85865421015106 -0.3284415432323664 0 0 0
5454 1 13.58947194158527 -92.85865421015106 0.9157034801676343 0 0 0
5455 1 13.58947194158527 -92.85865421015106 -1.572601496432365 0 0 0
5456 1 15.74190582758527 -92.85865421015106 2.159848503567634 0 0 0
5457 1 17.17820485958527 -90.82502023415105 2.159848503567634 0 0 0
5458 1 15.02580971708527 -90.82502023415105 3.404008456767635 0 0 0
5459 1 15.02580971708527 -90.82502023415105 0.9157034801676343 0 0 0
5460 1 17.17820485958527 -90.82502023415105 4.648153480167634 0 0 0
5461 1 18.61454263508527 -88.79138625815105 4.648153480167634 0 0 0
5462 1 16.46210874908527 -88.79138625815105 5.892298503567634 0 0 0
5463 1 16.46210874908527 -88.79138625815105 3.404008456767635 0 0 0
5464 1 18.61454263508527 -88.79138625815105 7.136458456767635 0 0 0
5465 1 17.89844652458527 -86.75775228215105 5.892298503567634 0 0 0
5466 1 12.15317290958527 -94.89228818615105 -6.549198012812366 0 0 0
5467 1 14.30556805208527 -94.89228818615105 -5.305051496432366 0 0 0
5468 1 15.74190582758527 -92.85865421015106 -5.305051496432366 0 0 0
5469 1 13.58947194158527 -92.85865421015106 -4.060891543232366 0 0 0
5470 1 13.58947194158527 -92.85865421015106 -6.549198012812366 0 0 0
5471 1 15.74190582758527 -92.85865421015106 -2.816746519832365 0 0 0
5472 1 17.17820485958527 -90.82502023415105 -2.816746519832365 0 0 0
5473 1 15.02580971708527 -90.82502023415105 -1.572601496432365 0 0 0
5474 1 15.02580971708527 -90.82502023415105 -4.060891543232366 0 0 0
5475 1 17.17820485958527 -90.82502023415105 -0.3284415432323664 0 0 0
5476 1 18.61454263508527 -88.79138625815105 -0.3284415432323664 0 0 0
5477 1 16.46210874908527 -88.79138625815105 0.9157034801676343 0 0 0
5478 1 16.46210874908527 -88.79138625815105 -1.572601496432365 0 0 0
5479 1 18.61454263508527 -88.79138625815105 2.159848503567634 0 0 0
5480 1 17.89844652458527 -86.75775228215105 3.404008456767635 0 0 0
5481 1 17.89844652458527 -86.75775228215105 0.9157034801676343 0 0 0
5482 1 19.33474555658526 -84.72411830615104 5.892298503567634 0 0 0
5483 1 19.33474555658526 -84.72411830615104 3.404008456767635 0 0 0
5484 1 15.02580971708527 -90.82502023415105 -6.549198012812366 0 0 0
5485 1 17.17820485958527 -90.82502023415105 -5.305051496432366 0 0 0
5486 1 18.61454263508527 -88.79138625815105 -5.305051496432366 0 0 0
5487 1 16.46210874908527 -88.79138625815105 -4.060891543232366 0 0 0
5488 1 16.46210874908527 -88.79138625815105 -6.549198012812366 0 0 0
5489 1 18.61454263508527 -88.79138625815105 -2.816746519832365 0 0 0
5490 1 17.89844652458527 -86.75775228215105 -1.572601496432365 0 0 0
5491 1 17.89844652458527 -86.75775228215105 -4.060891543232366 0 0 0
5492 1 19.33474555658526 -84.72411830615104 0.9157034801676343 0 0 0
5493 1 19.33474555658526 -84.72411830615104 -1.572601496432365 0 0 0
5494 1 17.89844652458527 -86.75775228215105 -6.549198012812366 0 0 0
5495 1 19.33474555658526 -84.72411830615104 -4.060891543232366 0 0 0
5496 1 19.33474555658526 -84.72411830615104 -6.549198012812366 0 0 0
5497 1 10.00073902358527 -94.89228818615105 4.648153480167634 0 0 0
5498 1 7.84834388108527 -94.89228818615105 5.892298503567634 0 0 0
5499 1 7.84834388108527 -94.89228818615105 3.404008456767635 0 0 0
5500 1 10.00073902358527 -94.89228818615105 7.136458456767635 0 0 0
5501 1 11.43707679908527 -92.85865421015106 7.136458456767635 0 0 0
5502 1 9.284642913085268 -92.85865421015106 5.892298503567634 0 0 0
5503 1 10.00073902358527 -94.89228818615105 -0.3284415432323664 0 0 0
5504 1 7.84834388108527 -94.89228818615105 0.9157034801676343 0 0 0
5505 1 7.84834388108527 -94.89228818615105 -1.572601496432365 0 0 0
5506 1 10.00073902358527 -94.89228818615105 2.159848503567634 0 0 0
5507 1 11.43707679908527 -92.85865421015106 2.159848503567634 0 0 0
5508 1 9.284642913085268 -92.85865421015106 3.404008456767635 0 0 0
5509 1 9.284642913085268 -92.85865421015106 0.9157034801676343 0 0 0
5510 1 11.43707679908527 -92.85865421015106 4.648153480167634 0 0 0
5511 1 12.87337583108527 -90.82502023415105 4.648153480167634 0 0 0
5512 1 10.72098068858527 -90.82502023415105 5.892298503567634 0 0 0
5513 1 10.72098068858527 -90.82502023415105 3.404008456767635 0 0 0
5514 1 12.87337583108527 -90.82502023415105 7.136458456767635 0 0 0
5515 1 14.30971360658527 -88.79138625815105 7.136458456767635 0 0 0
5516 1 12.15727972058527 -88.79138625815105 5.892298503567634 0 0 0
5517 1 10.00073902358527 -94.89228818615105 -5.305051496432366 0 0 0
5518 1 7.84834388108527 -94.89228818615105 -4.060891543232366 0 0 0
5519 1 7.84834388108527 -94.89228818615105 -6.549198012812366 0 0 0
5520 1 10.00073902358527 -94.89228818615105 -2.816746519832365 0 0 0
5521 1 11.43707679908527 -92.85865421015106 -2.816746519832365 0 0 0
5522 1 9.284642913085268 -92.85865421015106 -1.572601496432365 0 0 0
5523 1 9.284642913085268 -92.85865421015106 -4.060891543232366 0 0 0
5524 1 11.43707679908527 -92.85865421015106 -0.3284415432323664 0 0 0
5525 1 12.87337583108527 -90.82502023415105 -0.3284415432323664 0 0 0
5526 1 10.72098068858527 -90.82502023415105 0.9157034801676343 0 0 0
5527 1 10.72098068858527 -90.82502023415105 -1.572601496432365 0 0 0
5528 1 12.87337583108527 -90.82502023415105 2.159848503567634 0 0 0
5529 1 14.30971360658527 -88.79138625815105 2.159848503567634 0 0 0
5530 1 12.15727972058527 -88.79138625815105 3.404008456767635 0 0 0
5531 1 12.15727972058527 -88.79138625815105 0.9157034801676343 0 0 0
5532 1 14.30971360658527 -88.79138625815105 4.648153480167634 0 0 0
5533 1 15.74601263858527 -86.75775228215105 4.648153480167634 0 0 0
5534 1 13.59361749608527 -86.75775228215105 5.892298503567634 0 0 0
5535 1 13.59361749608527 -86.75775228215105 3.404008456767635 0 0 0
5536 1 15.74601263858527 -86.75775228215105 7.136458456767635 0 0 0
5537 1 17.18235041408527 -84.72411830615104 7.136458456767635 0 0 0
5538 1 15.02991652808527 -84.72411830615104 5.892298503567634 0 0 0
5539 1 9.284642913085268 -92.85865421015106 -6.549198012812366 0 0 0
5540 1 11.43707679908527 -92.85865421015106 -5.305051496432366 0 0 0
5541 1 12.87337583108527 -90.82502023415105 -5.305051496432366 0 0 0
5542 1 10.72098068858527 -90.82502023415105 -4.060891543232366 0 0 0
5543 1 10.72098068858527 -90.82502023415105 -6.549198012812366 0 0 0
5544 1 12.87337583108527 -90.82502023415105 -2.816746519832365 0 0 0
5545 1 14.30971360658527 -88.79138625815105 -2.816746519832365 0 0 0
5546 1 12.15727972058527 -88.79138625815105 -1.572601496432365 0 0 0
5547 1 12.15727972058527 -88.79138625815105 -4.060891543232366 0 0 0
5548 1 14.30971360658527 -88.79138625815105 -0.3284415432323664 0 0 0
5549 1 15.74601263858527 -86.75775228215105 -0.3284415432323664 0 0 0
5550 1 13.59361749608527 -86.75775228215105 0.9157034801676343 0 0 0
5551 1 13.59361749608527 -86.75775228215105 -1.572601496432365 0 0 0
5552 1 15.74601263858527 -86.75775228215105 2.159848503567634 0 0 0
5553 1 17.18235041408527 -84.72411830615104 2.159848503567634 0 0 0
5554 1 15.02991652808527 -84.72411830615104 3.404008456767635 0 0 0
5555 1 15.02991652808527 -84.72411830615104 0.9157034801676343 0 0 0
5556 1 17.18235041408527 -84.72411830615104 4.648153480167634 0 0 0
5557 1 18.61864944608527 -82.69023584115105 4.648153480167634 0 0 0
5558 1 16.46625430358527 -82.69023584115105 5.892298503567634 0 0 0
5559 1 16.46625430358527 -82.69023584115105 3.404008456767635 0 0 0
5560 1 18.61864944608527 -82.69023584115105 7.136458456767635 0 0 0
5561 1 12.15727972058527 -88.79138625815105 -6.549198012812366 0 0 0
5562 1 14.30971360658527 -88.79138625815105 -5.305051496432366 0 0 0
5563 1 15.74601263858527 -86.75775228215105 -5.305051496432366 0 0 0
5564 1 13.59361749608527 -86.75775228215105 -4.060891543232366 0 0 0
5565 1 13.59361749608527 -86.75775228215105 -6.549198012812366 0 0 0
5566 1 15.74601263858527 -86.75775228215105 -2.816746519832365 0 0 0
5567 1 17.18235041408527 -84.72411830615104 -2.816746519832365 0 0 0
5568 1 15.02991652808527 -84.72411830615104 -1.572601496432365 0 0 0
5569 1 15.02991652808527 -84.72411830615104 -4.060891543232366 0 0 0
5570 1 17.18235041408527 -84.72411830615104 -0.3284415432323664 0 0 0
5571 1 18.61864944608527 -82.69023584115105 -0.3284415432323664 0 0 0
5572 1 16.46625430358527 -82.69023584115105 0.9157034801676343 0 0 0
5573 1 16.46625430358527 -82.69023584115105 -1.572601496432365 0 0 0
5574 1 18.61864944608527 -82.69023584115105 2.159848503567634 0 0 0
5575 1 15.02991652808527 -84.72411830615104 -6.549198012812366 0 0 0
5576 1 17.18235041408527 -84.72411830615104 -5.305051496432366 0 0 0
5577 1 18.61864944608527 -82.69023584115105 -5.305051496432366 0 0 0
5578 1 16.46625430358527 -82.69023584115105 -4.060891543232366 0 0 0
5579 1 16.46625430358527 -82.69023584115105 -6.549198012812366 0 0 0
5580 1 18.61864944608527 -82.69023584115105 -2.816746519832365 0 0 0
5581 1 5.695909995085273 -94.89253667515105 7.136458456767635 0 0 0
5582 1 3.543514852585272 -94.89253667515105 5.892298503567634 0 0 0
5583 1 5.695909995085273 -94.89253667515105 2.159848503567634 0 0 0
5584 1 3.543514852585272 -94.89253667515105 3.404008456767635 0 0 0
5585 1 3.543514852585272 -94.89253667515105 0.9157034801676343 0 0 0
5586 1 5.695909995085273 -94.89253667515105 4.648153480167634 0 0 0
5587 1 7.132247770585266 -92.85865421015106 4.648153480167634 0 0 0
5588 1 4.979813884585269 -92.85865421015106 5.892298503567634 0 0 0
5589 1 4.979813884585269 -92.85865421015106 3.404008456767635 0 0 0
5590 1 7.132247770585266 -92.85865421015106 7.136458456767635 0 0 0
5591 1 8.568546802585271 -90.82502023415105 7.136458456767635 0 0 0
5592 1 6.416151660085273 -90.82502023415105 5.892298503567634 0 0 0
5593 1 5.695909995085273 -94.89253667515105 -2.816746519832365 0 0 0
5594 1 3.543514852585272 -94.89253667515105 -1.572601496432365 0 0 0
5595 1 3.543514852585272 -94.89253667515105 -4.060891543232366 0 0 0
5596 1 5.695909995085273 -94.89253667515105 -0.3284415432323664 0 0 0
5597 1 7.132247770585266 -92.85865421015106 -0.3284415432323664 0 0 0
5598 1 4.979813884585269 -92.85865421015106 0.9157034801676343 0 0 0
5599 1 4.979813884585269 -92.85865421015106 -1.572601496432365 0 0 0
5600 1 7.132247770585266 -92.85865421015106 2.159848503567634 0 0 0
5601 1 8.568546802585271 -90.82502023415105 2.159848503567634 0 0 0
5602 1 6.416151660085273 -90.82502023415105 3.404008456767635 0 0 0
5603 1 6.416151660085273 -90.82502023415105 0.9157034801676343 0 0 0
5604 1 8.568546802585271 -90.82502023415105 4.648153480167634 0 0 0
5605 1 10.00488457808527 -88.79138625815105 4.648153480167634 0 0 0
5606 1 7.85245069208527 -88.79138625815105 5.892298503567634 0 0 0
5607 1 7.85245069208527 -88.79138625815105 3.404008456767635 0 0 0
5608 1 10.00488457808527 -88.79138625815105 7.136458456767635 0 0 0
5609 1 11.44118361008527 -86.75775228215105 7.136458456767635 0 0 0
5610 1 9.28878846758527 -86.75775228215105 5.892298503567634 0 0 0
5611 1 3.543514852585272 -94.89253667515105 -6.549198012812366 0 0 0
5612 1 5.695909995085273 -94.89253667515105 -5.305051496432366 0 0 0
5613 1 7.132247770585266 -92.85865421015106 -5.305051496432366 0 0 0
5614 1 4.979813884585269 -92.85865421015106 -4.060891543232366 0 0 0
5615 1 4.979813884585269 -92.85865421015106 -6.549198012812366 0 0 0
5616 1 7.132247770585266 -92.85865421015106 -2.816746519832365 0 0 0
5617 1 8.568546802585271 -90.82502023415105 -2.816746519832365 0 0 0
5618 1 6.416151660085273 -90.82502023415105 -1.572601496432365 0 0 0
5619 1 6.416151660085273 -90.82502023415105 -4.060891543232366 0 0 0
5620 1 8.568546802585271 -90.82502023415105 -0.3284415432323664 0 0 0
5621 1 10.00488457808527 -88.79138625815105 -0.3284415432323664 0 0 0
5622 1 7.85245069208527 -88.79138625815105 0.9157034801676343 0 0 0
5623 1 7.85245069208527 -88.79138625815105 -1.572601496432365 0 0 0
5624 1 10.00488457808527 -88.79138625815105 2.159848503567634 0 0 0
5625 1 11.44118361008527 -86.75775228215105 2.159848503567634 0 0 0
5626 1 9.28878846758527 -86.75775228215105 3.404008456767635 0 0 0
5627 1 9.28878846758527 -86.75775228215105 0.9157034801676343 0 0 0
5628 1 11.44118361008527 -86.75775228215105 4.648153480167634 0 0 0
5629 1 12.87752138558527 -84.72411830615104 4.648153480167634 0 0 0
5630 1 10.72508749958527 -84.72411830615104 5.892298503567634 0 0 0
5631 1 10.72508749958527 -84.72411830615104 3.404008456767635 0 0 0
5632 1 12.87752138558527 -84.72411830615104 7.136458456767635 0 0 0
5633 1 14.31382041758527 -82.69023584115105 7.136458456767635 0 0 0
5634 1 12.16138653158527 -82.69023584115105 5.892298503567634 0 0 0
5635 1 6.416151660085273 -90.82502023415105 -6.549198012812366 0 0 0
5636 1 8.568546802585271 -90.82502023415105 -5.305051496432366 0 0 0
5637 1 10.00488457808527 -88.79138625815105 -5.305051496432366 0 0 0
5638 1 7.85245069208527 -88.79138625815105 -4.060891543232366 0 0 0
5639 1 7.85245069208527 -88.79138625815105 -6.549198012812366 0 0 0
5640 1 10.00488457808527 -88.79138625815105 -2.816746519832365 0 0 0
5641 1 11.44118361008527 -86.75775228215105 -2.816746519832365 0 0 0
5642 1 9.28878846758527 -86.75775228215105 -1.572601496432365 0 0 0
5643 1 9.28878846758527 -86.75775228215105 -4.060891543232366 0 0 0
5644 1 11.44118361008527 -86.75775228215105 -0.3284415432323664 0 0 0
5645 1 12.87752138558527 -84.72411830615104 -0.3284415432323664 0 0 0
5646 1 10.72508749958527 -84.72411830615104 0.9157034801676343 0 0 0
5647 1 10.72508749958527 -84.72411830615104 -1.572601496432365 0 0 0
5648 1 12.87752138558527 -84.72411830615104 2.159848503567634 0 0 0
5649 1 14.31382041758527 -82.69023584115105 2.159848503567634 0 0 0
5650 1 12.16138653158527 -82.69023584115105 3.404008456767635 0 0 0
5651 1 12.16138653158527 -82.69023584115105 0.9157034801676343 0 0 0
5652 1 14.31382041758527 -82.69023584115105 4.648153480167634 0 0 0
5653 1 9.28878846758527 -86.75775228215105 -6.549198012812366 0 0 0
5654 1 11.44118361008527 -86.75775228215105 -5.305051496432366 0 0 0
5655 1 12.87752138558527 -84.72411830615104 -5.305051496432366 0 0 0
5656 1 10.72508749958527 -84.72411830615104 -4.060891543232366 0 0 0
5657 1 10.72508749958527 -84.72411830615104 -6.549198012812366 0 0 0
5658 1 12.87752138558527 -84.72411830615104 -2.816746519832365 0 0 0
5659 1 14.31382041758527 -82.69023584115105 -2.816746519832365 0 0 0
5660 1 12.16138653158527 -82.69023584115105 -1.572601496432365 0 0 0
5661 1 12.16138653158527 -82.69023584115105 -4.060891543232366 0 0 0
5662 1 14.31382041758527 -82.69023584115105 -0.3284415432323664 0 0 0
5663 1 12.16138653158527 -82.69023584115105 -6.549198012812366 0 0 0
5664 1 14.31382041758527 -82.69023584115105 -5.305051496432366 0 0 0
5665 1 1.391080966585267 -94.89253667515105 4.648153480167634 0 0 0
5666 1 1.391080966585267 -94.89253667515105 7.136458456767635 0 0 0
5667 1 2.827418742085271 -92.85865421015106 7.136458456767635 0 0 0
5668 1 0.674984856085274 -92.85865421015106 5.892298503567634 0 0 0
5669 1 1.391080966585267 -94.89253667515105 -0.3284415432323664 0 0 0
5670 1 1.391080966585267 -94.89253667515105 2.159848503567634 0 0 0
5671 1 2.827418742085271 -92.85865421015106 2.159848503567634 0 0 0
5672 1 0.674984856085274 -92.85865421015106 3.404008456767635 0 0 0
5673 1 0.674984856085274 -92.85865421015106 0.9157034801676343 0 0 0
5674 1 2.827418742085271 -92.85865421015106 4.648153480167634 0 0 0
5675 1 4.263717774085269 -90.82502023415105 4.648153480167634 0 0 0
5676 1 2.111322631585267 -90.82502023415105 5.892298503567634 0 0 0
5677 1 2.111322631585267 -90.82502023415105 3.404008456767635 0 0 0
5678 1 4.263717774085269 -90.82502023415105 7.136458456767635 0 0 0
5679 1 5.700055549585269 -88.79138625815105 7.136458456767635 0 0 0
5680 1 3.547621663585268 -88.79138625815105 5.892298503567634 0 0 0
5681 1 1.391080966585267 -94.89253667515105 -5.305051496432366 0 0 0
5682 1 1.391080966585267 -94.89253667515105 -2.816746519832365 0 0 0
5683 1 2.827418742085271 -92.85865421015106 -2.816746519832365 0 0 0
5684 1 0.674984856085274 -92.85865421015106 -1.572601496432365 0 0 0
5685 1 0.674984856085274 -92.85865421015106 -4.060891543232366 0 0 0
5686 1 2.827418742085271 -92.85865421015106 -0.3284415432323664 0 0 0
5687 1 4.263717774085269 -90.82502023415105 -0.3284415432323664 0 0 0
5688 1 2.111322631585267 -90.82502023415105 0.9157034801676343 0 0 0
5689 1 2.111322631585267 -90.82502023415105 -1.572601496432365 0 0 0
5690 1 4.263717774085269 -90.82502023415105 2.159848503567634 0 0 0
5691 1 5.700055549585269 -88.79138625815105 2.159848503567634 0 0 0
5692 1 3.547621663585268 -88.79138625815105 3.404008456767635 0 0 0
5693 1 3.547621663585268 -88.79138625815105 0.9157034801676343 0 0 0
5694 1 5.700055549585269 -88.79138625815105 4.648153480167634 0 0 0
5695 1 7.13635458158527 -86.75775228215105 4.648153480167634 0 0 0
5696 1 4.983920695585269 -86.75775228215105 5.892298503567634 0 0 0
5697 1 4.983920695585269 -86.75775228215105 3.404008456767635 0 0 0
5698 1 7.13635458158527 -86.75775228215105 7.136458456767635 0 0 0
5699 1 8.57265361358527 -84.72411830615104 7.136458456767635 0 0 0
5700 1 6.420258471085269 -84.72411830615104 5.892298503567634 0 0 0
5701 1 0.674984856085274 -92.85865421015106 -6.549198012812366 0 0 0
5702 1 2.827418742085271 -92.85865421015106 -5.305051496432366 0 0 0
5703 1 4.263717774085269 -90.82502023415105 -5.305051496432366 0 0 0
5704 1 2.111322631585267 -90.82502023415105 -4.060891543232366 0 0 0
5705 1 2.111322631585267 -90.82502023415105 -6.549198012812366 0 0 0
5706 1 4.263717774085269 -90.82502023415105 -2.816746519832365 0 0 0
5707 1 5.700055549585269 -88.79138625815105 -2.816746519832365 0 0 0
5708 1 3.547621663585268 -88.79138625815105 -1.572601496432365 0 0 0
5709 1 3.547621663585268 -88.79138625815105 -4.060891543232366 0 0 0
5710 1 5.700055549585269 -88.79138625815105 -0.3284415432323664 0 0 0
5711 1 7.13635458158527 -86.75775228215105 -0.3284415432323664 0 0 0
5712 1 4.983920695585269 -86.75775228215105 0.9157034801676343 0 0 0
5713 1 4.983920695585269 -86.75775228215105 -1.572601496432365 0 0 0
5714 1 7.13635458158527 -86.75775228215105 2.159848503567634 0 0 0
5715 1 8.57265361358527 -84.72411830615104 2.159848503567634 0 0 0
5716 1 6.420258471085269 -84.72411830615104 3.404008456767635 0 0 0
5717 1 6.420258471085269 -84.72411830615104 0.9157034801676343 0 0 0
5718 1 8.57265361358527 -84.72411830615104 4.648153480167634 0 0 0
5719 1 10.00899138908527 -82.69023584115105 4.648153480167634 0 0 0
5720 1 7.85655750308527 -82.69048433015105 5.892298503567634 0 0 0
5721 1 7.85655750308527 -82.69048433015105 3.404008456767635 0 0 0
5722 1 10.00899138908527 -82.69023584115105 7.136458456767635 0 0 0
5723 1 3.547621663585268 -88.79138625815105 -6.549198012812366 0 0 0
5724 1 5.700055549585269 -88.79138625815105 -5.305051496432366 0 0 0
5725 1 7.13635458158527 -86.75775228215105 -5.305051496432366 0 0 0
5726 1 4.983920695585269 -86.75775228215105 -4.060891543232366 0 0 0
5727 1 4.983920695585269 -86.75775228215105 -6.549198012812366 0 0 0
5728 1 7.13635458158527 -86.75775228215105 -2.816746519832365 0 0 0
5729 1 8.57265361358527 -84.72411830615104 -2.816746519832365 0 0 0
5730 1 6.420258471085269 -84.72411830615104 -1.572601496432365 0 0 0
5731 1 6.420258471085269 -84.72411830615104 -4.060891543232366 0 0 0
5732 1 8.57265361358527 -84.72411830615104 -0.3284415432323664 0 0 0
5733 1 10.00899138908527 -82.69023584115105 -0.3284415432323664 0 0 0
5734 1 7.85655750308527 -82.69048433015105 0.9157034801676343 0 0 0
5735 1 7.85655750308527 -82.69048433015105 -1.572601496432365 0 0 0
5736 1 10.00899138908527 -82.69023584115105 2.159848503567634 0 0 0
5737 1 6.420258471085269 -84.72411830615104 -6.549198012812366 0 0 0
5738 1 8.57265361358527 -84.72411830615104 -5.305051496432366 0 0 0
5739 1 10.00899138908527 -82.69023584115105 -5.305051496432366 0 0 0
5740 1 7.85655750308527 -82.69048433015105 -4.060891543232366 0 0 0
5741 1 7.85655750308527 -82.69048433015105 -6.549198012812366 0 0 0
5742 1 10.00899138908527 -82.69023584115105 -2.816746519832365 0 0 0
5743 1 -0.04111125441473007 -90.82502023415105 7.136458456767635 0 0 0
5744 1 -0.04111125441473007 -90.82502023415105 2.159848503567634 0 0 0
5745 1 -0.04111125441473007 -90.82502023415105 4.648153480167634 0 0 0
5746 1 1.395187777585271 -88.79138625815105 4.648153480167634 0 0 0
5747 1 1.395187777585271 -88.79138625815105 7.136458456767635 0 0 0
5748 1 2.831525553085271 -86.75775228215105 7.136458456767635 0 0 0
5749 1 0.6790916670852702 -86.75775228215105 5.892298503567634 0 0 0
5750 1 -0.04111125441473007 -90.82502023415105 -2.816746519832365 0 0 0
5751 1 -0.04111125441473007 -90.82502023415105 -0.3284415432323664 0 0 0
5752 1 1.395187777585271 -88.79138625815105 -0.3284415432323664 0 0 0
5753 1 1.395187777585271 -88.79138625815105 2.159848503567634 0 0 0
5754 1 2.831525553085271 -86.75775228215105 2.159848503567634 0 0 0
5755 1 0.6790916670852702 -86.75775228215105 3.404008456767635 0 0 0
5756 1 0.6790916670852702 -86.75775228215105 0.9157034801676343 0 0 0
5757 1 2.831525553085271 -86.75775228215105 4.648153480167634 0 0 0
5758 1 4.267824585085272 -84.72411830615104 4.648153480167634 0 0 0
5759 1 2.11542944258527 -84.72411830615104 5.892298503567634 0 0 0
5760 1 2.11542944258527 -84.72411830615104 3.404008456767635 0 0 0
5761 1 4.267824585085272 -84.72411830615104 7.136458456767635 0 0 0
5762 1 5.704162360585272 -82.69048433015105 7.136458456767635 0 0 0
5763 1 3.551728474585271 -82.69048433015105 5.892298503567634 0 0 0
5764 1 -0.04111125441473007 -90.82502023415105 -5.305051496432366 0 0 0
5765 1 1.395187777585271 -88.79138625815105 -5.305051496432366 0 0 0
5766 1 1.395187777585271 -88.79138625815105 -2.816746519832365 0 0 0
5767 1 2.831525553085271 -86.75775228215105 -2.816746519832365 0 0 0
5768 1 0.6790916670852702 -86.75775228215105 -1.572601496432365 0 0 0
5769 1 0.6790916670852702 -86.75775228215105 -4.060891543232366 0 0 0
5770 1 2.831525553085271 -86.75775228215105 -0.3284415432323664 0 0 0
5771 1 4.267824585085272 -84.72411830615104 -0.3284415432323664 0 0 0
5772 1 2.11542944258527 -84.72411830615104 0.9157034801676343 0 0 0
5773 1 2.11542944258527 -84.72411830615104 -1.572601496432365 0 0 0
5774 1 4.267824585085272 -84.72411830615104 2.159848503567634 0 0 0
5775 1 5.704162360585272 -82.69048433015105 2.159848503567634 0 0 0
5776 1 3.551728474585271 -82.69048433015105 3.404008456767635 0 0 0
5777 1 3.551728474585271 -82.69048433015105 0.9157034801676343 0 0 0
5778 1 5.704162360585272 -82.69048433015105 4.648153480167634 0 0 0
5779 1 0.6790916670852702 -86.75775228215105 -6.549198012812366 0 0 0
5780 1 2.831525553085271 -86.75775228215105 -5.305051496432366 0 0 0
5781 1 4.267824585085272 -84.72411830615104 -5.305051496432366 0 0 0
5782 1 2.11542944258527 -84.72411830615104 -4.060891543232366 0 0 0
5783 1 2.11542944258527 -84.72411830615104 -6.549198012812366 0 0 0
5784 1 4.267824585085272 -84.72411830615104 -2.816746519832365 0 0 0
5785 1 5.704162360585272 -82.69048433015105 -2.816746519832365 0 0 0
5786 1 3.551728474585271 -82.69048433015105 -1.572601496432365 0 0 0
5787 1 3.551728474585271 -82.69048433015105 -4.060891543232366 0 0 0
5788 1 5.704162360585272 -82.69048433015105 -0.3284415432323664 0 0 0
5789 1 3.551728474585271 -82.69048433015105 -6.549198012812366 0 0 0
5790 1 5.704162360585272 -82.69048433015105 -5.305051496432366 0 0 0
5791 1 -0.0370044434147303 -84.72411830615104 7.136458456767635 0 0 0
5792 1 -0.0370044434147303 -84.72411830615104 2.159848503567634 0 0 0
5793 1 -0.0370044434147303 -84.72411830615104 4.648153480167634 0 0 0
5794 1 1.39933333208527 -82.69048433015105 4.648153480167634 0 0 0
5795 1 1.39933333208527 -82.69048433015105 7.136458456767635 0 0 0
5796 1 -0.0370044434147303 -84.72411830615104 -2.816746519832365 0 0 0
5797 1 -0.0370044434147303 -84.72411830615104 -0.3284415432323664 0 0 0
5798 1 1.39933333208527 -82.69048433015105 -0.3284415432323664 0 0 0
5799 1 1.39933333208527 -82.69048433015105 2.159848503567634 0 0 0
5800 1 -0.0370044434147303 -84.72411830615104 -5.305051496432366 0 0 0
5801 1 1.39933333208527 -82.69048433015105 -5.305051496432366 0 0 0
5802 1 1.39933333208527 -82.69048433015105 -2.816746519832365 0 0 0
5803 1 17.90255333558527 -80.65660186515106 5.892298503567634 0 0 0
5804 1 17.90255333558527 -80.65660186515106 3.404008456767635 0 0 0
5805 1 17.90255333558527 -80.65660186515106 0.9157034801676343 0 0 0
5806 1 19.33889111108527 -78.62296788915106 5.892298503567634 0 0 0
5807 1 19.33889111108527 -78.62296788915106 3.404008456767635 0 0 0
5808 1 17.90255333558527 -80.65660186515106 -1.572601496432365 0 0 0
5809 1 17.90255333558527 -80.65660186515106 -4.060891543232366 0 0 0
5810 1 19.33889111108527 -78.62296788915106 0.9157034801676343 0 0 0
5811 1 19.33889111108527 -78.62296788915106 -1.572601496432365 0 0 0
5812 1 17.90255333558527 -80.65660186515106 -6.549198012812366 0 0 0
5813 1 19.33889111108527 -78.62296788915106 -4.060891543232366 0 0 0
5814 1 19.33889111108527 -78.62296788915106 -6.549198012812366 0 0 0
5815 1 15.75011944958527 -80.65660186515106 4.648153480167634 0 0 0
5816 1 13.59772430708527 -80.65660186515106 5.892298503567634 0 0 0
5817 1 13.59772430708527 -80.65660186515106 3.404008456767635 0 0 0
5818 1 15.75011944958527 -80.65660186515106 7.136458456767635 0 0 0
5819 1 17.18645722508527 -78.62296788915106 7.136458456767635 0 0 0
5820 1 15.03402333908527 -78.62296788915106 5.892298503567634 0 0 0
5821 1 15.75011944958527 -80.65660186515106 -0.3284415432323664 0 0 0
5822 1 13.59772430708527 -80.65660186515106 0.9157034801676343 0 0 0
5823 1 13.59772430708527 -80.65660186515106 -1.572601496432365 0 0 0
5824 1 15.75011944958527 -80.65660186515106 2.159848503567634 0 0 0
5825 1 17.18645722508527 -78.62296788915106 2.159848503567634 0 0 0
5826 1 15.03402333908527 -78.62296788915106 3.404008456767635 0 0 0
5827 1 15.03402333908527 -78.62296788915106 0.9157034801676343 0 0 0
5828 1 17.18645722508527 -78.62296788915106 4.648153480167634 0 0 0
5829 1 18.62275625708527 -76.58933391315105 4.648153480167634 0 0 0
5830 1 16.47036111458527 -76.58933391315105 5.892298503567634 0 0 0
5831 1 16.47036111458527 -76.58933391315105 3.404008456767635 0 0 0
5832 1 18.62275625708527 -76.58933391315105 7.136458456767635 0 0 0
5833 1 17.90666014658527 -74.55569993715105 5.892298503567634 0 0 0
5834 1 15.75011944958527 -80.65660186515106 -5.305051496432366 0 0 0
5835 1 13.59772430708527 -80.65660186515106 -4.060891543232366 0 0 0
5836 1 13.59772430708527 -80.65660186515106 -6.549198012812366 0 0 0
5837 1 15.75011944958527 -80.65660186515106 -2.816746519832365 0 0 0
5838 1 17.18645722508527 -78.62296788915106 -2.816746519832365 0 0 0
5839 1 15.03402333908527 -78.62296788915106 -1.572601496432365 0 0 0
5840 1 15.03402333908527 -78.62296788915106 -4.060891543232366 0 0 0
5841 1 17.18645722508527 -78.62296788915106 -0.3284415432323664 0 0 0
5842 1 18.62275625708527 -76.58933391315105 -0.3284415432323664 0 0 0
5843 1 16.47036111458527 -76.58933391315105 0.9157034801676343 0 0 0
5844 1 16.47036111458527 -76.58933391315105 -1.572601496432365 0 0 0
5845 1 18.62275625708527 -76.58933391315105 2.159848503567634 0 0 0
5846 1 17.90666014658527 -74.55569993715105 3.404008456767635 0 0 0
5847 1 17.90666014658527 -74.55569993715105 0.9157034801676343 0 0 0
5848 1 19.34299792208527 -72.52206596115104 5.892298503567634 0 0 0
5849 1 19.34299792208527 -72.52206596115104 3.404008456767635 0 0 0
5850 1 15.03402333908527 -78.62296788915106 -6.549198012812366 0 0 0
5851 1 17.18645722508527 -78.62296788915106 -5.305051496432366 0 0 0
5852 1 18.62275625708527 -76.58933391315105 -5.305051496432366 0 0 0
5853 1 16.47036111458527 -76.58933391315105 -4.060891543232366 0 0 0
5854 1 16.47036111458527 -76.58933391315105 -6.549198012812366 0 0 0
5855 1 18.62275625708527 -76.58933391315105 -2.816746519832365 0 0 0
5856 1 17.90666014658527 -74.55569993715105 -1.572601496432365 0 0 0
5857 1 17.90666014658527 -74.55569993715105 -4.060891543232366 0 0 0
5858 1 19.34299792208527 -72.52206596115104 0.9157034801676343 0 0 0
5859 1 19.34299792208527 -72.52206596115104 -1.572601496432365 0 0 0
5860 1 17.90666014658527 -74.55569993715105 -6.549198012812366 0 0 0
5861 1 19.34299792208527 -72.52206596115104 -4.060891543232366 0 0 0
5862 1 19.34299792208527 -72.52206596115104 -6.549198012812366 0 0 0
5863 1 11.44529042108527 -80.65660186515106 7.136458456767635 0 0 0
5864 1 9.29289527858527 -80.65660186515106 5.892298503567634 0 0 0
5865 1 11.44529042108527 -80.65660186515106 2.159848503567634 0 0 0
5866 1 9.29289527858527 -80.65660186515106 3.404008456767635 0 0 0
5867 1 9.29289527858527 -80.65660186515106 0.9157034801676343 0 0 0
5868 1 11.44529042108527 -80.65660186515106 4.648153480167634 0 0 0
5869 1 12.88162819658527 -78.62296788915106 4.648153480167634 0 0 0
5870 1 10.72919431058527 -78.62296788915106 5.892298503567634 0 0 0
5871 1 10.72919431058527 -78.62296788915106 3.404008456767635 0 0 0
5872 1 12.88162819658527 -78.62296788915106 7.136458456767635 0 0 0
5873 1 14.31792722858527 -76.58933391315105 7.136458456767635 0 0 0
5874 1 12.16553208608527 -76.58933391315105 5.892298503567634 0 0 0
5875 1 11.44529042108527 -80.65660186515106 -2.816746519832365 0 0 0
5876 1 9.29289527858527 -80.65660186515106 -1.572601496432365 0 0 0
5877 1 9.29289527858527 -80.65660186515106 -4.060891543232366 0 0 0
5878 1 11.44529042108527 -80.65660186515106 -0.3284415432323664 0 0 0
5879 1 12.88162819658527 -78.62296788915106 -0.3284415432323664 0 0 0
5880 1 10.72919431058527 -78.62296788915106 0.9157034801676343 0 0 0
5881 1 10.72919431058527 -78.62296788915106 -1.572601496432365 0 0 0
5882 1 12.88162819658527 -78.62296788915106 2.159848503567634 0 0 0
5883 1 14.31792722858527 -76.58933391315105 2.159848503567634 0 0 0
5884 1 12.16553208608527 -76.58933391315105 3.404008456767635 0 0 0
5885 1 12.16553208608527 -76.58933391315105 0.9157034801676343 0 0 0
5886 1 14.31792722858527 -76.58933391315105 4.648153480167634 0 0 0
5887 1 15.75426500408527 -74.55569993715105 4.648153480167634 0 0 0
5888 1 13.60183111808527 -74.55569993715105 5.892298503567634 0 0 0
5889 1 13.60183111808527 -74.55569993715105 3.404008456767635 0 0 0
5890 1 15.75426500408527 -74.55569993715105 7.136458456767635 0 0 0
5891 1 17.19056403608527 -72.52206596115104 7.136458456767635 0 0 0
5892 1 15.03816889358527 -72.52206596115104 5.892298503567634 0 0 0
5893 1 9.29289527858527 -80.65660186515106 -6.549198012812366 0 0 0
5894 1 11.44529042108527 -80.65660186515106 -5.305051496432366 0 0 0
5895 1 12.88162819658527 -78.62296788915106 -5.305051496432366 0 0 0
5896 1 10.72919431058527 -78.62296788915106 -4.060891543232366 0 0 0
5897 1 10.72919431058527 -78.62296788915106 -6.549198012812366 0 0 0
5898 1 12.88162819658527 -78.62296788915106 -2.816746519832365 0 0 0
5899 1 14.31792722858527 -76.58933391315105 -2.816746519832365 0 0 0
5900 1 12.16553208608527 -76.58933391315105 -1.572601496432365 0 0 0
5901 1 12.16553208608527 -76.58933391315105 -4.060891543232366 0 0 0
5902 1 14.31792722858527 -76.58933391315105 -0.3284415432323664 0 0 0
5903 1 15.75426500408527 -74.55569993715105 -0.3284415432323664 0 0 0
5904 1 13.60183111808527 -74.55569993715105 0.9157034801676343 0 0 0
5905 1 13.60183111808527 -74.55569993715105 -1.572601496432365 0 0 0
5906 1 15.75426500408527 -74.55569993715105 2.159848503567634 0 0 0
5907 1 17.19056403608527 -72.52206596115104 2.159848503567634 0 0 0
5908 1 15.03816889358527 -72.52206596115104 3.404008456767635 0 0 0
5909 1 15.03816889358527 -72.52206596115104 0.9157034801676343 0 0 0
5910 1 17.19056403608527 -72.52206596115104 4.648153480167634 0 0 0
5911 1 18.62690181158527 -70.48843198515105 4.648153480167634 0 0 0
5912 1 16.47446792558527 -70.48818349615105 5.892298503567634 0 0 0
5913 1 16.47446792558527 -70.48818349615105 3.404008456767635 0 0 0
5914 1 18.62690181158527 -70.48843198515105 7.136458456767635 0 0 0
5915 1 17.91080570108527 -68.45454952015105 5.892298503567634 0 0 0
5916 1 12.16553208608527 -76.58933391315105 -6.549198012812366 0 0 0
5917 1 14.31792722858527 -76.58933391315105 -5.305051496432366 0 0 0
5918 1 15.75426500408527 -74.55569993715105 -5.305051496432366 0 0 0
5919 1 13.60183111808527 -74.55569993715105 -4.060891543232366 0 0 0
5920 1 13.60183111808527 -74.55569993715105 -6.549198012812366 0 0 0
5921 1 15.75426500408527 -74.55569993715105 -2.816746519832365 0 0 0
5922 1 17.19056403608527 -72.52206596115104 -2.816746519832365 0 0 0
5923 1 15.03816889358527 -72.52206596115104 -1.572601496432365 0 0 0
5924 1 15.03816889358527 -72.52206596115104 -4.060891543232366 0 0 0
5925 1 17.19056403608527 -72.52206596115104 -0.3284415432323664 0 0 0
5926 1 18.62690181158527 -70.48843198515105 -0.3284415432323664 0 0 0
5927 1 16.47446792558527 -70.48818349615105 0.9157034801676343 0 0 0
5928 1 16.47446792558527 -70.48818349615105 -1.572601496432365 0 0 0
5929 1 18.62690181158527 -70.48843198515105 2.159848503567634 0 0 0
5930 1 17.91080570108527 -68.45454952015105 3.404008456767635 0 0 0
5931 1 17.91080570108527 -68.45454952015105 0.9157034801676343 0 0 0
5932 1 15.03816889358527 -72.52206596115104 -6.549198012812366 0 0 0
5933 1 17.19056403608527 -72.52206596115104 -5.305051496432366 0 0 0
5934 1 18.62690181158527 -70.48843198515105 -5.305051496432366 0 0 0
5935 1 16.47446792558527 -70.48818349615105 -4.060891543232366 0 0 0
5936 1 16.47446792558527 -70.48818349615105 -6.549198012812366 0 0 0
5937 1 18.62690181158527 -70.48843198515105 -2.816746519832365 0 0 0
5938 1 17.91080570108527 -68.45454952015105 -1.572601496432365 0 0 0
5939 1 17.91080570108527 -68.45454952015105 -4.060891543232366 0 0 0
5940 1 17.91080570108527 -68.45454952015105 -6.549198012812366 0 0 0
5941 1 7.140461392585273 -80.65660186515106 4.648153480167634 0 0 0
5942 1 4.988066250085271 -80.65660186515106 5.892298503567634 0 0 0
5943 1 4.988066250085271 -80.65660186515106 3.404008456767635 0 0 0
5944 1 7.140461392585273 -80.65660186515106 7.136458456767635 0 0 0
5945 1 8.57679916808527 -78.62296788915106 7.136458456767635 0 0 0
5946 1 6.424365282085272 -78.62296788915106 5.892298503567634 0 0 0
5947 1 7.140461392585273 -80.65660186515106 -0.3284415432323664 0 0 0
5948 1 4.988066250085271 -80.65660186515106 0.9157034801676343 0 0 0
5949 1 4.988066250085271 -80.65660186515106 -1.572601496432365 0 0 0
5950 1 7.140461392585273 -80.65660186515106 2.159848503567634 0 0 0
5951 1 8.57679916808527 -78.62296788915106 2.159848503567634 0 0 0
5952 1 6.424365282085272 -78.62296788915106 3.404008456767635 0 0 0
5953 1 6.424365282085272 -78.62296788915106 0.9157034801676343 0 0 0
5954 1 8.57679916808527 -78.62296788915106 4.648153480167634 0 0 0
5955 1 10.01309820008527 -76.58933391315105 4.648153480167634 0 0 0
5956 1 7.860703057585273 -76.58933391315105 5.892298503567634 0 0 0
5957 1 7.860703057585273 -76.58933391315105 3.404008456767635 0 0 0
5958 1 10.01309820008527 -76.58933391315105 7.136458456767635 0 0 0
5959 1 11.44943597558527 -74.55569993715105 7.136458456767635 0 0 0
5960 1 9.29700208958527 -74.55569993715105 5.892298503567634 0 0 0
5961 1 7.140461392585273 -80.65660186515106 -5.305051496432366 0 0 0
5962 1 4.988066250085271 -80.65660186515106 -4.060891543232366 0 0 0
5963 1 4.988066250085271 -80.65660186515106 -6.549198012812366 0 0 0
5964 1 7.140461392585273 -80.65660186515106 -2.816746519832365 0 0 0
5965 1 8.57679916808527 -78.62296788915106 -2.816746519832365 0 0 0
5966 1 6.424365282085272 -78.62296788915106 -1.572601496432365 0 0 0
5967 1 6.424365282085272 -78.62296788915106 -4.060891543232366 0 0 0
5968 1 8.57679916808527 -78.62296788915106 -0.3284415432323664 0 0 0
5969 1 10.01309820008527 -76.58933391315105 -0.3284415432323664 0 0 0
5970 1 7.860703057585273 -76.58933391315105 0.9157034801676343 0 0 0
5971 1 7.860703057585273 -76.58933391315105 -1.572601496432365 0 0 0
5972 1 10.01309820008527 -76.58933391315105 2.159848503567634 0 0 0
5973 1 11.44943597558527 -74.55569993715105 2.159848503567634 0 0 0
5974 1 9.29700208958527 -74.55569993715105 3.404008456767635 0 0 0
5975 1 9.29700208958527 -74.55569993715105 0.9157034801676343 0 0 0
5976 1 11.44943597558527 -74.55569993715105 4.648153480167634 0 0 0
5977 1 12.88573500758527 -72.52206596115104 4.648153480167634 0 0 0
5978 1 10.73333986508527 -72.52206596115104 5.892298503567634 0 0 0
5979 1 10.73333986508527 -72.52206596115104 3.404008456767635 0 0 0
5980 1 12.88573500758527 -72.52206596115104 7.136458456767635 0 0 0
5981 1 14.32207278308527 -70.48818349615105 7.136458456767635 0 0 0
5982 1 12.16963889708527 -70.48818349615105 5.892298503567634 0 0 0
5983 1 6.424365282085272 -78.62296788915106 -6.549198012812366 0 0 0
5984 1 8.57679916808527 -78.62296788915106 -5.305051496432366 0 0 0
5985 1 10.01309820008527 -76.58933391315105 -5.305051496432366 0 0 0
5986 1 7.860703057585273 -76.58933391315105 -4.060891543232366 0 0 0
5987 1 7.860703057585273 -76.58933391315105 -6.549198012812366 0 0 0
5988 1 10.01309820008527 -76.58933391315105 -2.816746519832365 0 0 0
5989 1 11.44943597558527 -74.55569993715105 -2.816746519832365 0 0 0
5990 1 9.29700208958527 -74.55569993715105 -1.572601496432365 0 0 0
5991 1 9.29700208958527 -74.55569993715105 -4.060891543232366 0 0 0
5992 1 11.44943597558527 -74.55569993715105 -0.3284415432323664 0 0 0
5993 1 12.88573500758527 -72.52206596115104 -0.3284415432323664 0 0 0
5994 1 10.73333986508527 -72.52206596115104 0.9157034801676343 0 0 0
5995 1 10.73333986508527 -72.52206596115104 -1.572601496432365 0 0 0
5996 1 12.88573500758527 -72.52206596115104 2.159848503567634 0 0 0
5997 1 14.32207278308527 -70.48818349615105 2.159848503567634 0 0 0
5998 1 12.16963889708527 -70.48818349615105 3.404008456767635 0 0 0
5999 1 12.16963889708527 -70.48818349615105 0.9157034801676343 0 0 0
6000 1 14.32207278308527 -70.48818349615105 4.648153480167634 0 0 0
6001 1 15.75837181508527 -68.45454952015105 4.648153480167634 0 0 0
6002 1 13.60597667258527 -68.45454952015105 5.892298503567634 0 0 0
6003 1 13.60597667258527 -68.45454952015105 3.404008456767635 0 0 0
6004 1 15.75837181508527 -68.45454952015105 7.136458456767635 0 0 0
6005 1 9.29700208958527 -74.55569993715105 -6.549198012812366 0 0 0
6006 1 11.44943597558527 -74.55569993715105 -5.305051496432366 0 0 0
6007 1 12.88573500758527 -72.52206596115104 -5.305051496432366 0 0 0
6008 1 10.73333986508527 -72.52206596115104 -4.060891543232366 0 0 0
6009 1 10.73333986508527 -72.52206596115104 -6.549198012812366 0 0 0
6010 1 12.88573500758527 -72.52206596115104 -2.816746519832365 0 0 0
6011 1 14.32207278308527 -70.48818349615105 -2.816746519832365 0 0 0
6012 1 12.16963889708527 -70.48818349615105 -1.572601496432365 0 0 0
6013 1 12.16963889708527 -70.48818349615105 -4.060891543232366 0 0 0
6014 1 14.32207278308527 -70.48818349615105 -0.3284415432323664 0 0 0
6015 1 15.75837181508527 -68.45454952015105 -0.3284415432323664 0 0 0
6016 1 13.60597667258527 -68.45454952015105 0.9157034801676343 0 0 0
6017 1 13.60597667258527 -68.45454952015105 -1.572601496432365 0 0 0
6018 1 15.75837181508527 -68.45454952015105 2.159848503567634 0 0 0
6019 1 12.16963889708527 -70.48818349615105 -6.549198012812366 0 0 0
6020 1 14.32207278308527 -70.48818349615105 -5.305051496432366 0 0 0
6021 1 15.75837181508527 -68.45454952015105 -5.305051496432366 0 0 0
6022 1 13.60597667258527 -68.45454952015105 -4.060891543232366 0 0 0
6023 1 13.60597667258527 -68.45454952015105 -6.549198012812366 0 0 0
6024 1 15.75837181508527 -68.45454952015105 -2.816746519832365 0 0 0
6025 1 2.835632364085271 -80.65660186515106 7.136458456767635 0 0 0
6026 1 0.6832372215852693 -80.65660186515106 5.892298503567634 0 0 0
6027 1 2.835632364085271 -80.65660186515106 2.159848503567634 0 0 0
6028 1 0.6832372215852693 -80.65660186515106 3.404008456767635 0 0 0
6029 1 0.6832372215852693 -80.65660186515106 0.9157034801676343 0 0 0
6030 1 2.835632364085271 -80.65660186515106 4.648153480167634 0 0 0
6031 1 4.271970139585271 -78.62296788915106 4.648153480167634 0 0 0
6032 1 2.119536253585267 -78.62296788915106 5.892298503567634 0 0 0
6033 1 2.119536253585267 -78.62296788915106 3.404008456767635 0 0 0
6034 1 4.271970139585271 -78.62296788915106 7.136458456767635 0 0 0
6035 1 5.708269171585268 -76.58933391315105 7.136458456767635 0 0 0
6036 1 3.55587402908527 -76.58933391315105 5.892298503567634 0 0 0
6037 1 2.835632364085271 -80.65660186515106 -2.816746519832365 0 0 0
6038 1 0.6832372215852693 -80.65660186515106 -1.572601496432365 0 0 0
6039 1 0.6832372215852693 -80.65660186515106 -4.060891543232366 0 0 0
6040 1 2.835632364085271 -80.65660186515106 -0.3284415432323664 0 0 0
6041 1 4.271970139585271 -78.62296788915106 -0.3284415432323664 0 0 0
6042 1 2.119536253585267 -78.62296788915106 0.9157034801676343 0 0 0
6043 1 2.119536253585267 -78.62296788915106 -1.572601496432365 0 0 0
6044 1 4.271970139585271 -78.62296788915106 2.159848503567634 0 0 0
6045 1 5.708269171585268 -76.58933391315105 2.159848503567634 0 0 0
6046 1 3.55587402908527 -76.58933391315105 3.404008456767635 0 0 0
6047 1 3.55587402908527 -76.58933391315105 0.9157034801676343 0 0 0
6048 1 5.708269171585268 -76.58933391315105 4.648153480167634 0 0 0
6049 1 7.144606947085272 -74.55569993715105 4.648153480167634 0 0 0
6050 1 4.992173061085268 -74.55569993715105 5.892298503567634 0 0 0
6051 1 4.992173061085268 -74.55569993715105 3.404008456767635 0 0 0
6052 1 7.144606947085272 -74.55569993715105 7.136458456767635 0 0 0
6053 1 8.580905979085269 -72.52206596115104 7.136458456767635 0 0 0
6054 1 6.428510836585268 -72.52206596115104 5.892298503567634 0 0 0
6055 1 0.6832372215852693 -80.65660186515106 -6.549198012812366 0 0 0
6056 1 2.835632364085271 -80.65660186515106 -5.305051496432366 0 0 0
6057 1 4.271970139585271 -78.62296788915106 -5.305051496432366 0 0 0
6058 1 2.119536253585267 -78.62296788915106 -4.060891543232366 0 0 0
6059 1 2.119536253585267 -78.62296788915106 -6.549198012812366 0 0 0
6060 1 4.271970139585271 -78.62296788915106 -2.816746519832365 0 0 0
6061 1 5.708269171585268 -76.58933391315105 -2.816746519832365 0 0 0
6062 1 3.55587402908527 -76.58933391315105 -1.572601496432365 0 0 0
6063 1 3.55587402908527 -76.58933391315105 -4.060891543232366 0 0 0
6064 1 5.708269171585268 -76.58933391315105 -0.3284415432323664 0 0 0
6065 1 7.144606947085272 -74.55569993715105 -0.3284415432323664 0 0 0
6066 1 4.992173061085268 -74.55569993715105 0.9157034801676343 0 0 0
6067 1 4.992173061085268 -74.55569993715105 -1.572601496432365 0 0 0
6068 1 7.144606947085272 -74.55569993715105 2.159848503567634 0 0 0
6069 1 8.580905979085269 -72.52206596115104 2.159848503567634 0 0 0
6070 1 6.428510836585268 -72.52206596115104 3.404008456767635 0 0 0
6071 1 6.428510836585268 -72.52206596115104 0.9157034801676343 0 0 0
6072 1 8.580905979085269 -72.52206596115104 4.648153480167634 0 0 0
6073 1 10.01724375458527 -70.48843198515105 4.648153480167634 0 0 0
6074 1 7.864809868585269 -70.48843198515105 5.892298503567634 0 0 0
6075 1 7.864809868585269 -70.48843198515105 3.404008456767635 0 0 0
6076 1 10.01724375458527 -70.48843198515105 7.136458456767635 0 0 0
6077 1 11.45354278658527 -68.45454952015105 7.136458456767635 0 0 0
6078 1 9.301147644085269 -68.45454952015105 5.892298503567634 0 0 0
6079 1 3.55587402908527 -76.58933391315105 -6.549198012812366 0 0 0
6080 1 5.708269171585268 -76.58933391315105 -5.305051496432366 0 0 0
6081 1 7.144606947085272 -74.55569993715105 -5.305051496432366 0 0 0
6082 1 4.992173061085268 -74.55569993715105 -4.060891543232366 0 0 0
6083 1 4.992173061085268 -74.55569993715105 -6.549198012812366 0 0 0
6084 1 7.144606947085272 -74.55569993715105 -2.816746519832365 0 0 0
6085 1 8.580905979085269 -72.52206596115104 -2.816746519832365 0 0 0
6086 1 6.428510836585268 -72.52206596115104 -1.572601496432365 0 0 0
6087 1 6.428510836585268 -72.52206596115104 -4.060891543232366 0 0 0
6088 1 8.580905979085269 -72.52206596115104 -0.3284415432323664 0 0 0
6089 1 10.01724375458527 -70.48843198515105 -0.3284415432323664 0 0 0
6090 1 7.864809868585269 -70.48843198515105 0.9157034801676343 0 0 0
6091 1 7.864809868585269 -70.48843198515105 -1.572601496432365 0 0 0
6092 1 10.01724375458527 -70.48843198515105 2.159848503567634 0 0 0
6093 1 11.45354278658527 -68.45454952015105 2.159848503567634 0 0 0
6094 1 9.301147644085269 -68.45454952015105 3.404008456767635 0 0 0
6095 1 9.301147644085269 -68.45454952015105 0.9157034801676343 0 0 0
6096 1 11.45354278658527 -68.45454952015105 4.648153480167634 0 0 0
6097 1 6.428510836585268 -72.52206596115104 -6.549198012812366 0 0 0
6098 1 8.580905979085269 -72.52206596115104 -5.305051496432366 0 0 0
6099 1 10.01724375458527 -70.48843198515105 -5.305051496432366 0 0 0
6100 1 7.864809868585269 -70.48843198515105 -4.060891543232366 0 0 0
6101 1 7.864809868585269 -70.48843198515105 -6.549198012812366 0 0 0
6102 1 10.01724375458527 -70.48843198515105 -2.816746519832365 0 0 0
6103 1 11.45354278658527 -68.45454952015105 -2.816746519832365 0 0 0
6104 1 9.301147644085269 -68.45454952015105 -1.572601496432365 0 0 0
6105 1 9.301147644085269 -68.45454952015105 -4.060891543232366 0 0 0
6106 1 11.45354278658527 -68.45454952015105 -0.3284415432323664 0 0 0
6107 1 9.301147644085269 -68.45454952015105 -6.549198012812366 0 0 0
6108 1 11.45354278658527 -68.45454952015105 -5.305051496432366 0 0 0
6109 1 -0.03285888891473121 -78.62296788915106 7.136458456767635 0 0 0
6110 1 -0.03285888891473121 -78.62296788915106 2.159848503567634 0 0 0
6111 1 -0.03285888891473121 -78.62296788915106 4.648153480167634 0 0 0
6112 1 1.403440143085273 -76.58933391315105 4.648153480167634 0 0 0
6113 1 1.403440143085273 -76.58933391315105 7.136458456767635 0 0 0
6114 1 2.83977791858527 -74.55569993715105 7.136458456767635 0 0 0
6115 1 0.6873440325852691 -74.55569993715105 5.892298503567634 0 0 0
6116 1 -0.03285888891473121 -78.62296788915106 -2.816746519832365 0 0 0
6117 1 -0.03285888891473121 -78.62296788915106 -0.3284415432323664 0 0 0
6118 1 1.403440143085273 -76.58933391315105 -0.3284415432323664 0 0 0
6119 1 1.403440143085273 -76.58933391315105 2.159848503567634 0 0 0
6120 1 2.83977791858527 -74.55569993715105 2.159848503567634 0 0 0
6121 1 0.6873440325852691 -74.55569993715105 3.404008456767635 0 0 0
6122 1 0.6873440325852691 -74.55569993715105 0.9157034801676343 0 0 0
6123 1 2.83977791858527 -74.55569993715105 4.648153480167634 0 0 0
6124 1 4.276076950585271 -72.52206596115104 4.648153480167634 0 0 0
6125 1 2.123681808085273 -72.52206596115104 5.892298503567634 0 0 0
6126 1 2.123681808085273 -72.52206596115104 3.404008456767635 0 0 0
6127 1 4.276076950585271 -72.52206596115104 7.136458456767635 0 0 0
6128 1 5.712414726085267 -70.48843198515105 7.136458456767635 0 0 0
6129 1 3.55998084008527 -70.48843198515105 5.892298503567634 0 0 0
6130 1 -0.03285888891473121 -78.62296788915106 -5.305051496432366 0 0 0
6131 1 1.403440143085273 -76.58933391315105 -5.305051496432366 0 0 0
6132 1 1.403440143085273 -76.58933391315105 -2.816746519832365 0 0 0
6133 1 2.83977791858527 -74.55569993715105 -2.816746519832365 0 0 0
6134 1 0.6873440325852691 -74.55569993715105 -1.572601496432365 0 0 0
6135 1 0.6873440325852691 -74.55569993715105 -4.060891543232366 0 0 0
6136 1 2.83977791858527 -74.55569993715105 -0.3284415432323664 0 0 0
6137 1 4.276076950585271 -72.52206596115104 -0.3284415432323664 0 0 0
6138 1 2.123681808085273 -72.52206596115104 0.9157034801676343 0 0 0
6139 1 2.123681808085273 -72.52206596115104 -1.572601496432365 0 0 0
6140 1 4.276076950585271 -72.52206596115104 2.159848503567634 0 0 0
6141 1 5.712414726085267 -70.48843198515105 2.159848503567634 0 0 0
6142 1 3.55998084008527 -70.48843198515105 3.404008456767635 0 0 0
6143 1 3.55998084008527 -70.48843198515105 0.9157034801676343 0 0 0
6144 1 5.712414726085267 -70.48843198515105 4.648153480167634 0 0 0
6145 1 7.148713758085268 -68.45454952015105 4.648153480167634 0 0 0
6146 1 4.99631861558527 -68.45454952015105 5.892298503567634 0 0 0
6147 1 4.99631861558527 -68.45454952015105 3.404008456767635 0 0 0
6148 1 7.148713758085268 -68.45454952015105 7.136458456767635 0 0 0
6149 1 0.6873440325852691 -74.55569993715105 -6.549198012812366 0 0 0
6150 1 2.83977791858527 -74.55569993715105 -5.305051496432366 0 0 0
6151 1 4.276076950585271 -72.52206596115104 -5.305051496432366 0 0 0
6152 1 2.123681808085273 -72.52206596115104 -4.060891543232366 0 0 0
6153 1 2.123681808085273 -72.52206596115104 -6.549198012812366 0 0 0
6154 1 4.276076950585271 -72.52206596115104 -2.816746519832365 0 0 0
6155 1 5.712414726085267 -70.48843198515105 -2.816746519832365 0 0 0
6156 1 3.55998084008527 -70.48843198515105 -1.572601496432365 0 0 0
6157 1 3.55998084008527 -70.48843198515105 -4.060891543232366 0 0 0
6158 1 5.712414726085267 -70.48843198515105 -0.3284415432323664 0 0 0
6159 1 7.148713758085268 -68.45454952015105 -0.3284415432323664 0 0 0
6160 1 4.99631861558527 -68.45454952015105 0.9157034801676343 0 0 0
6161 1 4.99631861558527 -68.45454952015105 -1.572601496432365 0 0 0
6162 1 7.148713758085268 -68.45454952015105 2.159848503567634 0 0 0
6163 1 3.55998084008527 -70.48843198515105 -6.549198012812366 0 0 0
6164 1 5.712414726085267 -70.48843198515105 -5.305051496432366 0 0 0
6165 1 7.148713758085268 -68.45454952015105 -5.305051496432366 0 0 0
6166 1 4.99631861558527 -68.45454952015105 -4.060891543232366 0 0 0
6167 1 4.99631861558527 -68.45454952015105 -6.549198012812366 0 0 0
6168 1 7.148713758085268 -68.45454952015105 -2.816746519832365 0 0 0
6169 1 -0.02875207791473144 -72.52206596115104 7.136458456767635 0 0 0
6170 1 -0.02875207791473144 -72.52206596115104 2.159848503567634 0 0 0
6171 1 -0.02875207791473144 -72.52206596115104 4.648153480167634 0 0 0
6172 1 1.407585697585269 -70.48843198515105 4.648153480167634 0 0 0
6173 1 1.407585697585269 -70.48843198515105 7.136458456767635 0 0 0
6174 1 2.84388472958527 -68.45454952015105 7.136458456767635 0 0 0
6175 1 0.6914895870852682 -68.45454952015105 5.892298503567634 0 0 0
6176 1 -0.02875207791473144 -72.52206596115104 -2.816746519832365 0 0 0
6177 1 -0.02875207791473144 -72.52206596115104 -0.3284415432323664 0 0 0
6178 1 1.407585697585269 -70.48843198515105 -0.3284415432323664 0 0 0
6179 1 1.407585697585269 -70.48843198515105 2.159848503567634 0 0 0
6180 1 2.84388472958527 -68.45454952015105 2.159848503567634 0 0 0
6181 1 0.6914895870852682 -68.45454952015105 3.404008456767635 0 0 0
6182 1 0.6914895870852682 -68.45454952015105 0.9157034801676343 0 0 0
6183 1 2.84388472958527 -68.45454952015105 4.648153480167634 0 0 0
6184 1 -0.02875207791473144 -72.52206596115104 -5.305051496432366 0 0 0
6185 1 1.407585697585269 -70.48843198515105 -5.305051496432366 0 0 0
6186 1 1.407585697585269 -70.48843198515105 -2.816746519832365 0 0 0
6187 1 2.84388472958527 -68.45454952015105 -2.816746519832365 0 0 0
6188 1 0.6914895870852682 -68.45454952015105 -1.572601496432365 0 0 0
6189 1 0.6914895870852682 -68.45454952015105 -4.060891543232366 0 0 0
6190 1 2.84388472958527 -68.45454952015105 -0.3284415432323664 0 0 0
6191 1 0.6914895870852682 -68.45454952015105 -6.549198012812366 0 0 0
6192 1 2.84388472958527 -68.45454952015105 -5.305051496432366 0 0 0
6193 1 19.34710473308527 -66.42091554415106 5.892298503567634 0 0 0
6194 1 19.34710473308527 -66.42091554415106 3.404008456767635 0 0 0
6195 1 19.34710473308527 -66.42091554415106 0.9157034801676343 0 0 0
6196 1 19.34710473308527 -66.42091554415106 -1.572601496432365 0 0 0
6197 1 19.34710473308527 -66.42091554415106 -4.060891543232366 0 0 0
6198 1 19.34710473308527 -66.42091554415106 -6.549198012812366 0 0 0
6199 1 17.19470959058527 -66.42091554415106 7.136458456767635 0 0 0
6200 1 15.04227570458527 -66.42091554415106 5.892298503567634 0 0 0
6201 1 17.19470959058527 -66.42091554415106 2.159848503567634 0 0 0
6202 1 15.04227570458527 -66.42091554415106 3.404008456767635 0 0 0
6203 1 15.04227570458527 -66.42091554415106 0.9157034801676343 0 0 0
6204 1 17.19470959058527 -66.42091554415106 4.648153480167634 0 0 0
6205 1 18.63100862258527 -64.38728156815105 4.648153480167634 0 0 0
6206 1 16.47861348008527 -64.38728156815105 5.892298503567634 0 0 0
6207 1 16.47861348008527 -64.38728156815105 3.404008456767635 0 0 0
6208 1 18.63100862258527 -64.38728156815105 7.136458456767635 0 0 0
6209 1 17.91491251208527 -62.35364759215105 5.892298503567634 0 0 0
6210 1 17.19470959058527 -66.42091554415106 -2.816746519832365 0 0 0
6211 1 15.04227570458527 -66.42091554415106 -1.572601496432365 0 0 0
6212 1 15.04227570458527 -66.42091554415106 -4.060891543232366 0 0 0
6213 1 17.19470959058527 -66.42091554415106 -0.3284415432323664 0 0 0
6214 1 18.63100862258527 -64.38728156815105 -0.3284415432323664 0 0 0
6215 1 16.47861348008527 -64.38728156815105 0.9157034801676343 0 0 0
6216 1 16.47861348008527 -64.38728156815105 -1.572601496432365 0 0 0
6217 1 18.63100862258527 -64.38728156815105 2.159848503567634 0 0 0
6218 1 17.91491251208527 -62.35364759215105 3.404008456767635 0 0 0
6219 1 17.91491251208527 -62.35364759215105 0.9157034801676343 0 0 0
6220 1 19.35125028758527 -60.32001361615105 5.892298503567634 0 0 0
6221 1 19.35125028758527 -60.32001361615105 3.404008456767635 0 0 0
6222 1 15.04227570458527 -66.42091554415106 -6.549198012812366 0 0 0
6223 1 17.19470959058527 -66.42091554415106 -5.305051496432366 0 0 0
6224 1 18.63100862258527 -64.38728156815105 -5.305051496432366 0 0 0
6225 1 16.47861348008527 -64.38728156815105 -4.060891543232366 0 0 0
6226 1 16.47861348008527 -64.38728156815105 -6.549198012812366 0 0 0
6227 1 18.63100862258527 -64.38728156815105 -2.816746519832365 0 0 0
6228 1 17.91491251208527 -62.35364759215105 -1.572601496432365 0 0 0
6229 1 17.91491251208527 -62.35364759215105 -4.060891543232366 0 0 0
6230 1 19.35125028758527 -60.32001361615105 0.9157034801676343 0 0 0
6231 1 19.35125028758527 -60.32001361615105 -1.572601496432365 0 0 0
6232 1 17.91491251208527 -62.35364759215105 -6.549198012812366 0 0 0
6233 1 19.35125028758527 -60.32001361615105 -4.060891543232366 0 0 0
6234 1 19.35125028758527 -60.32001361615105 -6.549198012812366 0 0 0
6235 1 12.88988056208527 -66.42091554415106 4.648153480167634 0 0 0
6236 1 10.73744667608527 -66.42091554415106 5.892298503567634 0 0 0
6237 1 10.73744667608527 -66.42091554415106 3.404008456767635 0 0 0
6238 1 12.88988056208527 -66.42091554415106 7.136458456767635 0 0 0
6239 1 14.32617959408527 -64.38728156815105 7.136458456767635 0 0 0
6240 1 12.17378445158527 -64.38728156815105 5.892298503567634 0 0 0
6241 1 12.88988056208527 -66.42091554415106 -0.3284415432323664 0 0 0
6242 1 10.73744667608527 -66.42091554415106 0.9157034801676343 0 0 0
6243 1 10.73744667608527 -66.42091554415106 -1.572601496432365 0 0 0
6244 1 12.88988056208527 -66.42091554415106 2.159848503567634 0 0 0
6245 1 14.32617959408527 -64.38728156815105 2.159848503567634 0 0 0
6246 1 12.17378445158527 -64.38728156815105 3.404008456767635 0 0 0
6247 1 12.17378445158527 -64.38728156815105 0.9157034801676343 0 0 0
6248 1 14.32617959408527 -64.38728156815105 4.648153480167634 0 0 0
6249 1 15.76251736958526 -62.35364759215105 4.648153480167634 0 0 0
6250 1 13.61008348358527 -62.35364759215105 5.892298503567634 0 0 0
6251 1 13.61008348358527 -62.35364759215105 3.404008456767635 0 0 0
6252 1 15.76251736958526 -62.35364759215105 7.136458456767635 0 0 0
6253 1 17.19881640158527 -60.32001361615105 7.136458456767635 0 0 0
6254 1 15.04638251558527 -60.32001361615105 5.892298503567634 0 0 0
6255 1 12.88988056208527 -66.42091554415106 -5.305051496432366 0 0 0
6256 1 10.73744667608527 -66.42091554415106 -4.060891543232366 0 0 0
6257 1 10.73744667608527 -66.42091554415106 -6.549198012812366 0 0 0
6258 1 12.88988056208527 -66.42091554415106 -2.816746519832365 0 0 0
6259 1 14.32617959408527 -64.38728156815105 -2.816746519832365 0 0 0
6260 1 12.17378445158527 -64.38728156815105 -1.572601496432365 0 0 0
6261 1 12.17378445158527 -64.38728156815105 -4.060891543232366 0 0 0
6262 1 14.32617959408527 -64.38728156815105 -0.3284415432323664 0 0 0
6263 1 15.76251736958526 -62.35364759215105 -0.3284415432323664 0 0 0
6264 1 13.61008348358527 -62.35364759215105 0.9157034801676343 0 0 0
6265 1 13.61008348358527 -62.35364759215105 -1.572601496432365 0 0 0
6266 1 15.76251736958526 -62.35364759215105 2.159848503567634 0 0 0
6267 1 17.19881640158527 -60.32001361615105 2.159848503567634 0 0 0
6268 1 15.04638251558527 -60.32001361615105 3.404008456767635 0 0 0
6269 1 15.04638251558527 -60.32001361615105 0.9157034801676343 0 0 0
6270 1 17.19881640158527 -60.32001361615105 4.648153480167634 0 0 0
6271 1 18.63511543358527 -58.28637964015104 4.648153480167634 0 0 0
6272 1 16.48272029108527 -58.28637964015104 5.892298503567634 0 0 0
6273 1 16.48272029108527 -58.28637964015104 3.404008456767635 0 0 0
6274 1 18.63511543358527 -58.28637964015104 7.136458456767635 0 0 0
6275 1 17.91901932308527 -56.25249717515105 5.892298503567634 0 0 0
6276 1 12.17378445158527 -64.38728156815105 -6.549198012812366 0 0 0
6277 1 14.32617959408527 -64.38728156815105 -5.305051496432366 0 0 0
6278 1 15.76251736958526 -62.35364759215105 -5.305051496432366 0 0 0
6279 1 13.61008348358527 -62.35364759215105 -4.060891543232366 0 0 0
6280 1 13.61008348358527 -62.35364759215105 -6.549198012812366 0 0 0
6281 1 15.76251736958526 -62.35364759215105 -2.816746519832365 0 0 0
6282 1 17.19881640158527 -60.32001361615105 -2.816746519832365 0 0 0
6283 1 15.04638251558527 -60.32001361615105 -1.572601496432365 0 0 0
6284 1 15.04638251558527 -60.32001361615105 -4.060891543232366 0 0 0
6285 1 17.19881640158527 -60.32001361615105 -0.3284415432323664 0 0 0
6286 1 18.63511543358527 -58.28637964015104 -0.3284415432323664 0 0 0
6287 1 16.48272029108527 -58.28637964015104 0.9157034801676343 0 0 0
6288 1 16.48272029108527 -58.28637964015104 -1.572601496432365 0 0 0
6289 1 18.63511543358527 -58.28637964015104 2.159848503567634 0 0 0
6290 1 17.91901932308527 -56.25249717515105 3.404008456767635 0 0 0
6291 1 17.91901932308527 -56.25249717515105 0.9157034801676343 0 0 0
6292 1 19.35535709858527 -54.21886319915106 5.892298503567634 0 0 0
6293 1 19.35535709858527 -54.21886319915106 3.404008456767635 0 0 0
6294 1 15.04638251558527 -60.32001361615105 -6.549198012812366 0 0 0
6295 1 17.19881640158527 -60.32001361615105 -5.305051496432366 0 0 0
6296 1 18.63511543358527 -58.28637964015104 -5.305051496432366 0 0 0
6297 1 16.48272029108527 -58.28637964015104 -4.060891543232366 0 0 0
6298 1 16.48272029108527 -58.28637964015104 -6.549198012812366 0 0 0
6299 1 18.63511543358527 -58.28637964015104 -2.816746519832365 0 0 0
6300 1 17.91901932308527 -56.25249717515105 -1.572601496432365 0 0 0
6301 1 17.91901932308527 -56.25249717515105 -4.060891543232366 0 0 0
6302 1 19.35535709858527 -54.21886319915106 0.9157034801676343 0 0 0
6303 1 19.35535709858527 -54.21886319915106 -1.572601496432365 0 0 0
6304 1 17.91901932308527 -56.25249717515105 -6.549198012812366 0 0 0
6305 1 19.35535709858527 -54.21886319915106 -4.060891543232366 0 0 0
6306 1 19.35535709858527 -54.21886319915106 -6.549196519832366 0 0 0
6307 1 8.585051533585268 -66.42091554415106 7.136458456767635 0 0 0
6308 1 6.432617647585271 -66.42091554415106 5.892298503567634 0 0 0
6309 1 8.585051533585268 -66.42091554415106 2.159848503567634 0 0 0
6310 1 6.432617647585271 -66.42091554415106 3.404008456767635 0 0 0
6311 1 6.432617647585271 -66.42091554415106 0.9157034801676343 0 0 0
6312 1 8.585051533585268 -66.42091554415106 4.648153480167634 0 0 0
6313 1 10.02135056558527 -64.38728156815105 4.648153480167634 0 0 0
6314 1 7.868955423085268 -64.38728156815105 5.892298503567634 0 0 0
6315 1 7.868955423085268 -64.38728156815105 3.404008456767635 0 0 0
6316 1 10.02135056558527 -64.38728156815105 7.136458456767635 0 0 0
6317 1 11.45764959758527 -62.35364759215105 7.136458456767635 0 0 0
6318 1 9.305254455085269 -62.35364759215105 5.892298503567634 0 0 0
6319 1 8.585051533585268 -66.42091554415106 -2.816746519832365 0 0 0
6320 1 6.432617647585271 -66.42091554415106 -1.572601496432365 0 0 0
6321 1 6.432617647585271 -66.42091554415106 -4.060891543232366 0 0 0
6322 1 8.585051533585268 -66.42091554415106 -0.3284415432323664 0 0 0
6323 1 10.02135056558527 -64.38728156815105 -0.3284415432323664 0 0 0
6324 1 7.868955423085268 -64.38728156815105 0.9157034801676343 0 0 0
6325 1 7.868955423085268 -64.38728156815105 -1.572601496432365 0 0 0
6326 1 10.02135056558527 -64.38728156815105 2.159848503567634 0 0 0
6327 1 11.45764959758527 -62.35364759215105 2.159848503567634 0 0 0
6328 1 9.305254455085269 -62.35364759215105 3.404008456767635 0 0 0
6329 1 9.305254455085269 -62.35364759215105 0.9157034801676343 0 0 0
6330 1 11.45764959758527 -62.35364759215105 4.648153480167634 0 0 0
6331 1 12.89398737308527 -60.32001361615105 4.648153480167634 0 0 0
6332 1 10.74155348708527 -60.32001361615105 5.892298503567634 0 0 0
6333 1 10.74155348708527 -60.32001361615105 3.403993526967634 0 0 0
6334 1 12.89398737308527 -60.32001361615105 7.136458456767635 0 0 0
6335 1 14.33028640508527 -58.28613115115105 7.136458456767635 0 0 0
6336 1 12.17789126258527 -58.28613115115105 5.892298503567634 0 0 0
6337 1 6.432617647585271 -66.42091554415106 -6.549198012812366 0 0 0
6338 1 8.585051533585268 -66.42091554415106 -5.305051496432366 0 0 0
6339 1 10.02135056558527 -64.38728156815105 -5.305051496432366 0 0 0
6340 1 7.868955423085268 -64.38728156815105 -4.060891543232366 0 0 0
6341 1 7.868955423085268 -64.38728156815105 -6.549198012812366 0 0 0
6342 1 10.02135056558527 -64.38728156815105 -2.816746519832365 0 0 0
6343 1 11.45764959758527 -62.35364759215105 -2.816746519832365 0 0 0
6344 1 9.305254455085269 -62.35364759215105 -1.572601496432365 0 0 0
6345 1 9.305254455085269 -62.35364759215105 -4.060891543232366 0 0 0
6346 1 11.45764959758527 -62.35364759215105 -0.3284415432323664 0 0 0
6347 1 12.89398737308527 -60.32001361615105 -0.3284415432323664 0 0 0
6348 1 10.74155348708527 -60.32001361615105 0.9157034801676343 0 0 0
6349 1 10.74155348708527 -60.32001361615105 -1.572601496432365 0 0 0
6350 1 12.89398737308527 -60.32001361615105 2.159848503567634 0 0 0
6351 1 14.33028640508527 -58.28613115115105 2.159848503567634 0 0 0
6352 1 12.17789126258527 -58.28613115115105 3.403993526967634 0 0 0
6353 1 12.17789126258527 -58.28613115115105 0.9157034801676343 0 0 0
6354 1 14.33028640508527 -58.28613115115105 4.648153480167634 0 0 0
6355 1 15.76662418058527 -56.25249717515105 4.648153480167634 0 0 0
6356 1 13.61419029458527 -56.25249717515105 5.892298503567634 0 0 0
6357 1 13.61419029458527 -56.25249717515105 3.403993526967634 0 0 0
6358 1 15.76662418058527 -56.25249717515105 7.136458456767635 0 0 0
6359 1 17.20292321258527 -54.21886319915106 7.136458456767635 0 0 0
6360 1 15.05052807008527 -54.21886319915106 5.892298503567634 0 0 0
6361 1 9.305254455085269 -62.35364759215105 -6.549199505792366 0 0 0
6362 1 11.45764959758527 -62.35364759215105 -5.305051496432366 0 0 0
6363 1 12.89398737308527 -60.32001361615105 -5.305051496432366 0 0 0
6364 1 10.74155348708527 -60.32001361615105 -4.060906473032365 0 0 0
6365 1 10.74155348708527 -60.32001361615105 -6.549199505792366 0 0 0
6366 1 12.89398737308527 -60.32001361615105 -2.816746519832365 0 0 0
6367 1 14.33028640508527 -58.28613115115105 -2.816746519832365 0 0 0
6368 1 12.17789126258527 -58.28613115115105 -1.572601496432365 0 0 0
6369 1 12.17789126258527 -58.28613115115105 -4.060906473032365 0 0 0
6370 1 14.33028640508527 -58.28613115115105 -0.3284415432323664 0 0 0
6371 1 15.76662418058527 -56.25249717515105 -0.3284415432323664 0 0 0
6372 1 13.61419029458527 -56.25249717515105 0.9157034801676343 0 0 0
6373 1 13.61419029458527 -56.25249717515105 -1.572601496432365 0 0 0
6374 1 15.76662418058527 -56.25249717515105 2.159848503567634 0 0 0
6375 1 17.20292321258527 -54.21886319915106 2.159848503567634 0 0 0
6376 1 15.05052807008527 -54.21886319915106 3.404008456767635 0 0 0
6377 1 15.05052807008527 -54.21886319915106 0.9157034801676343 0 0 0
6378 1 17.20292321258527 -54.21886319915106 4.648153480167634 0 0 0
6379 1 12.17789126258527 -58.28613115115105 -6.549199505792366 0 0 0
6380 1 14.33028640508527 -58.28613115115105 -5.305051496432366 0 0 0
6381 1 15.76662418058527 -56.25249717515105 -5.305051496432366 0 0 0
6382 1 13.61419029458527 -56.25249717515105 -4.060906473032365 0 0 0
6383 1 13.61419029458527 -56.25249717515105 -6.549199505792366 0 0 0
6384 1 15.76662418058527 -56.25249717515105 -2.816746519832365 0 0 0
6385 1 17.20292321258527 -54.21886319915106 -2.816746519832365 0 0 0
6386 1 15.05052807008527 -54.21886319915106 -1.572601496432365 0 0 0
6387 1 15.05052807008527 -54.21886319915106 -4.060891543232366 0 0 0
6388 1 17.20292321258527 -54.21886319915106 -0.3284415432323664 0 0 0
6389 1 15.05052807008527 -54.21886319915106 -6.549198012812366 0 0 0
6390 1 17.20292321258527 -54.21886319915106 -5.305051496432366 0 0 0
6391 1 4.28022250508527 -66.42091554415106 4.648153480167634 0 0 0
6392 1 2.127788619085269 -66.42091554415106 5.892298503567634 0 0 0
6393 1 2.127788619085269 -66.42091554415106 3.404008456767635 0 0 0
6394 1 4.28022250508527 -66.42091554415106 7.136458456767635 0 0 0
6395 1 5.716521537085271 -64.38728156815105 7.136458456767635 0 0 0
6396 1 3.56408765108527 -64.38728156815105 5.892298503567634 0 0 0
6397 1 4.28022250508527 -66.42091554415106 -0.3284415432323664 0 0 0
6398 1 2.127788619085269 -66.42091554415106 0.9157034801676343 0 0 0
6399 1 2.127788619085269 -66.42091554415106 -1.572601496432365 0 0 0
6400 1 4.28022250508527 -66.42091554415106 2.159848503567634 0 0 0
6401 1 5.716521537085271 -64.38728156815105 2.159848503567634 0 0 0
6402 1 3.56408765108527 -64.38728156815105 3.404008456767635 0 0 0
6403 1 3.56408765108527 -64.38728156815105 0.9157034801676343 0 0 0
6404 1 5.716521537085271 -64.38728156815105 4.648153480167634 0 0 0
6405 1 7.152820569085272 -62.35364759215105 4.648153480167634 0 0 0
6406 1 5.00042542658527 -62.35364759215105 5.892298503567634 0 0 0
6407 1 5.00042542658527 -62.35364759215105 3.404008456767635 0 0 0
6408 1 7.152820569085272 -62.35364759215105 7.136458456767635 0 0 0
6409 1 8.589158344585272 -60.32001361615105 7.136443526967634 0 0 0
6410 1 6.436724458585271 -60.32001361615105 5.892298503567634 0 0 0
6411 1 4.28022250508527 -66.42091554415106 -5.305051496432366 0 0 0
6412 1 2.127788619085269 -66.42091554415106 -4.060891543232366 0 0 0
6413 1 2.127788619085269 -66.42091554415106 -6.549198012812366 0 0 0
6414 1 4.28022250508527 -66.42091554415106 -2.816746519832365 0 0 0
6415 1 5.716521537085271 -64.38728156815105 -2.816746519832365 0 0 0
6416 1 3.56408765108527 -64.38728156815105 -1.572601496432365 0 0 0
6417 1 3.56408765108527 -64.38728156815105 -4.060891543232366 0 0 0
6418 1 5.716521537085271 -64.38728156815105 -0.3284415432323664 0 0 0
6419 1 7.152820569085272 -62.35364759215105 -0.3284415432323664 0 0 0
6420 1 5.00042542658527 -62.35364759215105 0.9157034801676343 0 0 0
6421 1 5.00042542658527 -62.35364759215105 -1.572601496432365 0 0 0
6422 1 7.152820569085272 -62.35364759215105 2.159848503567634 0 0 0
6423 1 8.589158344585272 -60.32001361615105 2.159848503567634 0 0 0
6424 1 6.436724458585271 -60.32001361615105 3.404008456767635 0 0 0
6425 1 6.436724458585271 -60.32001361615105 0.9157034801676343 0 0 0
6426 1 8.589158344585272 -60.32001361615105 4.648153480167634 0 0 0
6427 1 10.02545737658527 -58.28613115115105 4.648153480167634 0 0 0
6428 1 7.873062234085271 -58.28613115115105 5.892298503567634 0 0 0
6429 1 7.873062234085271 -58.28613115115105 3.403993526967634 0 0 0
6430 1 10.02545737658527 -58.28613115115105 7.136443526967634 0 0 0
6431 1 11.46179515208527 -56.25249717515105 7.136443526967634 0 0 0
6432 1 9.309361266085268 -56.25249717515105 5.892298503567634 0 0 0
6433 1 3.56408765108527 -64.38728156815105 -6.549198012812366 0 0 0
6434 1 5.716521537085271 -64.38728156815105 -5.305051496432366 0 0 0
6435 1 7.152820569085272 -62.35364759215105 -5.305051496432366 0 0 0
6436 1 5.00042542658527 -62.35364759215105 -4.060891543232366 0 0 0
6437 1 5.00042542658527 -62.35364759215105 -6.549198012812366 0 0 0
6438 1 7.152820569085272 -62.35364759215105 -2.816746519832365 0 0 0
6439 1 8.589158344585272 -60.32001361615105 -2.816746519832365 0 0 0
6440 1 6.436724458585271 -60.32001361615105 -1.572601496432365 0 0 0
6441 1 6.436724458585271 -60.32001361615105 -4.060891543232366 0 0 0
6442 1 8.589158344585272 -60.32001361615105 -0.3284564730323654 0 0 0
6443 1 10.02545737658527 -58.28613115115105 -0.3284564730323654 0 0 0
6444 1 7.873062234085271 -58.28613115115105 0.9157034801676343 0 0 0
6445 1 7.873062234085271 -58.28613115115105 -1.572601496432365 0 0 0
6446 1 10.02545737658527 -58.28613115115105 2.159848503567634 0 0 0
6447 1 11.46179515208527 -56.25249717515105 2.159848503567634 0 0 0
6448 1 9.309361266085268 -56.25249717515105 3.403993526967634 0 0 0
6449 1 9.309361266085268 -56.25249717515105 0.9157034801676343 0 0 0
6450 1 11.46179515208527 -56.25249717515105 4.648153480167634 0 0 0
6451 1 12.89809418408527 -54.21886319915106 4.648153480167634 0 0 0
6452 1 10.74569904158527 -54.21886319915106 5.892298503567634 0 0 0
6453 1 10.74569904158527 -54.21886319915106 3.403993526967634 0 0 0
6454 1 12.89809418408527 -54.21886319915106 7.136443526967634 0 0 0
6455 1 6.436724458585271 -60.32001361615105 -6.549199505792366 0 0 0
6456 1 8.589158344585272 -60.32001361615105 -5.305051496432366 0 0 0
6457 1 10.02545737658527 -58.28613115115105 -5.305051496432366 0 0 0
6458 1 7.873062234085271 -58.28613115115105 -4.060906473032365 0 0 0
6459 1 7.873062234085271 -58.28613115115105 -6.549199505792366 0 0 0
6460 1 10.02545737658527 -58.28613115115105 -2.816746519832365 0 0 0
6461 1 11.46179515208527 -56.25249717515105 -2.816746519832365 0 0 0
6462 1 9.309361266085268 -56.25249717515105 -1.572601496432365 0 0 0
6463 1 9.309361266085268 -56.25249717515105 -4.060906473032365 0 0 0
6464 1 11.46179515208527 -56.25249717515105 -0.3284564730323654 0 0 0
6465 1 12.89809418408527 -54.21886319915106 -0.3284564730323654 0 0 0
6466 1 10.74569904158527 -54.21886319915106 0.9157034801676343 0 0 0
6467 1 10.74569904158527 -54.21886319915106 -1.572601496432365 0 0 0
6468 1 12.89809418408527 -54.21886319915106 2.159848503567634 0 0 0
6469 1 9.309361266085268 -56.25249717515105 -6.549199505792366 0 0 0
6470 1 11.46179515208527 -56.25249717515105 -5.305051496432366 0 0 0
6471 1 12.89809418408527 -54.21886319915106 -5.305051496432366 0 0 0
6472 1 10.74569904158527 -54.21886319915106 -4.060906473032365 0 0 0
6473 1 10.74569904158527 -54.21886319915106 -6.549199505792366 0 0 0
6474 1 12.89809418408527 -54.21886319915106 -2.816746519832365 0 0 0
6475 1 -0.02464526691473168 -66.42091554415106 7.136458456767635 0 0 0
6476 1 1.411692508585272 -64.38728156815105 4.648153480167634 0 0 0
6477 1 1.411692508585272 -64.38728156815105 7.136458456767635 0 0 0
6478 1 2.847991540585273 -62.35364759215105 7.136458456767635 0 0 0
6479 1 0.6955963980852715 -62.35364759215105 5.892298503567634 0 0 0
6480 1 -0.02464526691473168 -66.42091554415106 -0.3284415432323664 0 0 0
6481 1 1.411692508585272 -64.38728156815105 -0.3284415432323664 0 0 0
6482 1 1.411692508585272 -64.38728156815105 2.159848503567634 0 0 0
6483 1 2.847991540585273 -62.35364759215105 2.159848503567634 0 0 0
6484 1 0.6955963980852715 -62.35364759215105 3.404008456767635 0 0 0
6485 1 0.6955963980852715 -62.35364759215105 0.9157034801676343 0 0 0
6486 1 2.847991540585273 -62.35364759215105 4.648153480167634 0 0 0
6487 1 4.28432931608527 -60.32001361615105 4.648153480167634 0 0 0
6488 1 2.131895430085272 -60.32001361615105 5.892298503567634 0 0 0
6489 1 2.131895430085272 -60.32001361615105 3.404008456767635 0 0 0
6490 1 4.28432931608527 -60.32001361615105 7.136458456767635 0 0 0
6491 1 5.720628348085267 -58.28637964015104 7.136443526967634 0 0 0
6492 1 3.568233205585273 -58.28637964015104 5.892298503567634 0 0 0
6493 1 1.411692508585272 -64.38728156815105 -5.305051496432366 0 0 0
6494 1 1.411692508585272 -64.38728156815105 -2.816746519832365 0 0 0
6495 1 2.847991540585273 -62.35364759215105 -2.816746519832365 0 0 0
6496 1 0.6955963980852715 -62.35364759215105 -1.572601496432365 0 0 0
6497 1 0.6955963980852715 -62.35364759215105 -4.060891543232366 0 0 0
6498 1 2.847991540585273 -62.35364759215105 -0.3284415432323664 0 0 0
6499 1 4.28432931608527 -60.32001361615105 -0.3284415432323664 0 0 0
6500 1 2.131895430085272 -60.32001361615105 0.9157034801676343 0 0 0
6501 1 2.131895430085272 -60.32001361615105 -1.572601496432365 0 0 0
6502 1 4.28432931608527 -60.32001361615105 2.159848503567634 0 0 0
6503 1 5.720628348085267 -58.28637964015104 2.159848503567634 0 0 0
6504 1 3.568233205585273 -58.28637964015104 3.403993526967634 0 0 0
6505 1 3.568233205585273 -58.28637964015104 0.9157034801676343 0 0 0
6506 1 5.720628348085267 -58.28637964015104 4.648153480167634 0 0 0
6507 1 7.156966123585271 -56.25249717515105 4.648153480167634 0 0 0
6508 1 5.00453223758527 -56.25249717515105 5.892298503567634 0 0 0
6509 1 5.00453223758527 -56.25249717515105 3.403993526967634 0 0 0
6510 1 7.156966123585271 -56.25249717515105 7.136443526967634 0 0 0
6511 1 8.593265155585268 -54.21886319915106 7.136443526967634 0 0 0
6512 1 6.440870013085267 -54.21886319915106 5.892298503567634 0 0 0
6513 1 0.6955963980852715 -62.35364759215105 -6.549198012812366 0 0 0
6514 1 2.847991540585273 -62.35364759215105 -5.305051496432366 0 0 0
6515 1 4.28432931608527 -60.32001361615105 -5.305051496432366 0 0 0
6516 1 2.131895430085272 -60.32001361615105 -4.060891543232366 0 0 0
6517 1 2.131895430085272 -60.32001361615105 -6.549198012812366 0 0 0
6518 1 4.28432931608527 -60.32001361615105 -2.816746519832365 0 0 0
6519 1 5.720628348085267 -58.28637964015104 -2.816746519832365 0 0 0
6520 1 3.568233205585273 -58.28637964015104 -1.572601496432365 0 0 0
6521 1 3.568233205585273 -58.28637964015104 -4.060906473032365 0 0 0
6522 1 5.720628348085267 -58.28637964015104 -0.3284564730323654 0 0 0
6523 1 7.156966123585271 -56.25249717515105 -0.3284564730323654 0 0 0
6524 1 5.00453223758527 -56.25249717515105 0.9157034801676343 0 0 0
6525 1 5.00453223758527 -56.25249717515105 -1.572601496432365 0 0 0
6526 1 7.156966123585271 -56.25249717515105 2.159848503567634 0 0 0
6527 1 8.593265155585268 -54.21886319915106 2.159848503567634 0 0 0
6528 1 6.440870013085267 -54.21886319915106 3.403993526967634 0 0 0
6529 1 6.440870013085267 -54.21886319915106 0.9157034801676343 0 0 0
6530 1 8.593265155585268 -54.21886319915106 4.648153480167634 0 0 0
6531 1 3.568233205585273 -58.28637964015104 -6.549199505792366 0 0 0
6532 1 5.720628348085267 -58.28637964015104 -5.305051496432366 0 0 0
6533 1 7.156966123585271 -56.25249717515105 -5.305051496432366 0 0 0
6534 1 5.00453223758527 -56.25249717515105 -4.060906473032365 0 0 0
6535 1 5.00453223758527 -56.25249717515105 -6.549199505792366 0 0 0
6536 1 7.156966123585271 -56.25249717515105 -2.816746519832365 0 0 0
6537 1 8.593265155585268 -54.21886319915106 -2.816746519832365 0 0 0
6538 1 6.440870013085267 -54.21886319915106 -1.572601496432365 0 0 0
6539 1 6.440870013085267 -54.21886319915106 -4.060906473032365 0 0 0
6540 1 8.593265155585268 -54.21886319915106 -0.3284564730323654 0 0 0
6541 1 6.440870013085267 -54.21886319915106 -6.549200998772366 0 0 0
6542 1 8.593265155585268 -54.21886319915106 -5.305051496432366 0 0 0
6543 1 -0.02049971241472903 -60.32001361615105 7.136458456767635 0 0 0
6544 1 -0.02049971241472903 -60.32001361615105 2.159848503567634 0 0 0
6545 1 -0.02049971241472903 -60.32001361615105 4.648153480167634 0 0 0
6546 1 1.415799319585272 -58.28637964015104 4.648153480167634 0 0 0
6547 1 1.415799319585272 -58.28637964015104 7.136458456767635 0 0 0
6548 1 2.852137095085272 -56.25249717515105 7.136443526967634 0 0 0
6549 1 0.6997032090852677 -56.25249717515105 5.892298503567634 0 0 0
6550 1 -0.02049971241472903 -60.32001361615105 -2.816746519832365 0 0 0
6551 1 -0.02049971241472903 -60.32001361615105 -0.3284415432323664 0 0 0
6552 1 1.415799319585272 -58.28637964015104 -0.3284415432323664 0 0 0
6553 1 1.415799319585272 -58.28637964015104 2.159848503567634 0 0 0
6554 1 2.852137095085272 -56.25249717515105 2.159848503567634 0 0 0
6555 1 0.6997032090852677 -56.25249717515105 3.404008456767635 0 0 0
6556 1 0.6997032090852677 -56.25249717515105 0.9157034801676343 0 0 0
6557 1 2.852137095085272 -56.25249717515105 4.648153480167634 0 0 0
6558 1 4.288436127085269 -54.21886319915106 4.648153480167634 0 0 0
6559 1 2.136040984585271 -54.21886319915106 5.892298503567634 0 0 0
6560 1 2.136040984585271 -54.21886319915106 3.403993526967634 0 0 0
6561 1 4.288436127085269 -54.21886319915106 7.136443526967634 0 0 0
6562 1 -0.02049971241472903 -60.32001361615105 -5.305051496432366 0 0 0
6563 1 1.415799319585272 -58.28637964015104 -5.305051496432366 0 0 0
6564 1 1.415799319585272 -58.28637964015104 -2.816746519832365 0 0 0
6565 1 2.852137095085272 -56.25249717515105 -2.816746519832365 0 0 0
6566 1 0.6997032090852677 -56.25249717515105 -1.572601496432365 0 0 0
6567 1 0.6997032090852677 -56.25249717515105 -4.060891543232366 0 0 0
6568 1 2.852137095085272 -56.25249717515105 -0.3284564730323654 0 0 0
6569 1 4.288436127085269 -54.21886319915106 -0.3284564730323654 0 0 0
6570 1 2.136040984585271 -54.21886319915106 0.9157034801676343 0 0 0
6571 1 2.136040984585271 -54.21886319915106 -1.572601496432365 0 0 0
6572 1 4.288436127085269 -54.21886319915106 2.159848503567634 0 0 0
6573 1 0.6997032090852677 -56.25249717515105 -6.549199505792366 0 0 0
6574 1 2.852137095085272 -56.25249717515105 -5.305051496432366 0 0 0
6575 1 4.288436127085269 -54.21886319915106 -5.305051496432366 0 0 0
6576 1 2.136040984585271 -54.21886319915106 -4.060906473032365 0 0 0
6577 1 2.136040984585271 -54.21886319915106 -6.549199505792366 0 0 0
6578 1 4.288436127085269 -54.21886319915106 -2.816746519832365 0 0 0
6579 1 -0.01639290141472927 -54.21886319915106 2.159848503567634 0 0 0
6580 1 -0.01639290141472927 -54.21886319915106 -2.816746519832365 0 0 0
6581 1 -0.01639290141472927 -54.21886319915106 -0.3284564730323654 0 0 0
6582 1 18.63926098808527 -52.18522922315105 4.648153480167634 0 0 0
6583 1 16.48682710208527 -52.18522922315105 5.892298503567634 0 0 0
6584 1 16.48682710208527 -52.18522922315105 3.404008456767635 0 0 0
6585 1 18.63926098808527 -52.18522922315105 7.136458456767635 0 0 0
6586 1 17.92316487758527 -50.15159524715105 5.892298503567634 0 0 0
6587 1 18.63926098808527 -52.18522922315105 -0.3284415432323664 0 0 0
6588 1 16.48682710208527 -52.18522922315105 0.9157034801676343 0 0 0
6589 1 16.48682710208527 -52.18522922315105 -1.572601496432365 0 0 0
6590 1 18.63926098808527 -52.18522922315105 2.159848503567634 0 0 0
6591 1 17.92316487758527 -50.15159524715105 3.404008456767635 0 0 0
6592 1 17.92316487758527 -50.15159524715105 0.9157034801676343 0 0 0
6593 1 19.35946390958527 -48.11796127115105 5.892313433367635 0 0 0
6594 1 19.35946390958527 -48.11796127115105 3.404008456767635 0 0 0
6595 1 18.63926098808527 -52.18522922315105 -5.305051496432366 0 0 0
6596 1 16.48682710208527 -52.18522922315105 -4.060891543232366 0 0 0
6597 1 16.48682710208527 -52.18522922315105 -6.549198012812366 0 0 0
6598 1 18.63926098808527 -52.18522922315105 -2.816746519832365 0 0 0
6599 1 17.92316487758527 -50.15159524715105 -1.572601496432365 0 0 0
6600 1 17.92316487758527 -50.15159524715105 -4.060891543232366 0 0 0
6601 1 19.35946390958527 -48.11796127115105 0.9157034801676343 0 0 0
6602 1 19.35946390958527 -48.11796127115105 -1.572586566632366 0 0 0
6603 1 17.92316487758527 -50.15159524715105 -6.549195026852366 0 0 0
6604 1 19.35946390958527 -48.11796127115105 -4.060891543232366 0 0 0
6605 1 19.35946390958527 -48.11796127115105 -6.549192040892366 0 0 0
6606 1 14.33443195958527 -52.18522922315105 7.136458456767635 0 0 0
6607 1 12.18199807358527 -52.18522922315105 5.892298503567634 0 0 0
6608 1 14.33443195958527 -52.18522922315105 2.159848503567634 0 0 0
6609 1 12.18199807358527 -52.18522922315105 3.403993526967634 0 0 0
6610 1 12.18199807358527 -52.18522922315105 0.9157034801676343 0 0 0
6611 1 14.33443195958527 -52.18522922315105 4.648153480167634 0 0 0
6612 1 15.77073099158526 -50.15159524715105 4.648153480167634 0 0 0
6613 1 13.61829710558527 -50.15159524715105 5.892298503567634 0 0 0
6614 1 13.61829710558527 -50.15159524715105 3.404008456767635 0 0 0
6615 1 15.77073099158526 -50.15159524715105 7.136458456767635 0 0 0
6616 1 17.20703002358527 -48.11796127115105 7.136458456767635 0 0 0
6617 1 15.05463488108527 -48.11796127115105 5.892298503567634 0 0 0
6618 1 14.33443195958527 -52.18522922315105 -2.816746519832365 0 0 0
6619 1 12.18199807358527 -52.18522922315105 -1.572601496432365 0 0 0
6620 1 12.18199807358527 -52.18522922315105 -4.060906473032365 0 0 0
6621 1 14.33443195958527 -52.18522922315105 -0.3284415432323664 0 0 0
6622 1 15.77073099158526 -50.15159524715105 -0.3284415432323664 0 0 0
6623 1 13.61829710558527 -50.15159524715105 0.9157034801676343 0 0 0
6624 1 13.61829710558527 -50.15159524715105 -1.572601496432365 0 0 0
6625 1 15.77073099158526 -50.15159524715105 2.159848503567634 0 0 0
6626 1 17.20703002358527 -48.11796127115105 2.159863433367635 0 0 0
6627 1 15.05463488108527 -48.11796127115105 3.404008456767635 0 0 0
6628 1 15.05463488108527 -48.11796127115105 0.9157034801676343 0 0 0
6629 1 17.20703002358527 -48.11796127115105 4.648153480167634 0 0 0
6630 1 18.64336779908527 -46.08432729515104 4.648168409967635 0 0 0
6631 1 16.49093391308527 -46.08407880615106 5.892313433367635 0 0 0
6632 1 16.49093391308527 -46.08407880615106 3.404008456767635 0 0 0
6633 1 18.64336779908527 -46.08432729515104 7.136458456767635 0 0 0
6634 1 17.92727168858527 -44.05044483015105 5.892313433367635 0 0 0
6635 1 12.18199807358527 -52.18522922315105 -6.549199505792366 0 0 0
6636 1 14.33443195958527 -52.18522922315105 -5.305051496432366 0 0 0
6637 1 15.77073099158526 -50.15159524715105 -5.305051496432366 0 0 0
6638 1 13.61829710558527 -50.15159524715105 -4.060891543232366 0 0 0
6639 1 13.61829710558527 -50.15159524715105 -6.549198012812366 0 0 0
6640 1 15.77073099158526 -50.15159524715105 -2.816746519832365 0 0 0
6641 1 17.20703002358527 -48.11796127115105 -2.816746519832365 0 0 0
6642 1 15.05463488108527 -48.11796127115105 -1.572601496432365 0 0 0
6643 1 15.05463488108527 -48.11796127115105 -4.060891543232366 0 0 0
6644 1 17.20703002358527 -48.11796127115105 -0.3284415432323664 0 0 0
6645 1 18.64336779908527 -46.08432729515104 -0.3284415432323664 0 0 0
6646 1 16.49093391308527 -46.08407880615106 0.9157034801676343 0 0 0
6647 1 16.49093391308527 -46.08407880615106 -1.572586566632366 0 0 0
6648 1 18.64336779908527 -46.08432729515104 2.159863433367635 0 0 0
6649 1 17.92727168858527 -44.05044483015105 3.404008456767635 0 0 0
6650 1 17.92727168858527 -44.05044483015105 0.915718409967635 0 0 0
6651 1 -19.37991664903373 -42.01681085415105 5.892328363167636 1 0 0
6652 1 -19.37991664903373 -42.01681085415105 3.404023386567635 1 0 0
6653 1 15.05463488108527 -48.11796127115105 -6.549195026852366 0 0 0
6654 1 17.20703002358527 -48.11796127115105 -5.305036566632365 0 0 0
6655 1 18.64336779908527 -46.08432729515104 -5.305036566632365 0 0 0
6656 1 16.49093391308527 -46.08407880615106 -4.060891543232366 0 0 0
6657 1 16.49093391308527 -46.08407880615106 -6.549190547912366 0 0 0
6658 1 18.64336779908527 -46.08432729515104 -2.816731590032366 0 0 0
6659 1 17.92727168858527 -44.05044483015105 -1.572586566632366 0 0 0
6660 1 17.92727168858527 -44.05044483015105 -4.060891543232366 0 0 0
6661 1 -19.37991664903373 -42.01681085415105 0.915718409967635 1 0 0
6662 1 -19.37991664903373 -42.01681085415105 -1.572571636832365 1 0 0
6663 1 17.92727168858527 -44.05044483015105 -6.549184575992365 0 0 0
6664 1 -19.37991664903373 -42.01681085415105 -4.060876613432366 1 0 0
6665 1 -19.37991664903373 -42.01681085415105 -6.549177111092366 1 0 0
6666 1 10.02960293108527 -52.18522922315105 4.648153480167634 0 0 0
6667 1 7.877169045085271 -52.18522922315105 5.892298503567634 0 0 0
6668 1 7.877169045085271 -52.18522922315105 3.403993526967634 0 0 0
6669 1 10.02960293108527 -52.18522922315105 7.136443526967634 0 0 0
6670 1 11.46590196308527 -50.15159524715105 7.136443526967634 0 0 0
6671 1 9.313506820585268 -50.15159524715105 5.892298503567634 0 0 0
6672 1 10.02960293108527 -52.18522922315105 -0.3284564730323654 0 0 0
6673 1 7.877169045085271 -52.18522922315105 0.9157034801676343 0 0 0
6674 1 7.877169045085271 -52.18522922315105 -1.572601496432365 0 0 0
6675 1 10.02960293108527 -52.18522922315105 2.159848503567634 0 0 0
6676 1 11.46590196308527 -50.15159524715105 2.159848503567634 0 0 0
6677 1 9.313506820585268 -50.15159524715105 3.403993526967634 0 0 0
6678 1 9.313506820585268 -50.15159524715105 0.9157034801676343 0 0 0
6679 1 11.46590196308527 -50.15159524715105 4.648153480167634 0 0 0
6680 1 12.90220099508527 -48.11796127115105 4.648153480167634 0 0 0
6681 1 10.74980585258527 -48.11796127115105 5.892298503567634 0 0 0
6682 1 10.74980585258527 -48.11796127115105 3.403993526967634 0 0 0
6683 1 12.90220099508527 -48.11796127115105 7.136458456767635 0 0 0
6684 1 14.33853877058527 -46.08407880615106 7.136458456767635 0 0 0
6685 1 12.18610488458527 -46.08407880615106 5.892298503567634 0 0 0
6686 1 10.02960293108527 -52.18522922315105 -5.305051496432366 0 0 0
6687 1 7.877169045085271 -52.18522922315105 -4.060906473032365 0 0 0
6688 1 7.877169045085271 -52.18522922315105 -6.549200998772366 0 0 0
6689 1 10.02960293108527 -52.18522922315105 -2.816746519832365 0 0 0
6690 1 11.46590196308527 -50.15159524715105 -2.816746519832365 0 0 0
6691 1 9.313506820585268 -50.15159524715105 -1.572601496432365 0 0 0
6692 1 9.313506820585268 -50.15159524715105 -4.060906473032365 0 0 0
6693 1 11.46590196308527 -50.15159524715105 -0.3284564730323654 0 0 0
6694 1 12.90220099508527 -48.11796127115105 -0.3284415432323664 0 0 0
6695 1 10.74980585258527 -48.11796127115105 0.9157034801676343 0 0 0
6696 1 10.74980585258527 -48.11796127115105 -1.572601496432365 0 0 0
6697 1 12.90220099508527 -48.11796127115105 2.159848503567634 0 0 0
6698 1 14.33853877058527 -46.08407880615106 2.159848503567634 0 0 0
6699 1 12.18610488458527 -46.08407880615106 3.404008456767635 0 0 0
6700 1 12.18610488458527 -46.08407880615106 0.9157034801676343 0 0 0
6701 1 14.33853877058527 -46.08407880615106 4.648153480167634 0 0 0
6702 1 15.77483780258527 -44.05044483015105 4.648168409967635 0 0 0
6703 1 13.62244266008527 -44.05044483015105 5.892313433367635 0 0 0
6704 1 13.62244266008527 -44.05044483015105 3.404008456767635 0 0 0
6705 1 15.77483780258527 -44.05044483015105 7.136458456767635 0 0 0
6706 1 17.21117557808527 -42.01681085415105 7.136473386567635 0 0 0
6707 1 15.05874169208527 -42.01681085415105 5.892313433367635 0 0 0
6708 1 9.313506820585268 -50.15159524715105 -6.549202491752366 0 0 0
6709 1 11.46590196308527 -50.15159524715105 -5.305051496432366 0 0 0
6710 1 12.90220099508527 -48.11796127115105 -5.305051496432366 0 0 0
6711 1 10.74980585258527 -48.11796127115105 -4.060906473032365 0 0 0
6712 1 10.74980585258527 -48.11796127115105 -6.549200998772366 0 0 0
6713 1 12.90220099508527 -48.11796127115105 -2.816746519832365 0 0 0
6714 1 14.33853877058527 -46.08407880615106 -2.816746519832365 0 0 0
6715 1 12.18610488458527 -46.08407880615106 -1.572601496432365 0 0 0
6716 1 12.18610488458527 -46.08407880615106 -4.060891543232366 0 0 0
6717 1 14.33853877058527 -46.08407880615106 -0.3284415432323664 0 0 0
6718 1 15.77483780258527 -44.05044483015105 -0.3284415432323664 0 0 0
6719 1 13.62244266008527 -44.05044483015105 0.9157034801676343 0 0 0
6720 1 13.62244266008527 -44.05044483015105 -1.572586566632366 0 0 0
6721 1 15.77483780258527 -44.05044483015105 2.159863433367635 0 0 0
6722 1 17.21117557808527 -42.01681085415105 2.159878363167635 0 0 0
6723 1 15.05874169208527 -42.01681085415105 3.404023386567635 0 0 0
6724 1 15.05874169208527 -42.01681085415105 0.915718409967635 0 0 0
6725 1 17.21117557808527 -42.01681085415105 4.648168409967635 0 0 0
6726 1 12.18610488458527 -46.08407880615106 -6.549198012812366 0 0 0
6727 1 14.33853877058527 -46.08407880615106 -5.305051496432366 0 0 0
6728 1 15.77483780258527 -44.05044483015105 -5.305036566632365 0 0 0
6729 1 13.62244266008527 -44.05044483015105 -4.060891543232366 0 0 0
6730 1 13.62244266008527 -44.05044483015105 -6.549192040892366 0 0 0
6731 1 15.77483780258527 -44.05044483015105 -2.816731590032366 0 0 0
6732 1 17.21117557808527 -42.01681085415105 -2.816731590032366 0 0 0
6733 1 15.05874169208527 -42.01681085415105 -1.572586566632366 0 0 0
6734 1 15.05874169208527 -42.01681085415105 -4.060876613432366 0 0 0
6735 1 17.21117557808527 -42.01681085415105 -0.3284266134323657 0 0 0
6736 1 15.05874169208527 -42.01681085415105 -6.549183083012366 0 0 0
6737 1 17.21117557808527 -42.01681085415105 -5.305021636832366 0 0 0
6738 1 5.72477390258527 -52.18522922315105 7.136443526967634 0 0 0
6739 1 3.572340016585269 -52.18522922315105 5.892298503567634 0 0 0
6740 1 5.72477390258527 -52.18522922315105 2.159848503567634 0 0 0
6741 1 3.572340016585269 -52.18522922315105 3.403993526967634 0 0 0
6742 1 3.572340016585269 -52.18522922315105 0.9157034801676343 0 0 0
6743 1 5.72477390258527 -52.18522922315105 4.648153480167634 0 0 0
6744 1 7.16107293458527 -50.15159524715105 4.648153480167634 0 0 0
6745 1 5.008677792085269 -50.15159524715105 5.892298503567634 0 0 0
6746 1 5.008677792085269 -50.15159524715105 3.403993526967634 0 0 0
6747 1 7.16107293458527 -50.15159524715105 7.136443526967634 0 0 0
6748 1 8.597410710085271 -48.11796127115105 7.136443526967634 0 0 0
6749 1 6.44497682408527 -48.11796127115105 5.892298503567634 0 0 0
6750 1 5.72477390258527 -52.18522922315105 -2.816746519832365 0 0 0
6751 1 3.572340016585269 -52.18522922315105 -1.572601496432365 0 0 0
6752 1 3.572340016585269 -52.18522922315105 -4.060906473032365 0 0 0
6753 1 5.72477390258527 -52.18522922315105 -0.3284564730323654 0 0 0
6754 1 7.16107293458527 -50.15159524715105 -0.3284564730323654 0 0 0
6755 1 5.008677792085269 -50.15159524715105 0.9157034801676343 0 0 0
6756 1 5.008677792085269 -50.15159524715105 -1.572601496432365 0 0 0
6757 1 7.16107293458527 -50.15159524715105 2.159848503567634 0 0 0
6758 1 8.597410710085271 -48.11796127115105 2.159848503567634 0 0 0
6759 1 6.44497682408527 -48.11796127115105 3.403993526967634 0 0 0
6760 1 6.44497682408527 -48.11796127115105 0.9156885503676353 0 0 0
6761 1 8.597410710085271 -48.11796127115105 4.648153480167634 0 0 0
6762 1 10.03370974208527 -46.08407880615106 4.648153480167634 0 0 0
6763 1 7.881275856085271 -46.08407880615106 5.892298503567634 0 0 0
6764 1 7.881275856085271 -46.08407880615106 3.403993526967634 0 0 0
6765 1 10.03370974208527 -46.08407880615106 7.136443526967634 0 0 0
6766 1 11.47000877408527 -44.05044483015105 7.136458456767635 0 0 0
6767 1 9.317613631585271 -44.05044483015105 5.892298503567634 0 0 0
6768 1 3.572340016585269 -52.18522922315105 -6.549200998772366 0 0 0
6769 1 5.72477390258527 -52.18522922315105 -5.305051496432366 0 0 0
6770 1 7.16107293458527 -50.15159524715105 -5.305051496432366 0 0 0
6771 1 5.008677792085269 -50.15159524715105 -4.060906473032365 0 0 0
6772 1 5.008677792085269 -50.15159524715105 -6.549203984732365 0 0 0
6773 1 7.16107293458527 -50.15159524715105 -2.816746519832365 0 0 0
6774 1 8.597410710085271 -48.11796127115105 -2.816746519832365 0 0 0
6775 1 6.44497682408527 -48.11796127115105 -1.572601496432365 0 0 0
6776 1 6.44497682408527 -48.11796127115105 -4.060906473032365 0 0 0
6777 1 8.597410710085271 -48.11796127115105 -0.3284564730323654 0 0 0
6778 1 10.03370974208527 -46.08407880615106 -0.3284564730323654 0 0 0
6779 1 7.881275856085271 -46.08407880615106 0.9156885503676353 0 0 0
6780 1 7.881275856085271 -46.08407880615106 -1.572601496432365 0 0 0
6781 1 10.03370974208527 -46.08407880615106 2.159848503567634 0 0 0
6782 1 11.47000877408527 -44.05044483015105 2.159848503567634 0 0 0
6783 1 9.317613631585271 -44.05044483015105 3.403993526967634 0 0 0
6784 1 9.317613631585271 -44.05044483015105 0.9157034801676343 0 0 0
6785 1 11.47000877408527 -44.05044483015105 4.648153480167634 0 0 0
6786 1 12.90630780608527 -42.01681085415105 4.648168409967635 0 0 0
6787 1 10.75391266358527 -42.01681085415105 5.892298503567634 0 0 0
6788 1 10.75391266358527 -42.01681085415105 3.404008456767635 0 0 0
6789 1 12.90630780608527 -42.01681085415105 7.136458456767635 0 0 0
6790 1 6.44497682408527 -48.11796127115105 -6.549203984732365 0 0 0
6791 1 8.597410710085271 -48.11796127115105 -5.305051496432366 0 0 0
6792 1 10.03370974208527 -46.08407880615106 -5.305051496432366 0 0 0
6793 1 7.881275856085271 -46.08407880615106 -4.060906473032365 0 0 0
6794 1 7.881275856085271 -46.08407880615106 -6.549203984732365 0 0 0
6795 1 10.03370974208527 -46.08407880615106 -2.816746519832365 0 0 0
6796 1 11.47000877408527 -44.05044483015105 -2.816746519832365 0 0 0
6797 1 9.317613631585271 -44.05044483015105 -1.572601496432365 0 0 0
6798 1 9.317613631585271 -44.05044483015105 -4.060906473032365 0 0 0
6799 1 11.47000877408527 -44.05044483015105 -0.3284415432323664 0 0 0
6800 1 12.90630780608527 -42.01681085415105 -0.3284415432323664 0 0 0
6801 1 10.75391266358527 -42.01681085415105 0.9157034801676343 0 0 0
6802 1 10.75391266358527 -42.01681085415105 -1.572601496432365 0 0 0
6803 1 12.90630780608527 -42.01681085415105 2.159863433367635 0 0 0
6804 1 9.317613631585271 -44.05044483015105 -6.549202491752366 0 0 0
6805 1 11.47000877408527 -44.05044483015105 -5.305051496432366 0 0 0
6806 1 12.90630780608527 -42.01681085415105 -5.305036566632365 0 0 0
6807 1 10.75391266358527 -42.01681085415105 -4.060891543232366 0 0 0
6808 1 10.75391266358527 -42.01681085415105 -6.549195026852366 0 0 0
6809 1 12.90630780608527 -42.01681085415105 -2.816731590032366 0 0 0
6810 1 1.419944874085267 -52.18522922315105 4.648153480167634 0 0 0
6811 1 1.419944874085267 -52.18522922315105 7.136443526967634 0 0 0
6812 1 2.856243906085268 -50.15159524715105 7.136443526967634 0 0 0
6813 1 0.7038487635852704 -50.15159524715105 5.892298503567634 0 0 0
6814 1 1.419944874085267 -52.18522922315105 -0.3284564730323654 0 0 0
6815 1 1.419944874085267 -52.18522922315105 2.159848503567634 0 0 0
6816 1 2.856243906085268 -50.15159524715105 2.159848503567634 0 0 0
6817 1 0.7038487635852704 -50.15159524715105 3.403993526967634 0 0 0
6818 1 0.7038487635852704 -50.15159524715105 0.9157034801676343 0 0 0
6819 1 2.856243906085268 -50.15159524715105 4.648153480167634 0 0 0
6820 1 4.292581681585268 -48.11796127115105 4.648138550367635 0 0 0
6821 1 2.140147795585271 -48.11796127115105 5.892298503567634 0 0 0
6822 1 2.140147795585271 -48.11796127115105 3.403993526967634 0 0 0
6823 1 4.292581681585268 -48.11796127115105 7.136443526967634 0 0 0
6824 1 5.728880713585269 -46.08407880615106 7.136443526967634 0 0 0
6825 1 3.576485571085268 -46.08432729515104 5.892298503567634 0 0 0
6826 1 1.419944874085267 -52.18522922315105 -5.305051496432366 0 0 0
6827 1 1.419944874085267 -52.18522922315105 -2.816746519832365 0 0 0
6828 1 2.856243906085268 -50.15159524715105 -2.816746519832365 0 0 0
6829 1 0.7038487635852704 -50.15159524715105 -1.572601496432365 0 0 0
6830 1 0.7038487635852704 -50.15159524715105 -4.060906473032365 0 0 0
6831 1 2.856243906085268 -50.15159524715105 -0.3284564730323654 0 0 0
6832 1 4.292581681585268 -48.11796127115105 -0.3284564730323654 0 0 0
6833 1 2.140147795585271 -48.11796127115105 0.9156885503676353 0 0 0
6834 1 2.140147795585271 -48.11796127115105 -1.572601496432365 0 0 0
6835 1 4.292581681585268 -48.11796127115105 2.159848503567634 0 0 0
6836 1 5.728880713585269 -46.08407880615106 2.159848503567634 0 0 0
6837 1 3.576485571085268 -46.08432729515104 3.403993526967634 0 0 0
6838 1 3.576485571085268 -46.08432729515104 0.9156885503676353 0 0 0
6839 1 5.728880713585269 -46.08407880615106 4.648138550367635 0 0 0
6840 1 7.16517974558527 -44.05044483015105 4.648138550367635 0 0 0
6841 1 5.012784603085272 -44.05044483015105 5.892283573767635 0 0 0
6842 1 5.012784603085272 -44.05044483015105 3.403993526967634 0 0 0
6843 1 7.16517974558527 -44.05044483015105 7.136443526967634 0 0 0
6844 1 8.60151752108527 -42.01681085415105 7.136443526967634 0 0 0
6845 1 6.449083635085273 -42.01681085415105 5.892283573767635 0 0 0
6846 1 0.7038487635852704 -50.15159524715105 -6.549202491752366 0 0 0
6847 1 2.856243906085268 -50.15159524715105 -5.305051496432366 0 0 0
6848 1 4.292581681585268 -48.11796127115105 -5.305051496432366 0 0 0
6849 1 2.140147795585271 -48.11796127115105 -4.060906473032365 0 0 0
6850 1 2.140147795585271 -48.11796127115105 -6.549205477712365 0 0 0
6851 1 4.292581681585268 -48.11796127115105 -2.816761449632366 0 0 0
6852 1 5.728880713585269 -46.08407880615106 -2.816761449632366 0 0 0
6853 1 3.576485571085268 -46.08432729515104 -1.572601496432365 0 0 0
6854 1 3.576485571085268 -46.08432729515104 -4.060906473032365 0 0 0
6855 1 5.728880713585269 -46.08407880615106 -0.3284564730323654 0 0 0
6856 1 7.16517974558527 -44.05044483015105 -0.3284564730323654 0 0 0
6857 1 5.012784603085272 -44.05044483015105 0.9156885503676353 0 0 0
6858 1 5.012784603085272 -44.05044483015105 -1.572616426232366 0 0 0
6859 1 7.16517974558527 -44.05044483015105 2.159848503567634 0 0 0
6860 1 8.60151752108527 -42.01681085415105 2.159848503567634 0 0 0
6861 1 6.449083635085273 -42.01681085415105 3.403993526967634 0 0 0
6862 1 6.449083635085273 -42.01681085415105 0.9156885503676353 0 0 0
6863 1 8.60151752108527 -42.01681085415105 4.648153480167634 0 0 0
6864 1 3.576485571085268 -46.08432729515104 -6.549208463672366 0 0 0
6865 1 5.728880713585269 -46.08407880615106 -5.305051496432366 0 0 0
6866 1 7.16517974558527 -44.05044483015105 -5.305051496432366 0 0 0
6867 1 5.012784603085272 -44.05044483015105 -4.060906473032365 0 0 0
6868 1 5.012784603085272 -44.05044483015105 -6.549209956652366 0 0 0
6869 1 7.16517974558527 -44.05044483015105 -2.816761449632366 0 0 0
6870 1 8.60151752108527 -42.01681085415105 -2.816746519832365 0 0 0
6871 1 6.449083635085273 -42.01681085415105 -1.572616426232366 0 0 0
6872 1 6.449083635085273 -42.01681085415105 -4.060906473032365 0 0 0
6873 1 8.60151752108527 -42.01681085415105 -0.3284564730323654 0 0 0
6874 1 6.449083635085273 -42.01681085415105 -6.549208463672366 0 0 0
6875 1 8.60151752108527 -42.01681085415105 -5.305051496432366 0 0 0
6876 1 -0.01224734691473017 -48.11796127115105 7.136443526967634 0 0 0
6877 1 -0.01224734691473017 -48.11796127115105 2.159848503567634 0 0 0
6878 1 -0.01224734691473017 -48.11796127115105 4.648138550367635 0 0 0
6879 1 1.424051685085271 -46.08432729515104 4.648138550367635 0 0 0
6880 1 1.424051685085271 -46.08432729515104 7.136443526967634 0 0 0
6881 1 2.860389460585271 -44.05044483015105 7.136443526967634 0 0 0
6882 1 0.7079555745852701 -44.05044483015105 5.892283573767635 0 0 0
6883 1 -0.01224734691473017 -48.11796127115105 -2.816761449632366 0 0 0
6884 1 -0.01224734691473017 -48.11796127115105 -0.3284564730323654 0 0 0
6885 1 1.424051685085271 -46.08432729515104 -0.3284564730323654 0 0 0
6886 1 1.424051685085271 -46.08432729515104 2.159848503567634 0 0 0
6887 1 2.860389460585271 -44.05044483015105 2.159833573767635 0 0 0
6888 1 0.7079555745852701 -44.05044483015105 3.403993526967634 0 0 0
6889 1 0.7079555745852701 -44.05044483015105 0.9156885503676353 0 0 0
6890 1 2.860389460585271 -44.05044483015105 4.648138550367635 0 0 0
6891 1 4.296688492585272 -42.01681085415105 4.648138550367635 0 0 0
6892 1 2.14429335008527 -42.01681085415105 5.892283573767635 0 0 0
6893 1 2.14429335008527 -42.01681085415105 3.403978597167635 0 0 0
6894 1 4.296688492585272 -42.01681085415105 7.136428597167635 0 0 0
6895 1 -0.01224734691473017 -48.11796127115105 -5.305051496432366 0 0 0
6896 1 1.424051685085271 -46.08432729515104 -5.305051496432366 0 0 0
6897 1 1.424051685085271 -46.08432729515104 -2.816761449632366 0 0 0
6898 1 2.860389460585271 -44.05044483015105 -2.816761449632366 0 0 0
6899 1 0.7079555745852701 -44.05044483015105 -1.572616426232366 0 0 0
6900 1 0.7079555745852701 -44.05044483015105 -4.060906473032365 0 0 0
6901 1 2.860389460585271 -44.05044483015105 -0.3284564730323654 0 0 0
6902 1 4.296688492585272 -42.01681085415105 -0.3284714028323661 0 0 0
6903 1 2.14429335008527 -42.01681085415105 0.9156885503676353 0 0 0
6904 1 2.14429335008527 -42.01681085415105 -1.572616426232366 0 0 0
6905 1 4.296688492585272 -42.01681085415105 2.159833573767635 0 0 0
6906 1 0.7079555745852701 -44.05044483015105 -6.549212942612366 0 0 0
6907 1 2.860389460585271 -44.05044483015105 -5.305066426232366 0 0 0
6908 1 4.296688492585272 -42.01681085415105 -5.305066426232366 0 0 0
6909 1 2.14429335008527 -42.01681085415105 -4.060921402832365 0 0 0
6910 1 2.14429335008527 -42.01681085415105 -6.549217421552366 0 0 0
6911 1 4.296688492585272 -42.01681085415105 -2.816761449632366 0 0 0
6912 1 -0.008140535914730407 -42.01681085415105 7.136428597167635 0 0 0
6913 1 -0.008140535914730407 -42.01681085415105 2.159833573767635 0 0 0
6914 1 -0.008140535914730407 -42.01681085415105 4.648138550367635 0 0 0
6915 1 -0.008140535914730407 -42.01681085415105 -2.816761449632366 0 0 0
6916 1 -0.008140535914730407 -42.01681085415105 -0.3284714028323661 0 0 0
6917 1 -0.008140535914730407 -42.01681085415105 -5.305066426232366 0 0 0
6918 1 18.64747461008527 -39.98317687815104 4.648183339767634 0 0 0
6919 1 16.49504072408527 -39.98317687815104 5.892328363167636 0 0 0
6920 1 16.49504072408527 -39.98317687815104 3.404023386567635 0 0 0
6921 1 18.64747461008527 -39.98317687815104 7.136488316367634 0 0 0
6922 1 17.93137849958527 -37.94954290215105 5.892343292967634 0 0 0
6923 1 18.64747461008527 -39.98317687815104 -0.3284116836323658 0 0 0
6924 1 16.49504072408527 -39.98317687815104 0.9157333397676339 0 0 0
6925 1 16.49504072408527 -39.98317687815104 -1.572571636832365 0 0 0
6926 1 18.64747461008527 -39.98317687815104 2.159878363167635 0 0 0
6927 1 17.93137849958527 -37.94954290215105 3.404038316367634 0 0 0
6928 1 17.93137849958527 -37.94954290215105 0.9157482695676329 0 0 0
6929 1 -19.37580391027823 -35.91590892615105 5.892358222767633 1 0 0
6930 1 -19.37580391027823 -35.91590892615105 3.404053246167633 1 0 0
6931 1 18.64747461008527 -39.98317687815104 -5.305021636832366 0 0 0
6932 1 16.49504072408527 -39.98317687815104 -4.060876613432366 0 0 0
6933 1 16.49504072408527 -39.98317687815104 -6.549169646192365 0 0 0
6934 1 18.64747461008527 -39.98317687815104 -2.816716660232366 0 0 0
6935 1 17.93137849958527 -37.94954290215105 -1.572556707032366 0 0 0
6936 1 17.93137849958527 -37.94954290215105 -4.060861683632366 0 0 0
6937 1 -19.37580391027823 -35.91590892615105 0.9157482695676329 1 0 0
6938 1 -19.37580391027823 -35.91590892615105 -1.572541777232366 1 0 0
6939 1 17.93137849958527 -37.94954290215105 -6.549157702352366 0 0 0
6940 1 -19.37580391027823 -35.91590892615105 -4.060846753832365 1 0 0
6941 1 -19.37580391027823 -35.91590892615105 -6.549147251492366 1 0 0
6942 1 14.34264558158527 -39.98317687815104 7.136473386567635 0 0 0
6943 1 12.19021169558527 -39.98317687815104 5.892313433367635 0 0 0
6944 1 14.34264558158527 -39.98317687815104 2.159878363167635 0 0 0
6945 1 12.19021169558527 -39.98317687815104 3.404023386567635 0 0 0
6946 1 12.19021169558527 -39.98317687815104 0.915718409967635 0 0 0
6947 1 14.34264558158527 -39.98317687815104 4.648168409967635 0 0 0
6948 1 15.77894461358527 -37.94954290215105 4.648198269567633 0 0 0
6949 1 13.62654947108527 -37.94954290215105 5.892343292967634 0 0 0
6950 1 13.62654947108527 -37.94954290215105 3.404038316367634 0 0 0
6951 1 15.77894461358527 -37.94954290215105 7.136488316367634 0 0 0
6952 1 17.21528238908527 -35.91590892615105 7.136503246167633 0 0 0
6953 1 15.06284850308527 -35.91566043715106 5.892358222767633 0 0 0
6954 1 14.34264558158527 -39.98317687815104 -2.816731590032366 0 0 0
6955 1 12.19021169558527 -39.98317687815104 -1.572586566632366 0 0 0
6956 1 12.19021169558527 -39.98317687815104 -4.060876613432366 0 0 0
6957 1 14.34264558158527 -39.98317687815104 -0.3284266134323657 0 0 0
6958 1 15.77894461358527 -37.94954290215105 -0.3284116836323658 0 0 0
6959 1 13.62654947108527 -37.94954290215105 0.9157333397676339 0 0 0
6960 1 13.62654947108527 -37.94954290215105 -1.572556707032366 0 0 0
6961 1 15.77894461358527 -37.94954290215105 2.159893292967634 0 0 0
6962 1 17.21528238908527 -35.91590892615105 2.159908222767633 0 0 0
6963 1 15.06284850308527 -35.91566043715106 3.404053246167633 0 0 0
6964 1 15.06284850308527 -35.91566043715106 0.9157631993676336 0 0 0
6965 1 17.21528238908527 -35.91590892615105 4.648213199367634 0 0 0
6966 1 18.65158142108526 -33.88227495015106 4.648213199367634 0 0 0
6967 1 16.49914753508527 -33.88202646115104 5.892388082367635 0 0 0
6968 1 16.49914753508527 -33.88202646115104 3.404083105767635 0 0 0
6969 1 18.65158142108526 -33.88227495015106 7.136518175967634 0 0 0
6970 1 17.93548531058527 -31.84864097415105 5.892388082367635 0 0 0
6971 1 12.19021169558527 -39.98317687815104 -6.549183083012366 0 0 0
6972 1 14.34264558158527 -39.98317687815104 -5.305021636832366 0 0 0
6973 1 15.77894461358527 -37.94954290215105 -5.305006707032366 0 0 0
6974 1 13.62654947108527 -37.94954290215105 -4.060861683632366 0 0 0
6975 1 13.62654947108527 -37.94954290215105 -6.549163674272366 0 0 0
6976 1 15.77894461358527 -37.94954290215105 -2.816701730432365 0 0 0
6977 1 17.21528238908527 -35.91590892615105 -2.816686800632366 0 0 0
6978 1 15.06284850308527 -35.91566043715106 -1.572541777232366 0 0 0
6979 1 15.06284850308527 -35.91566043715106 -4.060846753832365 0 0 0
6980 1 17.21528238908527 -35.91590892615105 -0.3283967538323651 0 0 0
6981 1 18.65158142108526 -33.88227495015106 -0.3283818240323662 0 0 0
6982 1 16.49914753508527 -33.88202646115104 0.9157781291676343 0 0 0
6983 1 16.49914753508527 -33.88202646115104 -1.572511917632365 0 0 0
6984 1 18.65158142108526 -33.88227495015106 2.159923152567634 0 0 0
6985 1 17.93548531058527 -31.84864097415105 3.404098035567635 0 0 0
6986 1 17.93548531058527 -31.84864097415105 0.9157930589676351 0 0 0
6987 1 -19.37169352751496 -29.81500699815105 5.892388082367635 1 0 0
6988 1 -19.37169352751496 -29.81500699815105 3.404083105767635 1 0 0
6989 1 15.06284850308527 -35.91566043715106 -6.549141279572366 0 0 0
6990 1 17.21528238908527 -35.91590892615105 -5.304991777232366 0 0 0
6991 1 18.65158142108526 -33.88227495015106 -5.304976847432366 0 0 0
6992 1 16.49914753508527 -33.88202646115104 -4.060816894232365 0 0 0
6993 1 16.49914753508527 -33.88202646115104 -6.549118884872366 0 0 0
6994 1 18.65158142108526 -33.88227495015106 -2.816686800632366 0 0 0
6995 1 17.93548531058527 -31.84864097415105 -1.572511917632365 0 0 0
6996 1 17.93548531058527 -31.84864097415105 -4.060801964432367 0 0 0
6997 1 -19.37169352751496 -29.81500699815105 0.9157781291676343 1 0 0
6998 1 -19.37169352751496 -29.81500699815105 -1.572511917632365 1 0 0
6999 1 17.93548531058527 -31.84864097415105 -6.549106941032366 0 0 0
7000 1 -19.37169352751496 -29.81500699815105 -4.060816894232365 1 0 0
7001 1 -19.37169352751496 -29.81500699815105 -6.549118884872366 1 0 0
7002 1 10.03781655308527 -39.98317687815104 4.648153480167634 0 0 0
7003 1 7.88542141058527 -39.98317687815104 5.892298503567634 0 0 0
7004 1 7.88542141058527 -39.98317687815104 3.403993526967634 0 0 0
7005 1 10.03781655308527 -39.98317687815104 7.136458456767635 0 0 0
7006 1 11.47411558508527 -37.94929441315105 7.136473386567635 0 0 0
7007 1 9.321720442585267 -37.94929441315105 5.892313433367635 0 0 0
7008 1 10.03781655308527 -39.98317687815104 -0.3284415432323664 0 0 0
7009 1 7.88542141058527 -39.98317687815104 0.9157034801676343 0 0 0
7010 1 7.88542141058527 -39.98317687815104 -1.572601496432365 0 0 0
7011 1 10.03781655308527 -39.98317687815104 2.159863433367635 0 0 0
7012 1 11.47411558508527 -37.94929441315105 2.159878363167635 0 0 0
7013 1 9.321720442585267 -37.94929441315105 3.404008456767635 0 0 0
7014 1 9.321720442585267 -37.94929441315105 0.915718409967635 0 0 0
7015 1 11.47411558508527 -37.94929441315105 4.648183339767634 0 0 0
7016 1 12.91041461708527 -35.91566043715106 4.648198269567633 0 0 0
7017 1 10.75801947458527 -35.91566043715106 5.892343292967634 0 0 0
7018 1 10.75801947458527 -35.91566043715106 3.404038316367634 0 0 0
7019 1 12.91041461708527 -35.91566043715106 7.136503246167633 0 0 0
7020 1 14.34671364908527 -33.88202646115104 7.136533105767635 0 0 0
7021 1 12.19431850658527 -33.88202646115104 5.892373152567634 0 0 0
7022 1 10.03781655308527 -39.98317687815104 -5.305036566632365 0 0 0
7023 1 7.88542141058527 -39.98317687815104 -4.060906473032365 0 0 0
7024 1 7.88542141058527 -39.98317687815104 -6.549202491752366 0 0 0
7025 1 10.03781655308527 -39.98317687815104 -2.816746519832365 0 0 0
7026 1 11.47411558508527 -37.94929441315105 -2.816716660232366 0 0 0
7027 1 9.321720442585267 -37.94929441315105 -1.572586566632366 0 0 0
7028 1 9.321720442585267 -37.94929441315105 -4.060891543232366 0 0 0
7029 1 11.47411558508527 -37.94929441315105 -0.3284266134323657 0 0 0
7030 1 12.91041461708527 -35.91566043715106 -0.3283967538323651 0 0 0
7031 1 10.75801947458527 -35.91566043715106 0.9157333397676339 0 0 0
7032 1 10.75801947458527 -35.91566043715106 -1.572556707032366 0 0 0
7033 1 12.91041461708527 -35.91566043715106 2.159908222767633 0 0 0
7034 1 14.34671364908527 -33.88202646115104 2.159938082367635 0 0 0
7035 1 12.19431850658527 -33.88202646115104 3.404068175967634 0 0 0
7036 1 12.19431850658527 -33.88202646115104 0.9157781291676343 0 0 0
7037 1 14.34671364908527 -33.88202646115104 4.648228129167634 0 0 0
7038 1 15.78305142458527 -31.84839248515105 4.648257988767634 0 0 0
7039 1 13.63061753858527 -31.84839248515105 5.892417941967635 0 0 0
7040 1 13.63061753858527 -31.84839248515105 3.404112965367634 0 0 0
7041 1 15.78305142458527 -31.84839248515105 7.136562965367634 0 0 0
7042 1 17.21935045658527 -29.81475850915105 7.136577895167635 0 0 0
7043 1 15.06691657058527 -29.81475850915105 5.892447801567634 0 0 0
7044 1 9.321720442585267 -37.94929441315105 -6.549187561952365 0 0 0
7045 1 11.47411558508527 -37.94929441315105 -5.305021636832366 0 0 0
7046 1 12.91041461708527 -35.91566043715106 -5.304991777232366 0 0 0
7047 1 10.75801947458527 -35.91566043715106 -4.060861683632366 0 0 0
7048 1 10.75801947458527 -35.91566043715106 -6.549160688312366 0 0 0
7049 1 12.91041461708527 -35.91566043715106 -2.816701730432365 0 0 0
7050 1 14.34671364908527 -33.88202646115104 -2.816671870832366 0 0 0
7051 1 12.19431850658527 -33.88202646115104 -1.572526847432366 0 0 0
7052 1 12.19431850658527 -33.88202646115104 -4.060831824032366 0 0 0
7053 1 14.34671364908527 -33.88202646115104 -0.3283668942323654 0 0 0
7054 1 15.78305142458527 -31.84839248515105 -0.3283370346323657 0 0 0
7055 1 13.63061753858527 -31.84839248515105 0.9158229185676348 0 0 0
7056 1 13.63061753858527 -31.84839248515105 -1.572482058032366 0 0 0
7057 1 15.78305142458527 -31.84839248515105 2.159967941967635 0 0 0
7058 1 17.21935045658527 -29.81475850915105 2.159967941967635 0 0 0
7059 1 15.06691657058527 -29.81475850915105 3.404157754767635 0 0 0
7060 1 15.06691657058527 -29.81475850915105 0.9158527781676344 0 0 0
7061 1 17.21935045658527 -29.81475850915105 4.648272918567635 0 0 0
7062 1 18.65568823208527 -27.78137302215104 4.648243058967635 0 0 0
7063 1 16.50321560258527 -27.78112453315104 5.892462731367633 0 0 0
7064 1 16.50321560258527 -27.78112453315104 3.404157754767635 0 0 0
7065 1 18.65568823208527 -27.78137302215104 7.136548035567635 0 0 0
7066 1 12.19431850658527 -33.88202646115104 -6.549124856792366 0 0 0
7067 1 14.34671364908527 -33.88202646115104 -5.304961917632365 0 0 0
7068 1 15.78305142458527 -31.84839248515105 -5.304932058032366 0 0 0
7069 1 13.63061753858527 -31.84839248515105 -4.060787034632366 0 0 0
7070 1 13.63061753858527 -31.84839248515105 -6.549083053352366 0 0 0
7071 1 15.78305142458527 -31.84839248515105 -2.816642011232366 0 0 0
7072 1 17.21935045658527 -29.81475850915105 -2.816627081432366 0 0 0
7073 1 15.06691657058527 -29.81475850915105 -1.572452198432365 0 0 0
7074 1 15.06691657058527 -29.81475850915105 -4.060742245232365 0 0 0
7075 1 17.21935045658527 -29.81475850915105 -0.3283221048323659 0 0 0
7076 1 18.65568823208527 -27.78137302215104 -0.3283519644323656 0 0 0
7077 1 16.50321560258527 -27.78112453315104 0.9158677079676334 0 0 0
7078 1 16.50321560258527 -27.78112453315104 -1.572437268632366 0 0 0
7079 1 18.65568823208527 -27.78137302215104 2.159953012167636 0 0 0
7080 1 15.06691657058527 -29.81475850915105 -6.549047221832366 0 0 0
7081 1 17.21935045658527 -29.81475850915105 -5.304932058032366 0 0 0
7082 1 18.65568823208527 -27.78137302215104 -5.304946987832366 0 0 0
7083 1 16.50321560258527 -27.78112453315104 -4.060742245232365 0 0 0
7084 1 16.50321560258527 -27.78112453315104 -6.549038263952366 0 0 0
7085 1 18.65568823208527 -27.78137302215104 -2.816656941032366 0 0 0
7086 1 5.732987524585273 -39.98317687815104 7.136443526967634 0 0 0
7087 1 3.580592382085271 -39.98317687815104 5.892283573767635 0 0 0
7088 1 5.732987524585273 -39.98317687815104 2.159833573767635 0 0 0
7089 1 3.580592382085271 -39.98317687815104 3.403978597167635 0 0 0
7090 1 3.580592382085271 -39.98317687815104 0.9156736205676346 0 0 0
7091 1 5.732987524585273 -39.98317687815104 4.648138550367635 0 0 0
7092 1 7.169325300085273 -37.94954290215105 4.648153480167634 0 0 0
7093 1 5.016891414085269 -37.94954290215105 5.892283573767635 0 0 0
7094 1 5.016891414085269 -37.94954290215105 3.403978597167635 0 0 0
7095 1 7.169325300085273 -37.94954290215105 7.136443526967634 0 0 0
7096 1 8.60562433208527 -35.91566043715106 7.136473386567635 0 0 0
7097 1 6.453229189585272 -35.91566043715106 5.892298503567634 0 0 0
7098 1 5.732987524585273 -39.98317687815104 -2.816761449632366 0 0 0
7099 1 3.580592382085271 -39.98317687815104 -1.572616426232366 0 0 0
7100 1 3.580592382085271 -39.98317687815104 -4.060921402832365 0 0 0
7101 1 5.732987524585273 -39.98317687815104 -0.3284564730323654 0 0 0
7102 1 7.169325300085273 -37.94954290215105 -0.3284564730323654 0 0 0
7103 1 5.016891414085269 -37.94954290215105 0.9156885503676353 0 0 0
7104 1 5.016891414085269 -37.94954290215105 -1.572616426232366 0 0 0
7105 1 7.169325300085273 -37.94954290215105 2.159848503567634 0 0 0
7106 1 8.60562433208527 -35.91566043715106 2.159878363167635 0 0 0
7107 1 6.453229189585272 -35.91566043715106 3.403993526967634 0 0 0
7108 1 6.453229189585272 -35.91566043715106 0.9157034801676343 0 0 0
7109 1 8.60562433208527 -35.91566043715106 4.648168409967635 0 0 0
7110 1 10.04192336408527 -33.88202646115104 4.648213199367634 0 0 0
7111 1 7.88952822158527 -33.88202646115104 5.892328363167636 0 0 0
7112 1 7.88952822158527 -33.88202646115104 3.404038316367634 0 0 0
7113 1 10.04192336408527 -33.88202646115104 7.136503246167633 0 0 0
7114 1 11.47822239608527 -31.84839248515105 7.136562965367634 0 0 0
7115 1 9.32582725358527 -31.84839248515105 5.892388082367635 0 0 0
7116 1 3.580592382085271 -39.98317687815104 -6.549220407512366 0 0 0
7117 1 5.732987524585273 -39.98317687815104 -5.305066426232366 0 0 0
7118 1 7.169325300085273 -37.94954290215105 -5.305051496432366 0 0 0
7119 1 5.016891414085269 -37.94954290215105 -4.060921402832365 0 0 0
7120 1 5.016891414085269 -37.94954290215105 -6.549215928572366 0 0 0
7121 1 7.169325300085273 -37.94954290215105 -2.816746519832365 0 0 0
7122 1 8.60562433208527 -35.91566043715106 -2.816731590032366 0 0 0
7123 1 6.453229189585272 -35.91566043715106 -1.572601496432365 0 0 0
7124 1 6.453229189585272 -35.91566043715106 -4.060906473032365 0 0 0
7125 1 8.60562433208527 -35.91566043715106 -0.3284266134323657 0 0 0
7126 1 10.04192336408527 -33.88202646115104 -0.3283967538323651 0 0 0
7127 1 7.88952822158527 -33.88202646115104 0.9157333397676339 0 0 0
7128 1 7.88952822158527 -33.88202646115104 -1.572571636832365 0 0 0
7129 1 10.04192336408527 -33.88202646115104 2.159908222767633 0 0 0
7130 1 11.47822239608527 -31.84839248515105 2.159953012167636 0 0 0
7131 1 9.32582725358527 -31.84839248515105 3.404083105767635 0 0 0
7132 1 9.32582725358527 -31.84839248515105 0.9157930589676351 0 0 0
7133 1 11.47822239608527 -31.84839248515105 4.648257988767634 0 0 0
7134 1 12.91448268458527 -29.81451002015106 4.648317707967633 0 0 0
7135 1 10.76208754208527 -29.81451002015106 5.892462731367633 0 0 0
7136 1 10.76208754208527 -29.81451002015106 3.404157754767635 0 0 0
7137 1 12.91448268458527 -29.81451002015106 7.136607754767635 0 0 0
7138 1 14.35078171658527 -27.78087604415104 7.136652544167635 0 0 0
7139 1 12.19838657408527 -27.78087604415104 5.892537380367633 0 0 0
7140 1 6.453229189585272 -35.91566043715106 -6.549199505792366 0 0 0
7141 1 8.60562433208527 -35.91566043715106 -5.305021636832366 0 0 0
7142 1 10.04192336408527 -33.88202646115104 -5.304991777232366 0 0 0
7143 1 7.88952822158527 -33.88202646115104 -4.060861683632366 0 0 0
7144 1 7.88952822158527 -33.88202646115104 -6.549166660232366 0 0 0
7145 1 10.04192336408527 -33.88202646115104 -2.816686800632366 0 0 0
7146 1 11.47822239608527 -31.84839248515105 -2.816642011232366 0 0 0
7147 1 9.32582725358527 -31.84839248515105 -1.572511917632365 0 0 0
7148 1 9.32582725358527 -31.84839248515105 -4.060816894232365 0 0 0
7149 1 11.47822239608527 -31.84839248515105 -0.3283370346323657 0 0 0
7150 1 12.91448268458527 -29.81451002015106 -0.3282922452323662 0 0 0
7151 1 10.76208754208527 -29.81451002015106 0.9158527781676344 0 0 0
7152 1 10.76208754208527 -29.81451002015106 -1.572437268632366 0 0 0
7153 1 12.91448268458527 -29.81451002015106 2.160012731367633 0 0 0
7154 1 14.35078171658527 -27.78087604415104 2.160057520767635 0 0 0
7155 1 12.19838657408527 -27.78087604415104 3.404232403767633 0 0 0
7156 1 12.19838657408527 -27.78087604415104 0.9159274271676345 0 0 0
7157 1 14.35078171658527 -27.78087604415104 4.648362497367636 0 0 0
7158 1 9.32582725358527 -31.84839248515105 -6.549112912952365 0 0 0
7159 1 11.47822239608527 -31.84839248515105 -5.304946987832366 0 0 0
7160 1 12.91448268458527 -29.81451002015106 -5.304887268632365 0 0 0
7161 1 10.76208754208527 -29.81451002015106 -4.060742245232365 0 0 0
7162 1 10.76208754208527 -29.81451002015106 -6.549042742892365 0 0 0
7163 1 12.91448268458527 -29.81451002015106 -2.816582292032366 0 0 0
7164 1 14.35078171658527 -27.78087604415104 -2.816537502632366 0 0 0
7165 1 12.19838657408527 -27.78087604415104 -1.572362619632366 0 0 0
7166 1 12.19838657408527 -27.78087604415104 -4.060667596232365 0 0 0
7167 1 14.35078171658527 -27.78087604415104 -0.3282474558323649 0 0 0
7168 1 12.19838657408527 -27.78087604415104 -6.548969586872365 0 0 0
7169 1 14.35078171658527 -27.78087604415104 -5.304842479232366 0 0 0
7170 1 1.42819723958527 -39.98317687815104 4.648123620567635 0 0 0
7171 1 1.42819723958527 -39.98317687815104 7.136428597167635 0 0 0
7172 1 2.864496271585271 -37.94954290215105 7.136428597167635 0 0 0
7173 1 0.7121011290852692 -37.94954290215105 5.892268643967634 0 0 0
7174 1 1.42819723958527 -39.98317687815104 -0.3284714028323661 0 0 0
7175 1 1.42819723958527 -39.98317687815104 2.159818643967634 0 0 0
7176 1 2.864496271585271 -37.94954290215105 2.159818643967634 0 0 0
7177 1 0.7121011290852692 -37.94954290215105 3.403963667367634 0 0 0
7178 1 0.7121011290852692 -37.94954290215105 0.9156586907676338 0 0 0
7179 1 2.864496271585271 -37.94954290215105 4.648123620567635 0 0 0
7180 1 4.300834047085271 -35.91566043715106 4.648123620567635 0 0 0
7181 1 2.148400161085267 -35.91590892615105 5.892268643967634 0 0 0
7182 1 2.148400161085267 -35.91590892615105 3.403963667367634 0 0 0
7183 1 4.300834047085271 -35.91566043715106 7.136428597167635 0 0 0
7184 1 5.737133079085268 -33.88202646115104 7.136458456767635 0 0 0
7185 1 3.58473793658527 -33.88202646115104 5.892268643967634 0 0 0
7186 1 1.42819723958527 -39.98317687815104 -5.305081356032366 0 0 0
7187 1 1.42819723958527 -39.98317687815104 -2.816776379432365 0 0 0
7188 1 2.864496271585271 -37.94954290215105 -2.816776379432365 0 0 0
7189 1 0.7121011290852692 -37.94954290215105 -1.572631356032366 0 0 0
7190 1 0.7121011290852692 -37.94954290215105 -4.060936332632366 0 0 0
7191 1 2.864496271585271 -37.94954290215105 -0.3284714028323661 0 0 0
7192 1 4.300834047085271 -35.91566043715106 -0.3284714028323661 0 0 0
7193 1 2.148400161085267 -35.91590892615105 0.9156586907676338 0 0 0
7194 1 2.148400161085267 -35.91590892615105 -1.572631356032366 0 0 0
7195 1 4.300834047085271 -35.91566043715106 2.159833573767635 0 0 0
7196 1 5.737133079085268 -33.88202646115104 2.159848503567634 0 0 0
7197 1 3.58473793658527 -33.88202646115104 3.403978597167635 0 0 0
7198 1 3.58473793658527 -33.88202646115104 0.9156736205676346 0 0 0
7199 1 5.737133079085268 -33.88202646115104 4.648153480167634 0 0 0
7200 1 7.173432111085269 -31.84839248515105 4.648198269567633 0 0 0
7201 1 5.021036968585268 -31.84839248515105 5.892313433367635 0 0 0
7202 1 5.021036968585268 -31.84839248515105 3.404008456767635 0 0 0
7203 1 7.173432111085269 -31.84839248515105 7.136503246167633 0 0 0
7204 1 8.60973114308527 -29.81451002015106 7.136577895167635 0 0 0
7205 1 6.457336000585268 -29.81451002015106 5.892388082367635 0 0 0
7206 1 0.7121011290852692 -37.94954290215105 -6.549235337312366 0 0 0
7207 1 2.864496271585271 -37.94954290215105 -5.305081356032366 0 0 0
7208 1 4.300834047085271 -35.91566043715106 -5.305066426232366 0 0 0
7209 1 2.148400161085267 -35.91590892615105 -4.060936332632366 0 0 0
7210 1 2.148400161085267 -35.91590892615105 -6.549236830292366 0 0 0
7211 1 4.300834047085271 -35.91566043715106 -2.816776379432365 0 0 0
7212 1 5.737133079085268 -33.88202646115104 -2.816746519832365 0 0 0
7213 1 3.58473793658527 -33.88202646115104 -1.572631356032366 0 0 0
7214 1 3.58473793658527 -33.88202646115104 -4.060921402832365 0 0 0
7215 1 5.737133079085268 -33.88202646115104 -0.3284415432323664 0 0 0
7216 1 7.173432111085269 -31.84839248515105 -0.3283967538323651 0 0 0
7217 1 5.021036968585268 -31.84839248515105 0.915718409967635 0 0 0
7218 1 5.021036968585268 -31.84839248515105 -1.572586566632366 0 0 0
7219 1 7.173432111085269 -31.84839248515105 2.159908222767633 0 0 0
7220 1 8.60973114308527 -29.81451002015106 2.159982871767633 0 0 0
7221 1 6.457336000585268 -29.81451002015106 3.404083105767635 0 0 0
7222 1 6.457336000585268 -29.81451002015106 0.9157781291676343 0 0 0
7223 1 8.60973114308527 -29.81451002015106 4.648272918567635 0 0 0
7224 1 10.04599143158527 -27.78087604415104 4.648377427167635 0 0 0
7225 1 7.893635032585269 -27.78087604415104 5.892492590967635 0 0 0
7226 1 7.893635032585269 -27.78087604415104 3.404187614367634 0 0 0
7227 1 10.04599143158527 -27.78087604415104 7.136682403767633 0 0 0
7228 1 3.58473793658527 -33.88202646115104 -6.549223393472365 0 0 0
7229 1 5.737133079085268 -33.88202646115104 -5.305051496432366 0 0 0
7230 1 7.173432111085269 -31.84839248515105 -5.304991777232366 0 0 0
7231 1 5.021036968585268 -31.84839248515105 -4.060891543232366 0 0 0
7232 1 5.021036968585268 -31.84839248515105 -6.549187561952365 0 0 0
7233 1 7.173432111085269 -31.84839248515105 -2.816701730432365 0 0 0
7234 1 8.60973114308527 -29.81451002015106 -2.816627081432366 0 0 0
7235 1 6.457336000585268 -29.81451002015106 -1.572511917632365 0 0 0
7236 1 6.457336000585268 -29.81451002015106 -4.060816894232365 0 0 0
7237 1 8.60973114308527 -29.81451002015106 -0.3283221048323659 0 0 0
7238 1 10.04599143158527 -27.78087604415104 -0.3282175962323652 0 0 0
7239 1 7.893635032585269 -27.78087604415104 0.9158975675676349 0 0 0
7240 1 7.893635032585269 -27.78087604415104 -1.572407409032365 0 0 0
7241 1 10.04599143158527 -27.78087604415104 2.160072450567634 0 0 0
7242 1 6.457336000585268 -29.81451002015106 -6.549115898912365 0 0 0
7243 1 8.60973114308527 -29.81451002015106 -5.304917128232366 0 0 0
7244 1 10.04599143158527 -27.78087604415104 -5.304827549432366 0 0 0
7245 1 7.893635032585269 -27.78087604415104 -4.060712385632366 0 0 0
7246 1 7.893635032585269 -27.78087604415104 -6.549008404352366 0 0 0
7247 1 10.04599143158527 -27.78087604415104 -2.816522572832366 0 0 0
7248 1 -0.003994981414731313 -35.91590892615105 7.136398737567633 0 0 0
7249 1 -0.003994981414731313 -35.91590892615105 2.159803714167634 0 0 0
7250 1 -0.003994981414731313 -35.91590892615105 4.648093760967633 0 0 0
7251 1 1.432304050585273 -33.88227495015106 4.648093760967633 0 0 0
7252 1 1.432304050585273 -33.88227495015106 7.136398737567633 0 0 0
7253 1 2.868641826085273 -31.84839248515105 7.136428597167635 0 0 0
7254 1 0.7162466835852719 -31.84839248515105 5.892238784367633 0 0 0
7255 1 -0.003994981414731313 -35.91590892615105 -2.816806239032365 0 0 0
7256 1 -0.003994981414731313 -35.91590892615105 -0.3285012624323658 0 0 0
7257 1 1.432304050585273 -33.88227495015106 -0.3285012624323658 0 0 0
7258 1 1.432304050585273 -33.88227495015106 2.159803714167634 0 0 0
7259 1 2.868641826085273 -31.84839248515105 2.159818643967634 0 0 0
7260 1 0.7162466835852719 -31.84839248515105 3.403933807767634 0 0 0
7261 1 0.7162466835852719 -31.84839248515105 0.9156288311676359 0 0 0
7262 1 2.868641826085273 -31.84839248515105 4.648123620567635 0 0 0
7263 1 4.304940858085271 -29.81475850915105 4.648183339767634 0 0 0
7264 1 2.152545715585273 -29.81475850915105 5.892268643967634 0 0 0
7265 1 2.152545715585273 -29.81475850915105 3.403963667367634 0 0 0
7266 1 4.304940858085271 -29.81475850915105 7.136473386567635 0 0 0
7267 1 5.741239890085271 -27.78087604415104 7.136577895167635 0 0 0
7268 1 3.588883491085273 -27.78112453315104 5.892358222767633 0 0 0
7269 1 -0.003994981414731313 -35.91590892615105 -5.305096285832366 0 0 0
7270 1 1.432304050585273 -33.88227495015106 -5.305096285832366 0 0 0
7271 1 1.432304050585273 -33.88227495015106 -2.816806239032365 0 0 0
7272 1 2.868641826085273 -31.84839248515105 -2.816776379432365 0 0 0
7273 1 0.7162466835852719 -31.84839248515105 -1.572661215632365 0 0 0
7274 1 0.7162466835852719 -31.84839248515105 -4.060966192232366 0 0 0
7275 1 2.868641826085273 -31.84839248515105 -0.3284714028323661 0 0 0
7276 1 4.304940858085271 -29.81475850915105 -0.3284266134323657 0 0 0
7277 1 2.152545715585273 -29.81475850915105 0.9156736205676346 0 0 0
7278 1 2.152545715585273 -29.81475850915105 -1.572631356032366 0 0 0
7279 1 4.304940858085271 -29.81475850915105 2.159878363167635 0 0 0
7280 1 5.741239890085271 -27.78087604415104 2.159982871767633 0 0 0
7281 1 3.588883491085273 -27.78112453315104 3.404053246167633 0 0 0
7282 1 3.588883491085273 -27.78112453315104 0.9157482695676329 0 0 0
7283 1 5.741239890085271 -27.78087604415104 4.648287848367634 0 0 0
7284 1 0.7162466835852719 -31.84839248515105 -6.549265196912366 0 0 0
7285 1 2.868641826085273 -31.84839248515105 -5.305081356032366 0 0 0
7286 1 4.304940858085271 -29.81475850915105 -5.305021636832366 0 0 0
7287 1 2.152545715585273 -29.81475850915105 -4.060936332632366 0 0 0
7288 1 2.152545715585273 -29.81475850915105 -6.549232351352366 0 0 0
7289 1 4.304940858085271 -29.81475850915105 -2.816716660232366 0 0 0
7290 1 5.741239890085271 -27.78087604415104 -2.816612151632365 0 0 0
7291 1 3.588883491085273 -27.78112453315104 -1.572541777232366 0 0 0
7292 1 3.588883491085273 -27.78112453315104 -4.060846753832365 0 0 0
7293 1 5.741239890085271 -27.78087604415104 -0.3283221048323659 0 0 0
7294 1 3.588883491085273 -27.78112453315104 -6.549147251492366 0 0 0
7295 1 5.741239890085271 -27.78087604415104 -5.304917128232366 0 0 0
7296 1 0.0001505730852713327 -29.81475850915105 7.136368877967636 0 0 0
7297 1 0.0001505730852713327 -29.81475850915105 2.159758924767635 0 0 0
7298 1 0.0001505730852713327 -29.81475850915105 4.648063901367635 0 0 0
7299 1 1.436488348585272 -27.78112453315104 4.648123620567635 0 0 0
7300 1 1.436488348585272 -27.78112453315104 7.136413667367634 0 0 0
7301 1 0.0001505730852713327 -29.81475850915105 -2.816836098632366 0 0 0
7302 1 0.0001505730852713327 -29.81475850915105 -0.3285311220323663 0 0 0
7303 1 1.436488348585272 -27.78112453315104 -0.3284863326323659 0 0 0
7304 1 1.436488348585272 -27.78112453315104 2.159818643967634 0 0 0
7305 1 0.0001505730852713327 -29.81475850915105 -5.305141075232365 0 0 0
7306 1 1.436488348585272 -27.78112453315104 -5.305081356032366 0 0 0
7307 1 1.436488348585272 -27.78112453315104 -2.816776379432365 0 0 0
7308 1 17.93955337808527 -25.74749055715105 5.892417941967635 0 0 0
7309 1 17.93955337808527 -25.74749055715105 3.404112965367634 0 0 0
7310 1 17.93955337808527 -25.74749055715105 0.9158229185676348 0 0 0
7311 1 -19.36758854482073 -23.71410507015105 5.892298503567634 1 0 0
7312 1 -19.36758854482073 -23.71410507015105 3.404008456767635 1 0 0
7313 1 17.93955337808527 -25.74749055715105 -1.572482058032366 0 0 0
7314 1 17.93955337808527 -25.74749055715105 -4.060787034632366 0 0 0
7315 1 -19.36758854482073 -23.71410507015105 0.9157034801676343 1 0 0
7316 1 -19.36758854482073 -23.71410507015105 -1.572601496432365 1 0 0
7317 1 17.93955337808527 -25.74749055715105 -6.549080067392365 0 0 0
7318 1 -19.36758854482073 -23.71410507015105 -4.060891543232366 1 0 0
7319 1 -19.36758854482073 -23.71410507015105 -6.549195026852366 1 0 0
7320 1 15.78711949208527 -25.74749055715105 4.648362497367636 0 0 0
7321 1 13.63468560608527 -25.74724206815104 5.892582169767634 0 0 0
7322 1 13.63468560608527 -25.74724206815104 3.404277193167635 0 0 0
7323 1 15.78711949208527 -25.74749055715105 7.136652544167635 0 0 0
7324 1 17.22341852408527 -23.71385658115105 7.136592824967634 0 0 0
7325 1 15.07094589458527 -23.71360809215105 5.892567239967635 0 0 0
7326 1 15.78711949208527 -25.74749055715105 -0.3282474558323649 0 0 0
7327 1 13.63468560608527 -25.74724206815104 0.9159722165676349 0 0 0
7328 1 13.63468560608527 -25.74724206815104 -1.572317830232365 0 0 0
7329 1 15.78711949208527 -25.74749055715105 2.160057520767635 0 0 0
7330 1 17.22341852408527 -23.71385658115105 2.159982871767633 0 0 0
7331 1 15.07094589458527 -23.71360809215105 3.404262263367634 0 0 0
7332 1 15.07094589458527 -23.71360809215105 0.9159572867676342 0 0 0
7333 1 17.22341852408527 -23.71385658115105 4.648287848367634 0 0 0
7334 1 18.65975629958527 -21.68047109415105 4.648123620567635 0 0 0
7335 1 16.50728367008527 -21.68022260515106 5.892447801567634 0 0 0
7336 1 16.50728367008527 -21.68022260515106 3.404142824967634 0 0 0
7337 1 18.65975629958527 -21.68047109415105 7.136428597167635 0 0 0
7338 1 17.94362144558527 -19.64683711815105 5.892223854567636 0 0 0
7339 1 15.78711949208527 -25.74749055715105 -5.304842479232366 0 0 0
7340 1 13.63468560608527 -25.74724206815104 -4.060622806832366 0 0 0
7341 1 13.63468560608527 -25.74724206815104 -6.548921811512366 0 0 0
7342 1 15.78711949208527 -25.74749055715105 -2.816537502632366 0 0 0
7343 1 17.22341852408527 -23.71385658115105 -2.816612151632365 0 0 0
7344 1 15.07094589458527 -23.71360809215105 -1.572332760032366 0 0 0
7345 1 15.07094589458527 -23.71360809215105 -4.060637736632366 0 0 0
7346 1 17.22341852408527 -23.71385658115105 -0.3283071750323652 0 0 0
7347 1 18.65975629958527 -21.68047109415105 -0.3284714028323661 0 0 0
7348 1 16.50728367008527 -21.68022260515106 0.9158527781676344 0 0 0
7349 1 16.50728367008527 -21.68022260515106 -1.572452198432365 0 0 0
7350 1 18.65975629958527 -21.68047109415105 2.159818643967634 0 0 0
7351 1 17.94362144558527 -19.64683711815105 3.403933807767634 0 0 0
7352 1 17.94362144558527 -19.64683711815105 0.9156288311676359 0 0 0
7353 1 -19.36349231079623 -17.61370012015105 5.891910328767635 1 0 0
7354 1 -19.36349231079623 -17.61370012015105 3.403605352167634 1 0 0
7355 1 15.07094589458527 -23.71360809215105 -6.548938234292366 0 0 0
7356 1 17.22341852408527 -23.71385658115105 -5.304917128232366 0 0 0
7357 1 18.65975629958527 -21.68047109415105 -5.305081356032366 0 0 0
7358 1 16.50728367008527 -21.68022260515106 -4.060757175032366 0 0 0
7359 1 16.50728367008527 -21.68022260515106 -6.549051700772366 0 0 0
7360 1 18.65975629958527 -21.68047109415105 -2.816776379432365 0 0 0
7361 1 17.94362144558527 -19.64683711815105 -1.572676145432366 0 0 0
7362 1 17.94362144558527 -19.64683711815105 -4.060966192232366 0 0 0
7363 1 -19.36349231079623 -17.61370012015105 0.9153003755676341 1 0 0
7364 1 -19.36349231079623 -17.61370012015105 -1.572989671232365 1 0 0
7365 1 17.94362144558527 -19.64683711815105 -6.549272661812366 0 0 0
7366 1 -19.36349231079623 -17.61370012015105 -4.061294647832366 1 0 0
7367 1 -19.36349231079623 -17.61370012015105 -6.549592159532366 1 0 0
7368 1 11.48225172008527 -25.74699357915105 7.136771982567636 0 0 0
7369 1 9.329895321085271 -25.74699357915105 5.892626959167634 0 0 0
7370 1 11.48225172008527 -25.74699357915105 2.160176959167634 0 0 0
7371 1 9.329895321085271 -25.74699357915105 3.404321982567636 0 0 0
7372 1 9.329895321085271 -25.74699357915105 0.9160170059676354 0 0 0
7373 1 11.48225172008527 -25.74699357915105 4.648467005967635 0 0 0
7374 1 12.91855075208527 -23.71335960315105 4.648511795367634 0 0 0
7375 1 10.76615560958527 -23.71335960315105 5.892746397567635 0 0 0
7376 1 10.76615560958527 -23.71335960315105 3.404441420967634 0 0 0
7377 1 12.91855075208527 -23.71335960315105 7.136816771967634 0 0 0
7378 1 14.35481104058527 -21.67997411615104 7.136771982567636 0 0 0
7379 1 12.20241589808527 -21.67972562715106 5.892776257167634 0 0 0
7380 1 11.48225172008527 -25.74699357915105 -2.816432994032366 0 0 0
7381 1 9.329895321085271 -25.74699357915105 -1.572273040832366 0 0 0
7382 1 9.329895321085271 -25.74699357915105 -4.060578017432366 0 0 0
7383 1 11.48225172008527 -25.74699357915105 -0.3281280174323662 0 0 0
7384 1 12.91855075208527 -23.71335960315105 -0.3280832280323658 0 0 0
7385 1 10.76615560958527 -23.71335960315105 0.9161364443676341 0 0 0
7386 1 10.76615560958527 -23.71335960315105 -1.572153602432365 0 0 0
7387 1 12.91855075208527 -23.71335960315105 2.160221748567634 0 0 0
7388 1 14.35481104058527 -21.67997411615104 2.160176959167634 0 0 0
7389 1 12.20241589808527 -21.67972562715106 3.404486210367635 0 0 0
7390 1 12.20241589808527 -21.67972562715106 0.9161812337676345 0 0 0
7391 1 14.35481104058527 -21.67997411615104 4.648467005967635 0 0 0
7392 1 15.79111007258527 -19.64634014015105 4.648287848367634 0 0 0
7393 1 13.63867618658527 -19.64609165115104 5.892671748567635 0 0 0
7394 1 13.63867618658527 -19.64609165115104 3.404366771967634 0 0 0
7395 1 15.79111007258527 -19.64634014015105 7.136592824967634 0 0 0
7396 1 17.22740910458527 -17.61320314215105 7.136309158767634 0 0 0
7397 1 15.07493647508527 -17.61245767515105 5.892403012167636 0 0 0
7398 1 9.329895321085271 -25.74699357915105 -6.548875529132366 0 0 0
7399 1 11.48225172008527 -25.74699357915105 -5.304723040832366 0 0 0
7400 1 12.91855075208527 -23.71335960315105 -5.304678251432366 0 0 0
7401 1 10.76615560958527 -23.71335960315105 -4.060458579032366 0 0 0
7402 1 10.76615560958527 -23.71335960315105 -6.548757583712366 0 0 0
7403 1 12.91855075208527 -23.71335960315105 -2.816388204632366 0 0 0
7404 1 14.35481104058527 -21.67997411615104 -2.816432994032366 0 0 0
7405 1 12.20241589808527 -21.67972562715106 -1.572123742832366 0 0 0
7406 1 12.20241589808527 -21.67972562715106 -4.060413789632365 0 0 0
7407 1 14.35481104058527 -21.67997411615104 -0.3281280174323662 0 0 0
7408 1 15.79111007258527 -19.64634014015105 -0.3283071750323652 0 0 0
7409 1 13.63867618658527 -19.64609165115104 0.9160767251676347 0 0 0
7410 1 13.63867618658527 -19.64609165115104 -1.572228251432366 0 0 0
7411 1 15.79111007258527 -19.64634014015105 2.159997801567634 0 0 0
7412 1 17.22740910458527 -17.61320314215105 2.159714135367635 0 0 0
7413 1 15.07493647508527 -17.61245767515105 3.404112965367634 0 0 0
7414 1 15.07493647508527 -17.61245767515105 0.915807988767634 0 0 0
7415 1 17.22740910458527 -17.61320314215105 4.648004182167634 0 0 0
7416 1 18.66378562358527 -15.58006614415106 4.647660796767635 0 0 0
7417 1 16.51123550708527 -15.57932067715105 5.892089486367635 0 0 0
7418 1 16.51123550708527 -15.57932067715105 3.403784509767634 0 0 0
7419 1 18.66378562358527 -15.58006614415106 7.135950843567635 0 0 0
7420 1 17.94749579558527 -13.54618367915106 5.891775960567633 0 0 0
7421 1 12.20241589808527 -21.67972562715106 -6.548720259212366 0 0 0
7422 1 14.35481104058527 -21.67997411615104 -5.304723040832366 0 0 0
7423 1 15.79111007258527 -19.64634014015105 -5.304902198432366 0 0 0
7424 1 13.63867618658527 -19.64609165115104 -4.060533228032366 0 0 0
7425 1 13.63867618658527 -19.64609165115104 -6.548827753772366 0 0 0
7426 1 15.79111007258527 -19.64634014015105 -2.816612151632365 0 0 0
7427 1 17.22740910458527 -17.61320314215105 -2.816895817832365 0 0 0
7428 1 15.07493647508527 -17.61245767515105 -1.572496987832365 0 0 0
7429 1 15.07493647508527 -17.61245767515105 -4.060787034632366 0 0 0
7430 1 17.22740910458527 -17.61320314215105 -0.3285908412323657 0 0 0
7431 1 18.66378562358527 -15.58006614415106 -0.3289491564323654 0 0 0
7432 1 16.51123550708527 -15.57932067715105 0.915479533167634 0 0 0
7433 1 16.51123550708527 -15.57932067715105 -1.572810513632366 0 0 0
7434 1 18.66378562358527 -15.58006614415106 2.159355820167635 0 0 0
7435 1 17.94749579558527 -13.54618367915106 3.403470983967635 0 0 0
7436 1 17.94749579558527 -13.54618367915106 0.9151809371676336 0 0 0
7437 1 15.07493647508527 -17.61245767515105 -6.549090518252366 0 0 0
7438 1 17.22740910458527 -17.61320314215105 -5.305185864632366 0 0 0
7439 1 18.66378562358527 -15.58006614415106 -5.305544179832365 0 0 0
7440 1 16.51123550708527 -15.57932067715105 -4.061115490232366 0 0 0
7441 1 16.51123550708527 -15.57932067715105 -6.549413001932366 0 0 0
7442 1 18.66378562358527 -15.58006614415106 -2.817239203232365 0 0 0
7443 1 17.94749579558527 -13.54618367915106 -1.573124039432366 0 0 0
7444 1 17.94749579558527 -13.54618367915106 -4.061429016032365 0 0 0
7445 1 17.94749579558527 -13.54618367915106 -6.549722048792366 0 0 0
7446 1 7.177538922085272 -25.74699357915105 4.648437146367634 0 0 0
7447 1 5.02518252308527 -25.74724206815104 5.892507520767635 0 0 0
7448 1 5.02518252308527 -25.74724206815104 3.404202544167635 0 0 0
7449 1 7.177538922085272 -25.74699357915105 7.136742122967634 0 0 0
7450 1 8.61379921058527 -23.71335960315105 7.136921280567634 0 0 0
7451 1 6.461442811585272 -23.71335960315105 5.892731467767634 0 0 0
7452 1 7.177538922085272 -25.74699357915105 -0.328157877032365 0 0 0
7453 1 5.02518252308527 -25.74724206815104 0.9159124973676356 0 0 0
7454 1 5.02518252308527 -25.74724206815104 -1.572392479232366 0 0 0
7455 1 7.177538922085272 -25.74699357915105 2.160132169767634 0 0 0
7456 1 8.61379921058527 -23.71335960315105 2.160311327367634 0 0 0
7457 1 6.461442811585272 -23.71335960315105 3.404426491167634 0 0 0
7458 1 6.461442811585272 -23.71335960315105 0.9161215145676351 0 0 0
7459 1 8.61379921058527 -23.71335960315105 4.648616303967634 0 0 0
7460 1 10.05002075558527 -21.67947713815104 4.648750672167635 0 0 0
7461 1 7.89770310008527 -21.67947713815104 5.892955414767634 0 0 0
7462 1 7.89770310008527 -21.67947713815104 3.404665367967635 0 0 0
7463 1 10.05002075558527 -21.67947713815104 7.137055648767635 0 0 0
7464 1 11.48631978758527 -19.64584316215105 7.137055648767635 0 0 0
7465 1 9.333924645085272 -19.64559467315105 5.893104712767634 0 0 0
7466 1 7.177538922085272 -25.74699357915105 -5.304767830232366 0 0 0
7467 1 5.02518252308527 -25.74724206815104 -4.060697455832366 0 0 0
7468 1 5.02518252308527 -25.74724206815104 -6.548993474552366 0 0 0
7469 1 7.177538922085272 -25.74699357915105 -2.816462853632365 0 0 0
7470 1 8.61379921058527 -23.71335960315105 -2.816283696032366 0 0 0
7471 1 6.461442811585272 -23.71335960315105 -1.572168532232365 0 0 0
7472 1 6.461442811585272 -23.71335960315105 -4.060473508832366 0 0 0
7473 1 8.61379921058527 -23.71335960315105 -0.327978719432366 0 0 0
7474 1 10.05002075558527 -21.67947713815104 -0.3278443512323657 0 0 0
7475 1 7.89770310008527 -21.67947713815104 0.9163603913676344 0 0 0
7476 1 7.89770310008527 -21.67947713815104 -1.571944585232366 0 0 0
7477 1 10.05002075558527 -21.67947713815104 2.160445695567635 0 0 0
7478 1 11.48631978758527 -19.64584316215105 2.160460625367636 0 0 0
7479 1 9.333924645085272 -19.64559467315105 3.404814665967635 0 0 0
7480 1 9.333924645085272 -19.64559467315105 0.9165096893676346 0 0 0
7481 1 11.48631978758527 -19.64584316215105 4.648750672167635 0 0 0
7482 1 12.92254133258527 -17.61220918615105 4.648541654967635 0 0 0
7483 1 10.77022367708527 -17.61196069715105 5.893030063767634 0 0 0
7484 1 10.77022367708527 -17.61196069715105 3.404725087167634 0 0 0
7485 1 12.92254133258527 -17.61220918615105 7.136846631567634 0 0 0
7486 1 14.35876287758527 -15.57857521015106 7.136473386567635 0 0 0
7487 1 12.20648396558527 -15.57807823215106 5.892656818767634 0 0 0
7488 1 6.461442811585272 -23.71335960315105 -6.548775499472366 0 0 0
7489 1 8.61379921058527 -23.71335960315105 -5.304588672632366 0 0 0
7490 1 10.05002075558527 -21.67947713815104 -5.304454304432365 0 0 0
7491 1 7.89770310008527 -21.67947713815104 -4.060234632032365 0 0 0
7492 1 7.89770310008527 -21.67947713815104 -6.548538115652366 0 0 0
7493 1 10.05002075558527 -21.67947713815104 -2.816149327832366 0 0 0
7494 1 11.48631978758527 -19.64584316215105 -2.816149327832366 0 0 0
7495 1 9.333924645085272 -19.64559467315105 -1.571795287232366 0 0 0
7496 1 9.333924645085272 -19.64559467315105 -4.060085334032365 0 0 0
7497 1 11.48631978758527 -19.64584316215105 -0.3278443512323657 0 0 0
7498 1 12.92254133258527 -17.61220918615105 -0.3280533684323652 0 0 0
7499 1 10.77022367708527 -17.61196069715105 0.9164201105676355 0 0 0
7500 1 10.77022367708527 -17.61196069715105 -1.571869936232366 0 0 0
7501 1 12.92254133258527 -17.61220918615105 2.160251608167634 0 0 0
7502 1 14.35876287758527 -15.57857521015106 2.159878363167635 0 0 0
7503 1 12.20648396558527 -15.57807823215106 3.404351842167634 0 0 0
7504 1 12.20648396558527 -15.57807823215106 0.9160468655676333 0 0 0
7505 1 14.35876287758527 -15.57857521015106 4.648183339767634 0 0 0
7506 1 15.79506190958527 -13.54543821215105 4.647899673567634 0 0 0
7507 1 13.64266676708527 -13.54444425615105 5.892193994967634 0 0 0
7508 1 13.64266676708527 -13.54444425615105 3.403889018367634 0 0 0
7509 1 15.79506190958527 -13.54543821215105 7.136204650167635 0 0 0
7510 1 9.333924645085272 -19.64559467315105 -6.548390310632366 0 0 0
7511 1 11.48631978758527 -19.64584316215105 -5.304439374632366 0 0 0
7512 1 12.92254133258527 -17.61220918615105 -5.304648391832366 0 0 0
7513 1 10.77022367708527 -17.61196069715105 -4.060174912832366 0 0 0
7514 1 10.77022367708527 -17.61196069715105 -6.548475410492365 0 0 0
7515 1 12.92254133258527 -17.61220918615105 -2.816358345032365 0 0 0
7516 1 14.35876287758527 -15.57857521015106 -2.816716660232366 0 0 0
7517 1 12.20648396558527 -15.57807823215106 -1.572243181232366 0 0 0
7518 1 12.20648396558527 -15.57807823215106 -4.060548157832366 0 0 0
7519 1 14.35876287758527 -15.57857521015106 -0.3284266134323657 0 0 0
7520 1 15.79506190958527 -13.54543821215105 -0.3286953498323655 0 0 0
7521 1 13.64266676708527 -13.54444425615105 0.9155840417676337 0 0 0
7522 1 13.64266676708527 -13.54444425615105 -1.572706005032366 0 0 0
7523 1 15.79506190958527 -13.54543821215105 2.159609626767633 0 0 0
7524 1 12.20648396558527 -15.57807823215106 -6.548850148472366 0 0 0
7525 1 14.35876287758527 -15.57857521015106 -5.305021636832366 0 0 0
7526 1 15.79506190958527 -13.54543821215105 -5.305290373232365 0 0 0
7527 1 13.64266676708527 -13.54444425615105 -4.061010981632366 0 0 0
7528 1 13.64266676708527 -13.54444425615105 -6.549311479292366 0 0 0
7529 1 15.79506190958527 -13.54543821215105 -2.817000326432366 0 0 0
7530 1 2.872787380585272 -25.74749055715105 7.136548035567635 0 0 0
7531 1 0.720392238085271 -25.74749055715105 5.892268643967634 0 0 0
7532 1 2.872787380585272 -25.74749055715105 2.159953012167636 0 0 0
7533 1 0.720392238085271 -25.74749055715105 3.403978597167635 0 0 0
7534 1 0.720392238085271 -25.74749055715105 0.9156736205676346 0 0 0
7535 1 2.872787380585272 -25.74749055715105 4.648243058967635 0 0 0
7536 1 4.309125156085273 -23.71360809215105 4.648467005967635 0 0 0
7537 1 2.156730013585271 -23.71385658115105 5.892462731367633 0 0 0
7538 1 2.156730013585271 -23.71385658115105 3.404172684567634 0 0 0
7539 1 4.309125156085273 -23.71360809215105 7.136771982567636 0 0 0
7540 1 5.74542418808527 -21.67972562715106 7.137085508367633 0 0 0
7541 1 3.593067789085271 -21.67997411615104 5.892806116767636 0 0 0
7542 1 2.872787380585272 -25.74749055715105 -2.816656941032366 0 0 0
7543 1 0.720392238085271 -25.74749055715105 -1.572631356032366 0 0 0
7544 1 0.720392238085271 -25.74749055715105 -4.060921402832365 0 0 0
7545 1 2.872787380585272 -25.74749055715105 -0.3283519644323656 0 0 0
7546 1 4.309125156085273 -23.71360809215105 -0.3281280174323662 0 0 0
7547 1 2.156730013585271 -23.71385658115105 0.9158677079676334 0 0 0
7548 1 2.156730013585271 -23.71385658115105 -1.572437268632366 0 0 0
7549 1 4.309125156085273 -23.71360809215105 2.160176959167634 0 0 0
7550 1 5.74542418808527 -21.67972562715106 2.160475555167634 0 0 0
7551 1 3.593067789085271 -21.67997411615104 3.404501140167635 0 0 0
7552 1 3.593067789085271 -21.67997411615104 0.9161961635676352 0 0 0
7553 1 5.74542418808527 -21.67972562715106 4.648780531767633 0 0 0
7554 1 7.181645733085269 -19.64559467315105 4.649079127767633 0 0 0
7555 1 5.029405564585268 -19.64609165115104 5.893239080967634 0 0 0
7556 1 5.029405564585268 -19.64609165115104 3.404934104367634 0 0 0
7557 1 7.181645733085269 -19.64559467315105 7.137384104367634 0 0 0
7558 1 8.617867278085271 -17.61171220815105 7.137503542767634 0 0 0
7559 1 6.46562710958527 -17.61171220815105 5.893612325967634 0 0 0
7560 1 0.720392238085271 -25.74749055715105 -6.549229365392366 0 0 0
7561 1 2.872787380585272 -25.74749055715105 -5.304946987832366 0 0 0
7562 1 4.309125156085273 -23.71360809215105 -5.304723040832366 0 0 0
7563 1 2.156730013585271 -23.71385658115105 -4.060727315432366 0 0 0
7564 1 2.156730013585271 -23.71385658115105 -6.549032292032366 0 0 0
7565 1 4.309125156085273 -23.71360809215105 -2.816432994032366 0 0 0
7566 1 5.74542418808527 -21.67972562715106 -2.816119468232365 0 0 0
7567 1 3.593067789085271 -21.67997411615104 -1.572093883232366 0 0 0
7568 1 3.593067789085271 -21.67997411615104 -4.060398859832365 0 0 0
7569 1 5.74542418808527 -21.67972562715106 -0.3278144916323651 0 0 0
7570 1 7.181645733085269 -19.64559467315105 -0.3275158956323656 0 0 0
7571 1 5.029405564585268 -19.64609165115104 0.916644057567634 0 0 0
7572 1 5.029405564585268 -19.64609165115104 -1.571660919032365 0 0 0
7573 1 7.181645733085269 -19.64559467315105 2.160789080967634 0 0 0
7574 1 8.617867278085271 -17.61171220815105 2.160908519367634 0 0 0
7575 1 6.46562710958527 -17.61171220815105 3.405307349367636 0 0 0
7576 1 6.46562710958527 -17.61171220815105 0.9170173025676327 0 0 0
7577 1 8.617867278085271 -17.61171220815105 4.649213495967635 0 0 0
7578 1 10.05424379708527 -15.57807823215106 4.648944759567636 0 0 0
7579 1 7.90180991108527 -15.57758125415106 5.893627255767633 0 0 0
7580 1 7.90180991108527 -15.57758125415106 3.405337208967634 0 0 0
7581 1 10.05424379708527 -15.57807823215106 7.137249736167634 0 0 0
7582 1 11.49054282908527 -13.54419576715105 7.136607754767635 0 0 0
7583 1 9.338418891085272 -13.54444425615105 5.893000204167635 0 0 0
7584 1 3.593067789085271 -21.67997411615104 -6.548699357492366 0 0 0
7585 1 5.74542418808527 -21.67972562715106 -5.304424444832366 0 0 0
7586 1 7.181645733085269 -19.64559467315105 -5.304110919032366 0 0 0
7587 1 5.029405564585268 -19.64609165115104 -4.059965895632367 0 0 0
7588 1 5.029405564585268 -19.64609165115104 -6.548263407332366 0 0 0
7589 1 7.181645733085269 -19.64559467315105 -2.815820872232366 0 0 0
7590 1 8.617867278085271 -17.61171220815105 -2.815686504032366 0 0 0
7591 1 6.46562710958527 -17.61171220815105 -1.571287674032366 0 0 0
7592 1 6.46562710958527 -17.61171220815105 -4.059592650632366 0 0 0
7593 1 8.617867278085271 -17.61171220815105 -0.327396457232366 0 0 0
7594 1 10.05424379708527 -15.57807823215106 -0.327650263832366 0 0 0
7595 1 7.90180991108527 -15.57758125415106 0.9170322323676334 0 0 0
7596 1 7.90180991108527 -15.57758125415106 -1.571272744232365 0 0 0
7597 1 10.05424379708527 -15.57807823215106 2.160639782967635 0 0 0
7598 1 11.49054282908527 -13.54419576715105 2.160012731367633 0 0 0
7599 1 9.338418891085272 -13.54444425615105 3.404695227567634 0 0 0
7600 1 9.338418891085272 -13.54444425615105 0.9164051807676348 0 0 0
7601 1 11.49054282908527 -13.54419576715105 4.648317707967633 0 0 0
7602 1 6.46562710958527 -17.61171220815105 -6.547888669352366 0 0 0
7603 1 8.617867278085271 -17.61171220815105 -5.303991480632366 0 0 0
7604 1 10.05424379708527 -15.57807823215106 -5.304260217032366 0 0 0
7605 1 7.90180991108527 -15.57758125415106 -4.059562791032366 0 0 0
7606 1 7.90180991108527 -15.57758125415106 -6.547867767632366 0 0 0
7607 1 10.05424379708527 -15.57807823215106 -2.815955240432365 0 0 0
7608 1 11.49054282908527 -13.54419576715105 -2.816582292032366 0 0 0
7609 1 9.338418891085272 -13.54444425615105 -1.571899795832366 0 0 0
7610 1 9.338418891085272 -13.54444425615105 -4.060204772432366 0 0 0
7611 1 11.49054282908527 -13.54419576715105 -0.3282922452323662 0 0 0
7612 1 9.338418891085272 -13.54444425615105 -6.548497805192365 0 0 0
7613 1 11.49054282908527 -13.54419576715105 -5.304887268632365 0 0 0
7614 1 0.004334871085269754 -23.71385658115105 7.136443526967634 0 0 0
7615 1 0.004334871085269754 -23.71385658115105 2.159833573767635 0 0 0
7616 1 1.440711390085273 -21.68022260515106 4.648437146367634 0 0 0
7617 1 1.440711390085273 -21.68022260515106 7.136742122967634 0 0 0
7618 1 2.877087909085269 -19.64634014015105 7.137234806367635 0 0 0
7619 1 0.7246540230852716 -19.64658862915104 5.892791186967635 0 0 0
7620 1 0.004334871085269754 -23.71385658115105 -2.816761449632366 0 0 0
7621 1 0.004334871085269754 -23.71385658115105 -0.3284564730323654 0 0 0
7622 1 1.440711390085273 -21.68022260515106 -0.328157877032365 0 0 0
7623 1 1.440711390085273 -21.68022260515106 2.160132169767634 0 0 0
7624 1 2.877087909085269 -19.64634014015105 2.160639782967635 0 0 0
7625 1 0.7246540230852716 -19.64658862915104 3.404486210367635 0 0 0
7626 1 0.7246540230852716 -19.64658862915104 0.9161812337676345 0 0 0
7627 1 2.877087909085269 -19.64634014015105 4.648929829767635 0 0 0
7628 1 4.313464428085272 -17.61245767515105 4.649541951567635 0 0 0
7629 1 2.161108029085273 -17.61295465315105 5.893522747167633 0 0 0
7630 1 2.161108029085273 -17.61295465315105 3.405232700367634 0 0 0
7631 1 4.313464428085272 -17.61245767515105 7.137846928167635 0 0 0
7632 1 5.74972471658527 -15.57807823215106 7.138264962567634 0 0 0
7633 1 3.597600778585267 -15.57882369915104 5.894373745767634 0 0 0
7634 1 1.440711390085273 -21.68022260515106 -5.304767830232366 0 0 0
7635 1 1.440711390085273 -21.68022260515106 -2.816462853632365 0 0 0
7636 1 2.877087909085269 -19.64634014015105 -2.815970170232365 0 0 0
7637 1 0.7246540230852716 -19.64658862915104 -1.572108813032365 0 0 0
7638 1 0.7246540230852716 -19.64658862915104 -4.060413789632365 0 0 0
7639 1 2.877087909085269 -19.64634014015105 -0.3276651936323658 0 0 0
7640 1 4.313464428085272 -17.61245767515105 -0.3270530718323661 0 0 0
7641 1 2.161108029085273 -17.61295465315105 0.9169277237676337 0 0 0
7642 1 2.161108029085273 -17.61295465315105 -1.571377252832366 0 0 0
7643 1 4.313464428085272 -17.61245767515105 2.161236974967634 0 0 0
7644 1 5.74972471658527 -15.57807823215106 2.161655009367635 0 0 0
7645 1 3.597600778585267 -15.57882369915104 3.406068769167634 0 0 0
7646 1 3.597600778585267 -15.57882369915104 0.9177637925676354 0 0 0
7647 1 5.74972471658527 -15.57807823215106 4.649959985967634 0 0 0
7648 1 7.185752544085272 -13.54320181115105 4.649721109167634 0 0 0
7649 1 5.03397729758527 -13.54419576715105 5.894732060967634 0 0 0
7650 1 5.03397729758527 -13.54419576715105 3.406427084367634 0 0 0
7651 1 7.185752544085272 -13.54320181115105 7.138011155967634 0 0 0
7652 1 0.7246540230852716 -19.64658862915104 -6.548714287292366 0 0 0
7653 1 2.877087909085269 -19.64634014015105 -5.304260217032366 0 0 0
7654 1 4.313464428085272 -17.61245767515105 -5.303663025032366 0 0 0
7655 1 2.161108029085273 -17.61295465315105 -4.059667299632366 0 0 0
7656 1 2.161108029085273 -17.61295465315105 -6.547969290272365 0 0 0
7657 1 4.313464428085272 -17.61245767515105 -2.815358048432366 0 0 0
7658 1 5.74972471658527 -15.57807823215106 -2.814940014032365 0 0 0
7659 1 3.597600778585267 -15.57882369915104 -1.570526254232365 0 0 0
7660 1 3.597600778585267 -15.57882369915104 -4.058831230832366 0 0 0
7661 1 5.74972471658527 -15.57807823215106 -0.3266350374323652 0 0 0
7662 1 7.185752544085272 -13.54320181115105 -0.3268888440323661 0 0 0
7663 1 5.03397729758527 -13.54419576715105 0.9181370375676341 0 0 0
7664 1 5.03397729758527 -13.54419576715105 -1.570167939032366 0 0 0
7665 1 7.185752544085272 -13.54320181115105 2.161416132567634 0 0 0
7666 1 3.597600778585267 -15.57882369915104 -6.547131728492365 0 0 0
7667 1 5.74972471658527 -15.57807823215106 -5.303244990632366 0 0 0
7668 1 7.185752544085272 -13.54320181115105 -5.303483867432366 0 0 0
7669 1 5.03397729758527 -13.54419576715105 -4.058472915632366 0 0 0
7670 1 5.03397729758527 -13.54419576715105 -6.546767441372365 0 0 0
7671 1 7.185752544085272 -13.54320181115105 -2.815178890832366 0 0 0
7672 1 0.00863539958526971 -17.61320314215105 7.137279595767634 0 0 0
7673 1 0.00863539958526971 -17.61320314215105 2.160669642567635 0 0 0
7674 1 0.00863539958526971 -17.61320314215105 4.648974619167634 0 0 0
7675 1 1.44516689258527 -15.57956916615106 4.650094354167635 0 0 0
7676 1 1.44516689258527 -15.57956916615106 7.138399330767635 0 0 0
7677 1 2.881814616085268 -13.54568670115106 7.139519065767635 0 0 0
7678 1 0.7291870125852711 -13.54618367915106 5.895388972167634 0 0 0
7679 1 0.00863539958526971 -17.61320314215105 -2.815925380832366 0 0 0
7680 1 0.00863539958526971 -17.61320314215105 -0.3276204042323654 0 0 0
7681 1 1.44516689258527 -15.57956916615106 -0.3265006692323658 0 0 0
7682 1 1.44516689258527 -15.57956916615106 2.161789377567635 0 0 0
7683 1 2.881814616085268 -13.54568670115106 2.162924042367635 0 0 0
7684 1 0.7291870125852711 -13.54618367915106 3.407083995567636 0 0 0
7685 1 0.7291870125852711 -13.54618367915106 0.9187790189676353 0 0 0
7686 1 2.881814616085268 -13.54568670115106 4.651214089167635 0 0 0
7687 1 0.00863539958526971 -17.61320314215105 -5.304230357432366 0 0 0
7688 1 1.44516689258527 -15.57956916615106 -5.303110622432365 0 0 0
7689 1 1.44516689258527 -15.57956916615106 -2.814805645832366 0 0 0
7690 1 2.881814616085268 -13.54568670115106 -2.813685910832366 0 0 0
7691 1 0.7291870125852711 -13.54618367915106 -1.569511027832366 0 0 0
7692 1 0.7291870125852711 -13.54618367915106 -4.057816004432366 0 0 0
7693 1 2.881814616085268 -13.54568670115106 -0.3253809342323661 0 0 0
7694 1 0.7291870125852711 -13.54618367915106 -6.546115009112365 0 0 0
7695 1 2.881814616085268 -13.54568670115106 -5.301975957632365 0 0 0
7696 1 -19.35857238996173 -11.51578006015104 5.891253417567633 1 0 0
7697 1 -19.35857238996173 -11.51578006015104 3.402948440967634 1 0 0
7698 1 -19.35857238996173 -11.51578006015104 0.9146583941676329 1 0 0
7699 1 -19.35857238996173 -11.51578006015104 -1.573646582432366 1 0 0
7700 1 -19.35857238996173 -11.51578006015104 -4.061951559032366 1 0 0
7701 1 -19.35857238996173 -11.51578006015104 -6.550247577752366 1 0 0
7702 1 17.23089601958527 -11.51180423615105 7.136115071367634 0 0 0
7703 1 15.07912077308527 -11.51155574715105 5.892208924767635 0 0 0
7704 1 17.23089601958527 -11.51180423615105 2.159520047967634 0 0 0
7705 1 15.07912077308527 -11.51155574715105 3.403903948167635 0 0 0
7706 1 15.07912077308527 -11.51155574715105 0.9156139013676352 0 0 0
7707 1 17.23089601958527 -11.51180423615105 4.647810094767634 0 0 0
7708 1 18.66924845708527 -9.485127952151046 4.647541358367635 0 0 0
7709 1 16.51371509108527 -9.475436881151055 5.892641888967633 0 0 0
7710 1 16.51371509108527 -9.475436881151055 3.404336912367633 0 0 0
7711 1 18.66924845708527 -9.485127952151046 7.135831405167634 0 0 0
7712 1 17.95346229458527 -7.45546980015105 5.893388378967634 0 0 0
7713 1 17.23089601958527 -11.51180423615105 -2.817089905232366 0 0 0
7714 1 15.07912077308527 -11.51155574715105 -1.572691075232366 0 0 0
7715 1 15.07912077308527 -11.51155574715105 -4.060996051832365 0 0 0
7716 1 17.23089601958527 -11.51180423615105 -0.3287849286323663 0 0 0
7717 1 18.66924845708527 -9.485127952151046 -0.3290685948323659 0 0 0
7718 1 16.51371509108527 -9.475436881151055 0.9160468655676333 0 0 0
7719 1 16.51371509108527 -9.475436881151055 -1.572258111032365 0 0 0
7720 1 18.66924845708527 -9.485127952151046 2.159236381767634 0 0 0
7721 1 17.95346229458527 -7.45546980015105 3.405083402367636 0 0 0
7722 1 17.95346229458527 -7.45546980015105 0.9167933555676342 0 0 0
7723 1 -19.34547650580923 -5.43550271915106 5.881982011767635 1 0 0
7724 1 -19.34547650580923 -5.43550271915106 3.393677035167634 1 0 0
7725 1 15.07912077308527 -11.51155574715105 -6.549290577572366 0 0 0
7726 1 17.23089601958527 -11.51180423615105 -5.305379952032366 0 0 0
7727 1 18.66924845708527 -9.485127952151046 -5.305663618232366 0 0 0
7728 1 16.51371509108527 -9.475436881151055 -4.060563087632366 0 0 0
7729 1 16.51371509108527 -9.475436881151055 -6.548860599332365 0 0 0
7730 1 18.66924845708527 -9.485127952151046 -2.817358641632365 0 0 0
7731 1 17.95346229458527 -7.45546980015105 -1.571511621032365 0 0 0
7732 1 17.95346229458527 -7.45546980015105 -4.059816597632366 0 0 0
7733 1 -19.34547650580923 -5.43550271915106 0.9053720585676341 1 0 0
7734 1 -19.34547650580923 -5.43550271915106 -1.582917988232365 1 0 0
7735 1 17.95346229458527 -7.45546980015105 -6.548112616352366 0 0 0
7736 1 -19.34547650580923 -5.43550271915106 -4.071222964832366 1 0 0
7737 1 -19.34547650580923 -5.43550271915106 -6.559521969512366 1 0 0
7738 1 12.92672563058527 -11.50981632415106 4.647825024567634 0 0 0
7739 1 10.77491164058527 -11.51006481315105 5.892014837367634 0 0 0
7740 1 10.77491164058527 -11.51006481315105 3.403724790567635 0 0 0
7741 1 12.92672563058527 -11.50981632415106 7.136130001167635 0 0 0
7742 1 14.36407073708527 -9.477921771151046 7.137055648767635 0 0 0
7743 1 12.21101695508527 -9.474939903151053 5.891731171167635 0 0 0
7744 1 12.92672563058527 -11.50981632415106 -0.3287699988323656 0 0 0
7745 1 10.77491164058527 -11.51006481315105 0.9154198139676346 0 0 0
7746 1 10.77491164058527 -11.51006481315105 -1.572885162632366 0 0 0
7747 1 12.92672563058527 -11.50981632415106 2.159534977767635 0 0 0
7748 1 14.36407073708527 -9.477921771151046 2.160460625367636 0 0 0
7749 1 12.21101695508527 -9.474939903151053 3.403426194567635 0 0 0
7750 1 12.21101695508527 -9.474939903151053 0.9151212179676342 0 0 0
7751 1 14.36407073708527 -9.477921771151046 4.648765601967636 0 0 0
7752 1 15.79614672758527 -7.434099746151048 4.650034634967636 0 0 0
7753 1 13.65119033708527 -7.446772685151046 5.895105305967634 0 0 0
7754 1 13.65119033708527 -7.446772685151046 3.406800329367634 0 0 0
7755 1 15.79614672758527 -7.434099746151048 7.138324681767635 0 0 0
7756 1 17.23972953758527 -5.424569203151037 7.143027568767634 0 0 0
7757 1 15.07760977658527 -5.383817007151052 5.896568426367635 0 0 0
7758 1 12.92672563058527 -11.50981632415106 -5.305365022232365 0 0 0
7759 1 10.77491164058527 -11.51006481315105 -4.061175209432366 0 0 0
7760 1 10.77491164058527 -11.51006481315105 -6.549480186032365 0 0 0
7761 1 12.92672563058527 -11.50981632415106 -2.817074975432366 0 0 0
7762 1 14.36407073708527 -9.477921771151046 -2.816134398032366 0 0 0
7763 1 12.21101695508527 -9.474939903151053 -1.573168828832366 0 0 0
7764 1 12.21101695508527 -9.474939903151053 -4.061473805432366 0 0 0
7765 1 14.36407073708527 -9.477921771151046 -0.3278443512323657 0 0 0
7766 1 15.79614672758527 -7.434099746151048 -0.326575318232365 0 0 0
7767 1 13.65119033708527 -7.446772685151046 0.9184953527676338 0 0 0
7768 1 13.65119033708527 -7.446772685151046 -1.569794694032366 0 0 0
7769 1 15.79614672758527 -7.434099746151048 2.161729658367635 0 0 0
7770 1 17.23972953758527 -5.424569203151037 2.166432545367634 0 0 0
7771 1 15.07760977658527 -5.383817007151052 3.408278379567633 0 0 0
7772 1 15.07760977658527 -5.383817007151052 0.9199734029676332 0 0 0
7773 1 17.23972953758527 -5.424569203151037 4.654737521967634 0 0 0
7774 1 18.70225791908527 -3.431190445151046 4.621384348767634 0 0 0
7775 1 16.52681039408527 -3.39217767215105 5.916813235167634 0 0 0
7776 1 16.52681039408527 -3.39217767215105 3.428523188367635 0 0 0
7777 1 18.70225791908527 -3.431190445151046 7.109674395567634 0 0 0
7778 1 18.03040688558527 -1.484776108151038 5.804451560367633 0 0 0
7779 1 12.21101695508527 -9.474939903151053 -6.549771317132365 0 0 0
7780 1 14.36407073708527 -9.477921771151046 -5.304439374632366 0 0 0
7781 1 15.79614672758527 -7.434099746151048 -5.303170341632366 0 0 0
7782 1 13.65119033708527 -7.446772685151046 -4.058099670632366 0 0 0
7783 1 13.65119033708527 -7.446772685151046 -6.546398675312366 0 0 0
7784 1 15.79614672758527 -7.434099746151048 -2.814865365032366 0 0 0
7785 1 17.23972953758527 -5.424569203151037 -2.810162478032366 0 0 0
7786 1 15.07760977658527 -5.383817007151052 -1.568331573632365 0 0 0
7787 1 15.07760977658527 -5.383817007151052 -4.056621620432366 0 0 0
7788 1 17.23972953758527 -5.424569203151037 -0.3218724312323662 0 0 0
7789 1 18.70225791908527 -3.431190445151046 -0.3552256044323654 0 0 0
7790 1 16.52681039408527 -3.39217767215105 0.9402182117676343 0 0 0
7791 1 16.52681039408527 -3.39217767215105 -1.548086764832366 0 0 0
7792 1 18.70225791908527 -3.431190445151046 2.133079372167634 0 0 0
7793 1 18.03040688558527 -1.484776108151038 3.316146583767633 0 0 0
7794 1 18.03040688558527 -1.484776108151038 0.8278565369676336 0 0 0
7795 1 15.07760977658527 -5.383817007151052 -6.544926597032366 0 0 0
7796 1 17.23972953758527 -5.424569203151037 -5.298467454632366 0 0 0
7797 1 18.70225791908527 -3.431190445151046 -5.331820627832366 0 0 0
7798 1 16.52681039408527 -3.39217767215105 -4.036376811632366 0 0 0
7799 1 16.52681039408527 -3.39217767215105 -6.524680295252366 0 0 0
7800 1 18.70225791908527 -3.431190445151046 -2.843515651232366 0 0 0
7801 1 18.03040688558527 -1.484776108151038 -1.660448439632366 0 0 0
7802 1 18.03040688558527 -1.484776108151038 -4.148753416232365 0 0 0
7803 1 18.03040688558527 -1.484776108151038 -6.637047941972366 0 0 0
7804 1 8.622942676585271 -11.51105876915105 7.136667473967636 0 0 0
7805 1 6.46954020308527 -11.50807690115104 5.893910921967635 0 0 0
7806 1 8.622942676585271 -11.51105876915105 2.160072450567634 0 0 0
7807 1 6.46954020308527 -11.50807690115104 3.405620875167633 0 0 0
7808 1 6.46954020308527 -11.50807690115104 0.9173158985676331 0 0 0
7809 1 8.622942676585271 -11.51105876915105 4.648377427167635 0 0 0
7810 1 10.05997783508527 -9.476182348151042 4.647033745167635 0 0 0
7811 1 7.907815153585272 -9.478667238151047 5.891133979167636 0 0 0
7812 1 7.907815153585272 -9.478667238151047 3.402829002567636 0 0 0
7813 1 10.05997783508527 -9.476182348151042 7.135338721767635 0 0 0
7814 1 11.49596691908527 -7.437578592151056 7.135607458167634 0 0 0
7815 1 9.345818899585268 -7.44354232815104 5.890044103767634 0 0 0
7816 1 8.622942676585271 -11.51105876915105 -2.816522572832366 0 0 0
7817 1 6.46954020308527 -11.50807690115104 -1.570989078032365 0 0 0
7818 1 6.46954020308527 -11.50807690115104 -4.059279124832366 0 0 0
7819 1 8.622942676585271 -11.51105876915105 -0.328232526032366 0 0 0
7820 1 10.05997783508527 -9.476182348151042 -0.329561278232366 0 0 0
7821 1 7.907815153585272 -9.478667238151047 0.9145389557676342 0 0 0
7822 1 7.907815153585272 -9.478667238151047 -1.573766020832366 0 0 0
7823 1 10.05997783508527 -9.476182348151042 2.158743698367635 0 0 0
7824 1 11.49596691908527 -7.437578592151056 2.158997504967633 0 0 0
7825 1 9.345818899585268 -7.44354232815104 3.401739127167636 0 0 0
7826 1 9.345818899585268 -7.44354232815104 0.9134490803676343 0 0 0
7827 1 11.49596691908527 -7.437578592151056 4.647302481567634 0 0 0
7828 1 12.94636858508527 -5.42158733515106 4.657200938967634 0 0 0
7829 1 10.77735248108527 -5.39673843515105 5.890626365967634 0 0 0
7830 1 10.77735248108527 -5.39673843515105 3.402336319167635 0 0 0
7831 1 12.94636858508527 -5.42158733515106 7.145505915567634 0 0 0
7832 1 14.37460896908527 -3.299739764151056 7.141280782167636 0 0 0
7833 1 12.24503374808527 -3.424481242151046 5.919948493167634 0 0 0
7834 1 6.46954020308527 -11.50807690115104 -6.547582608452366 0 0 0
7835 1 8.622942676585271 -11.51105876915105 -5.304827549432366 0 0 0
7836 1 10.05997783508527 -9.476182348151042 -5.306156301632366 0 0 0
7837 1 7.907815153585272 -9.478667238151047 -4.062070997432365 0 0 0
7838 1 7.907815153585272 -9.478667238151047 -6.550364030192366 0 0 0
7839 1 10.05997783508527 -9.476182348151042 -2.817866254832366 0 0 0
7840 1 11.49596691908527 -7.437578592151056 -2.817597518432366 0 0 0
7841 1 9.345818899585268 -7.44354232815104 -1.574855896232366 0 0 0
7842 1 9.345818899585268 -7.44354232815104 -4.063160872832366 0 0 0
7843 1 11.49596691908527 -7.437578592151056 -0.3292925418323653 0 0 0
7844 1 12.94636858508527 -5.42158733515106 -0.3193940844323659 0 0 0
7845 1 10.77735248108527 -5.39673843515105 0.9140313425676343 0 0 0
7846 1 10.77735248108527 -5.39673843515105 -1.574273634032365 0 0 0
7847 1 12.94636858508527 -5.42158733515106 2.168895962367634 0 0 0
7848 1 14.37460896908527 -3.299739764151056 2.164670828967635 0 0 0
7849 1 12.24503374808527 -3.424481242151046 3.431658446367633 0 0 0
7850 1 12.24503374808527 -3.424481242151046 0.9433534697676347 0 0 0
7851 1 14.37460896908527 -3.299739764151056 4.652975805567635 0 0 0
7852 1 15.89749972358527 -1.307603451151053 4.719443275167633 0 0 0
7853 1 13.63383324908527 -1.21963834515104 5.838237697767633 0 0 0
7854 1 13.63383324908527 -1.21963834515104 3.349947650967634 0 0 0
7855 1 15.89749972358527 -1.307603451151053 7.207748251767633 0 0 0
7856 1 9.345818899585268 -7.44354232815104 -6.551455398572366 0 0 0
7857 1 11.49596691908527 -7.437578592151056 -5.305902495032366 0 0 0
7858 1 12.94636858508527 -5.42158733515106 -5.296004037632366 0 0 0
7859 1 10.77735248108527 -5.39673843515105 -4.062563680832366 0 0 0
7860 1 10.77735248108527 -5.39673843515105 -6.550870150412366 0 0 0
7861 1 12.94636858508527 -5.42158733515106 -2.807699061032365 0 0 0
7862 1 14.37460896908527 -3.299739764151056 -2.811924194432366 0 0 0
7863 1 12.24503374808527 -3.424481242151046 -1.544951506832366 0 0 0
7864 1 12.24503374808527 -3.424481242151046 -4.033241553632365 0 0 0
7865 1 14.37460896908527 -3.299739764151056 -0.3236192178323654 0 0 0
7866 1 15.89749972358527 -1.307603451151053 -0.2571517482323653 0 0 0
7867 1 13.63383324908527 -1.21963834515104 0.8616426743676335 0 0 0
7868 1 13.63383324908527 -1.21963834515104 -1.626662302232366 0 0 0
7869 1 15.89749972358527 -1.307603451151053 2.231138298567634 0 0 0
7870 1 12.24503374808527 -3.424481242151046 -6.521548023212365 0 0 0
7871 1 14.37460896908527 -3.299739764151056 -5.300229171032365 0 0 0
7872 1 15.89749972358527 -1.307603451151053 -5.233761701432366 0 0 0
7873 1 13.63383324908527 -1.21963834515104 -4.114952349032366 0 0 0
7874 1 13.63383324908527 -1.21963834515104 -6.603255832652366 0 0 0
7875 1 15.89749972358527 -1.307603451151053 -2.745456724832366 0 0 0
7876 1 4.31850108308527 -11.51081028015105 4.651258878567633 0 0 0
7877 1 2.166144684085271 -11.51279819215104 5.896837162767635 0 0 0
7878 1 2.166144684085271 -11.51279819215104 3.408532186167635 0 0 0
7879 1 4.31850108308527 -11.51081028015105 7.139563855167633 0 0 0
7880 1 5.752785453085266 -9.471212568151046 7.137652840767634 0 0 0
7881 1 3.603683508085272 -9.478667238151047 5.895911515167635 0 0 0
7882 1 4.31850108308527 -11.51081028015105 -0.3253361448323657 0 0 0
7883 1 2.166144684085271 -11.51279819215104 0.9202272095676349 0 0 0
7884 1 2.166144684085271 -11.51279819215104 -1.568062837232366 0 0 0
7885 1 4.31850108308527 -11.51081028015105 2.162968831767634 0 0 0
7886 1 5.752785453085266 -9.471212568151046 2.161057817367634 0 0 0
7887 1 3.603683508085272 -9.478667238151047 3.407606538567634 0 0 0
7888 1 3.603683508085272 -9.478667238151047 0.9193164917676349 0 0 0
7889 1 5.752785453085266 -9.471212568151046 4.649362793967635 0 0 0
7890 1 7.193075065585269 -7.447766641151048 4.643435663367635 0 0 0
7891 1 5.034945885085268 -7.429626944151039 5.892223854567636 0 0 0
7892 1 5.034945885085268 -7.429626944151039 3.403918877967635 0 0 0
7893 1 7.193075065585269 -7.447766641151048 7.131740639967635 0 0 0
7894 1 8.63344216508527 -5.414132665151044 7.134174197367635 0 0 0
7895 1 6.481279483585269 -5.41885395615104 5.878369000167634 0 0 0
7896 1 4.31850108308527 -11.51081028015105 -5.301931168232366 0 0 0
7897 1 2.166144684085271 -11.51279819215104 -4.056367813832366 0 0 0
7898 1 2.166144684085271 -11.51279819215104 -6.544669804472366 0 0 0
7899 1 4.31850108308527 -11.51081028015105 -2.813641121432365 0 0 0
7900 1 5.752785453085266 -9.471212568151046 -2.815537206032365 0 0 0
7901 1 3.603683508085272 -9.478667238151047 -1.568988484832366 0 0 0
7902 1 3.603683508085272 -9.478667238151047 -4.057293461432366 0 0 0
7903 1 5.752785453085266 -9.471212568151046 -0.3272471592323658 0 0 0
7904 1 7.193075065585269 -7.447766641151048 -0.3331593600323659 0 0 0
7905 1 5.034945885085268 -7.429626944151039 0.9156139013676352 0 0 0
7906 1 5.034945885085268 -7.429626944151039 -1.572676145432366 0 0 0
7907 1 7.193075065585269 -7.447766641151048 2.155145616567635 0 0 0
7908 1 8.63344216508527 -5.414132665151044 2.157564244167634 0 0 0
7909 1 6.481279483585269 -5.41885395615104 3.390064023567634 0 0 0
7910 1 6.481279483585269 -5.41885395615104 0.9017590469676335 0 0 0
7911 1 8.63344216508527 -5.414132665151044 4.645869220767635 0 0 0
7912 1 10.05242285258527 -3.33303729015104 4.641778455567634 0 0 0
7913 1 7.934083246585271 -3.383729046151046 5.900151578367634 0 0 0
7914 1 7.934083246585271 -3.383729046151046 3.411861531567634 0 0 0
7915 1 10.05242285258527 -3.33303729015104 7.130083432167634 0 0 0
7916 1 11.53424549708527 -1.466387922151057 7.223036366967634 0 0 0
7917 1 9.39827759858527 -1.173419391151057 5.860274082567635 0 0 0
7918 1 3.603683508085272 -9.478667238151047 -6.545586494192365 0 0 0
7919 1 5.752785453085266 -9.471212568151046 -5.303842182632366 0 0 0
7920 1 7.193075065585269 -7.447766641151048 -5.309754383432366 0 0 0
7921 1 5.034945885085268 -7.429626944151039 -4.060981122032365 0 0 0
7922 1 5.034945885085268 -7.429626944151039 -6.549280126712365 0 0 0
7923 1 7.193075065585269 -7.447766641151048 -2.821464336632366 0 0 0
7924 1 8.63344216508527 -5.414132665151044 -2.819030779232365 0 0 0
7925 1 6.481279483585269 -5.41885395615104 -1.586530999832366 0 0 0
7926 1 6.481279483585269 -5.41885395615104 -4.074835976432366 0 0 0
7927 1 8.63344216508527 -5.414132665151044 -0.3307258026323652 0 0 0
7928 1 10.05242285258527 -3.33303729015104 -0.3348165678323651 0 0 0
7929 1 7.934083246585271 -3.383729046151046 0.9235565549676341 0 0 0
7930 1 7.934083246585271 -3.383729046151046 -1.564748421632366 0 0 0
7931 1 10.05242285258527 -3.33303729015104 2.153473478967635 0 0 0
7932 1 11.53424549708527 -1.466387922151057 2.246441343567634 0 0 0
7933 1 9.39827759858527 -1.173419391151057 3.371969105967635 0 0 0
7934 1 9.39827759858527 -1.173419391151057 0.8836790591676351 0 0 0
7935 1 11.53424549708527 -1.466387922151057 4.734746320167634 0 0 0
7936 1 6.481279483585269 -5.41885395615104 -6.563136474092365 0 0 0
7937 1 8.63344216508527 -5.414132665151044 -5.307335755832366 0 0 0
7938 1 10.05242285258527 -3.33303729015104 -5.311426521032366 0 0 0
7939 1 7.934083246585271 -3.383729046151046 -4.053038468432366 0 0 0
7940 1 7.934083246585271 -3.383729046151046 -6.541341952052366 0 0 0
7941 1 10.05242285258527 -3.33303729015104 -2.823121544432365 0 0 0
7942 1 11.53424549708527 -1.466387922151057 -2.730153679832366 0 0 0
7943 1 9.39827759858527 -1.173419391151057 -1.604625917432365 0 0 0
7944 1 9.39827759858527 -1.173419391151057 -4.092930894032365 0 0 0
7945 1 11.53424549708527 -1.466387922151057 -0.2418636330323656 0 0 0
7946 1 9.39827759858527 -1.173419391151057 -6.581223926792366 0 0 0
7947 1 11.53424549708527 -1.466387922151057 -5.218458656432366 0 0 0
7948 1 0.01301341508527187 -11.51304668115105 7.141370360967635 0 0 0
7949 1 0.01301341508527187 -11.51304668115105 4.653065384367634 0 0 0
7950 1 1.450048573585271 -9.480655150151051 4.654827100767633 0 0 0
7951 1 1.450048573585271 -9.480655150151051 7.143132077367634 0 0 0
7952 1 2.88948582908527 -7.450500020151054 7.139623574367635 0 0 0
7953 1 0.7329451320852698 -7.448263619151049 5.902211890767633 0 0 0
7954 1 0.01301341508527187 -11.51304668115105 -0.3235296390323654 0 0 0
7955 1 1.450048573585271 -9.480655150151051 -0.3217679226323655 0 0 0
7956 1 1.450048573585271 -9.480655150151051 2.166522124167635 0 0 0
7957 1 2.88948582908527 -7.450500020151054 2.163028550967635 0 0 0
7958 1 0.7329451320852698 -7.448263619151049 3.413906914167633 0 0 0
7959 1 0.7329451320852698 -7.448263619151049 0.9256168673676335 0 0 0
7960 1 2.88948582908527 -7.450500020151054 4.651318597767634 0 0 0
7961 1 4.310364948085269 -5.380586650151045 4.645824431367634 0 0 0
7962 1 2.17889129558527 -5.43078142815105 5.891850609567634 0 0 0
7963 1 2.17889129558527 -5.43078142815105 3.403545632967633 0 0 0
7964 1 4.310364948085269 -5.380586650151045 7.134114478167636 0 0 0
7965 1 5.760689127085271 -3.404353633151047 7.096416733167635 0 0 0
7966 1 3.58477668008527 -3.295266962151047 5.887192511967635 0 0 0
7967 1 0.01301341508527187 -11.51304668115105 -5.300124662432365 0 0 0
7968 1 1.450048573585271 -9.480655150151051 -5.298377875832365 0 0 0
7969 1 1.450048573585271 -9.480655150151051 -2.810072899232366 0 0 0
7970 1 2.88948582908527 -7.450500020151054 -2.813581402232366 0 0 0
7971 1 0.7329451320852698 -7.448263619151049 -1.562688109232366 0 0 0
7972 1 0.7329451320852698 -7.448263619151049 -4.050993085832365 0 0 0
7973 1 2.88948582908527 -7.450500020151054 -0.3252764256323655 0 0 0
7974 1 4.310364948085269 -5.380586650151045 -0.3307855218323654 0 0 0
7975 1 2.17889129558527 -5.43078142815105 0.9152406563676347 0 0 0
7976 1 2.17889129558527 -5.43078142815105 -1.573049390432366 0 0 0
7977 1 4.310364948085269 -5.380586650151045 2.157519454767634 0 0 0
7978 1 5.760689127085271 -3.404353633151047 2.119821709767635 0 0 0
7979 1 3.58477668008527 -3.295266962151047 3.398902465167636 0 0 0
7980 1 3.58477668008527 -3.295266962151047 0.9105974885676353 0 0 0
7981 1 5.760689127085271 -3.404353633151047 4.608111756567634 0 0 0
7982 1 7.212911737585269 -1.410974875151041 4.728177208167635 0 0 0
7983 1 5.064080997085274 -1.368980234151053 5.791343195967634 0 0 0
7984 1 5.064080997085274 -1.368980234151053 3.303038219367634 0 0 0
7985 1 7.212911737585269 -1.410974875151041 7.216467254967634 0 0 0
7986 1 0.7329451320852698 -7.448263619151049 -6.539286118592366 0 0 0
7987 1 2.88948582908527 -7.450500020151054 -5.301871449032365 0 0 0
7988 1 4.310364948085269 -5.380586650151045 -5.307380545232366 0 0 0
7989 1 2.17889129558527 -5.43078142815105 -4.061354367032365 0 0 0
7990 1 2.17889129558527 -5.43078142815105 -6.549653371712366 0 0 0
7991 1 4.310364948085269 -5.380586650151045 -2.819075568632366 0 0 0
7992 1 5.760689127085271 -3.404353633151047 -2.856788243432366 0 0 0
7993 1 3.58477668008527 -3.295266962151047 -1.577707488032366 0 0 0
7994 1 3.58477668008527 -3.295266962151047 -4.065997534832366 0 0 0
7995 1 5.760689127085271 -3.404353633151047 -0.3684832668323654 0 0 0
7996 1 7.212911737585269 -1.410974875151041 -0.2484327450323658 0 0 0
7997 1 5.064080997085274 -1.368980234151053 0.8147481725676347 0 0 0
7998 1 5.064080997085274 -1.368980234151053 -1.673556804032366 0 0 0
7999 1 7.212911737585269 -1.410974875151041 2.239872231567634 0 0 0
8000 1 3.58477668008527 -3.295266962151047 -6.554305497392366 0 0 0
8001 1 5.760689127085271 -3.404353633151047 -5.345078290232365 0 0 0
8002 1 7.212911737585269 -1.410974875151041 -5.225027768432366 0 0 0
8003 1 5.064080997085274 -1.368980234151053 -4.161861780632366 0 0 0
8004 1 5.064080997085274 -1.368980234151053 -6.650159292332366 0 0 0
8005 1 7.212911737585269 -1.410974875151041 -2.736722791832365 0 0 0
8006 1 0.01212231458526958 -5.413387198151057 2.175375495567634 0 0 0
8007 1 0.01212231458526958 -5.413387198151057 4.663665542367633 0 0 0
8008 1 1.47259729058527 -3.434917780151054 4.633387907967634 0 0 0
8009 1 1.47259729058527 -3.434917780151054 7.121677954767636 0 0 0
8010 1 2.839894149085271 -1.161988897151048 7.166676371967634 0 0 0
8011 1 0.763746214585268 -1.489994377151049 5.823964808967634 0 0 0
8012 1 0.01212231458526958 -5.413387198151057 -2.801234457632366 0 0 0
8013 1 0.01212231458526958 -5.413387198151057 -0.3129294810323655 0 0 0
8014 1 1.47259729058527 -3.434917780151054 -0.3432220452323662 0 0 0
8015 1 1.47259729058527 -3.434917780151054 2.145082931367636 0 0 0
8016 1 2.839894149085271 -1.161988897151048 2.190081348567634 0 0 0
8017 1 0.763746214585268 -1.489994377151049 3.335659832367634 0 0 0
8018 1 0.763746214585268 -1.489994377151049 0.8473697855676345 0 0 0
8019 1 2.839894149085271 -1.161988897151048 4.678371395367634 0 0 0
8020 1 0.01212231458526958 -5.413387198151057 -5.289524504432366 0 0 0
8021 1 1.47259729058527 -3.434917780151054 -5.319817068632366 0 0 0
8022 1 1.47259729058527 -3.434917780151054 -2.831512092032366 0 0 0
8023 1 2.839894149085271 -1.161988897151048 -2.786528604632366 0 0 0
8024 1 0.763746214585268 -1.489994377151049 -1.640935191032366 0 0 0
8025 1 0.763746214585268 -1.489994377151049 -4.129240167632366 0 0 0
8026 1 2.839894149085271 -1.161988897151048 -0.2982236280323658 0 0 0
8027 1 0.763746214585268 -1.489994377151049 -6.617534693372366 0 0 0
8028 1 2.839894149085271 -1.161988897151048 -5.274818651432366 0 0 0
8029 1 -16.76814470871473 0.601040557848961 6.797268330567634 1 0 0
8030 1 -16.76814470871473 0.601040557848961 4.308963353967634 1 0 0
8031 1 -16.89157375101473 3.039711603848957 6.582951051567635 1 0 0
8032 1 -16.76814470871473 0.601040557848961 1.820658377367634 1 0 0
8033 1 -16.76814470871473 0.601040557848961 -0.6676316694323656 1 0 0
8034 1 -16.89157375101473 3.039711603848957 4.094661004767634 1 0 0
8035 1 -16.89157375101473 3.039711603848957 1.606356028167635 1 0 0
8036 1 -16.87605310491473 5.551438415848949 6.558182513367633 1 0 0
8037 1 -16.87605310491473 5.551438415848949 4.069892466567634 1 0 0
8038 1 -16.86250062861473 8.049498332848955 6.549508299567634 1 0 0
8039 1 -16.76814470871473 0.601040557848961 -3.155936646032366 1 0 0
8040 1 -16.76814470871473 0.601040557848961 -5.644241622632366 1 0 0
8041 1 -16.89157375101473 3.039711603848957 -0.8819489484323659 1 0 0
8042 1 -16.89157375101473 3.039711603848957 -3.370238995232365 1 0 0
8043 1 -16.87605310491473 5.551438415848949 1.581587489967633 1 0 0
8044 1 -16.87605310491473 5.551438415848949 -0.9067174866323651 1 0 0
8045 1 -16.86250062861473 8.049498332848955 4.061203322967634 1 0 0
8046 1 -16.86250062861473 8.049498332848955 1.572898346367634 1 0 0
8047 1 -16.85582899791473 10.54258846984895 6.546880654767634 1 0 0
8048 1 -16.85582899791473 10.54258846984895 4.058575678167633 1 0 0
8049 1 -16.85299684806473 13.03393918384894 6.546014726367634 1 0 0
8050 1 -16.89157375101473 3.039711603848957 -5.858543971832366 1 0 0
8051 1 -16.87605310491473 5.551438415848949 -3.395007533432366 1 0 0
8052 1 -16.87605310491473 5.551438415848949 -5.883312510032366 1 0 0
8053 1 -16.86250062861473 8.049498332848955 -0.9153917004323651 1 0 0
8054 1 -16.86250062861473 8.049498332848955 -3.403696677032365 1 0 0
8055 1 -16.85582899791473 10.54258846984895 1.570270701567635 1 0 0
8056 1 -16.85582899791473 10.54258846984895 -0.9180193452323655 1 0 0
8057 1 -16.85299684806473 13.03393918384894 4.057709749767636 1 0 0
8058 1 -16.85299684806473 13.03393918384894 1.569419702967634 1 0 0
8059 1 -16.86250062861473 8.049498332848955 -5.892001653632366 1 0 0
8060 1 -16.85582899791473 10.54258846984895 -3.406324321832366 1 0 0
8061 1 -16.85582899791473 10.54258846984895 -5.894629298432365 1 0 0
8062 1 -16.85299684806473 13.03393918384894 -0.9188852736323652 1 0 0
8063 1 -16.85299684806473 13.03393918384894 -3.407190250232365 1 0 0
8064 1 -16.85299684806473 13.03393918384894 -5.895480297032366 1 0 0
8065 1 -18.64360518756473 1.650906582848947 5.438805828567634 1 0 0
8066 1 18.21749924708527 0.5796705038489591 6.800224430967633 0 0 0
8067 1 18.21749924708527 0.5796705038489591 4.311919454367633 0 0 0
8068 1 -18.64360518756473 1.650906582848947 -7.002699645692366 1 0 1
8069 1 -18.62066903556473 4.268738197848947 -7.110262882772366 1 0 1
8070 1 18.38723452058527 3.050893608848952 6.591252020367635 0 0 0
8071 1 -18.64360518756473 1.650906582848947 0.4621958753676347 1 0 0
8072 1 18.21749924708527 0.5796705038489591 1.823629407567633 0 0 0
8073 1 18.21749924708527 0.5796705038489591 -0.6646755690323651 0 0 0
8074 1 -18.64360518756473 1.650906582848947 2.950500851967634 1 0 0
8075 1 -18.62066903556473 4.268738197848947 2.842931642967635 1 0 0
8076 1 18.38723452058527 3.050893608848952 4.102961973567634 0 0 0
8077 1 18.38723452058527 3.050893608848952 1.614656996967636 0 0 0
8078 1 -18.62066903556473 4.268738197848947 5.331236619567635 1 0 0
8079 1 -18.61809646716473 6.795622838848956 5.309976584367634 1 0 0
8080 1 18.37960205108527 5.555911217848958 6.559063371567634 0 0 0
8081 1 18.37960205108527 5.555911217848958 4.070758394967633 0 0 0
8082 1 -18.61809646716473 6.795622838848956 -7.131528889892365 1 0 1
8083 1 -18.61520232771473 9.296913112848969 -7.137345539972365 1 0 1
8084 1 18.37305439958527 8.053474156848964 6.550045772367634 0 0 0
8085 1 -18.64360518756473 1.650906582848947 -4.514399148032366 1 0 0
8086 1 18.21749924708527 0.5796705038489591 -3.152980545632365 0 0 0
8087 1 18.21749924708527 0.5796705038489591 -5.641270592432366 0 0 0
8088 1 -18.64360518756473 1.650906582848947 -2.026094171432366 1 0 0
8089 1 -18.62066903556473 4.268738197848947 -2.133663380432366 1 0 0
8090 1 18.38723452058527 3.050893608848952 -0.8736479796323655 0 0 0
8091 1 18.38723452058527 3.050893608848952 -3.361938026432366 0 0 0
8092 1 -18.62066903556473 4.268738197848947 0.3546415961676344 1 0 0
8093 1 -18.61809646716473 6.795622838848956 0.3333666311676344 1 0 0
8094 1 18.37960205108527 5.555911217848958 1.582453418367633 0 0 0
8095 1 18.37960205108527 5.555911217848958 -0.9058366284323656 0 0 0
8096 1 -18.61809646716473 6.795622838848956 2.821671607767636 1 0 0
8097 1 -18.61520232771473 9.296913112848969 2.815848985767635 1 0 0
8098 1 18.37305439958527 8.053474156848964 4.061740795767635 0 0 0
8099 1 18.37305439958527 8.053474156848964 1.573435819167635 0 0 0
8100 1 -18.61520232771473 9.296913112848969 5.304153962367636 1 0 0
8101 1 -18.61317991701473 11.79000324984894 5.302377316167636 1 0 0
8102 1 18.37142717258527 10.54656429384896 6.547164320967633 0 0 0
8103 1 18.37142717258527 10.54656429384896 4.058859344367635 0 0 0
8104 1 -18.61317991701473 11.79000324984894 -7.139129651072365 1 0 1
8105 1 18.37107848108527 13.03716954084895 6.546164024367634 0 0 0
8106 1 18.38723452058527 3.050893608848952 -5.850243003032366 0 0 0
8107 1 -18.62066903556473 4.268738197848947 -4.621968357032365 1 0 0
8108 1 -18.61809646716473 6.795622838848956 -4.643228392232366 1 0 0
8109 1 18.37960205108527 5.555911217848958 -3.394141605032366 0 0 0
8110 1 18.37960205108527 5.555911217848958 -5.882446581632365 0 0 0
8111 1 -18.61809646716473 6.795622838848956 -2.154923415632366 1 0 0
8112 1 -18.61520232771473 9.296913112848969 -2.160746037632366 1 0 0
8113 1 18.37305439958527 8.053474156848964 -0.9148542276323655 0 0 0
8114 1 18.37305439958527 8.053474156848964 -3.403159204232366 0 0 0
8115 1 -18.61520232771473 9.296913112848969 0.327558938967635 1 0 0
8116 1 -18.61317991701473 11.79000324984894 0.3257673629676345 1 0 0
8117 1 18.37142717258527 10.54656429384896 1.570554367767635 0 0 0
8118 1 18.37142717258527 10.54656429384896 -0.9177356790323659 0 0 0
8119 1 -18.61317991701473 11.79000324984894 2.814072339567636 1 0 0
8120 1 18.37107848108527 13.03716954084895 4.057859047767634 0 0 0
8121 1 18.37107848108527 13.03716954084895 1.569554071167634 0 0 0
8122 1 18.37305439958527 8.053474156848964 -5.891464180832366 0 0 0
8123 1 -18.61520232771473 9.296913112848969 -4.649051014232366 1 0 0
8124 1 -18.61317991701473 11.79000324984894 -4.650827660432366 1 0 0
8125 1 18.37142717258527 10.54656429384896 -3.406040655632366 0 0 0
8126 1 18.37142717258527 10.54656429384896 -5.894345632232366 0 0 0
8127 1 -18.61317991701473 11.79000324984894 -2.162522683832366 1 0 0
8128 1 18.37107848108527 13.03716954084895 -0.918735975632365 0 0 0
8129 1 18.37107848108527 13.03716954084895 -3.407040952232365 0 0 0
8130 1 18.37107848108527 13.03716954084895 -5.895345928832366 0 0 0
8131 1 16.56268687508527 1.892934868848954 5.362917655167633 0 0 0
8132 1 14.85863151458527 0.6651507198489526 6.536190917967634 0 0 0
8133 1 14.85863151458527 0.6651507198489526 4.047900871167634 0 0 0
8134 1 16.56268687508527 1.892934868848954 -7.078583340152366 0 0 1
8135 1 16.61758641458527 4.332102892848965 -7.126513970072366 0 0 1
8136 1 14.81663356058527 3.138113247848949 6.548448283767634 0 0 0
8137 1 16.56268687508527 1.892934868848954 0.3863226317676345 0 0 0
8138 1 14.85863151458527 0.6651507198489526 1.559595894567634 0 0 0
8139 1 14.85863151458527 0.6651507198489526 -0.9287090820323654 0 0 0
8140 1 16.56268687508527 1.892934868848954 2.874612678567633 0 0 0
8141 1 16.61758641458527 4.332102892848965 2.826688020567635 0 0 0
8142 1 14.81663356058527 3.138113247848949 4.060158236967634 0 0 0
8143 1 14.81663356058527 3.138113247848949 1.571853260367634 0 0 0
8144 1 16.61758641458527 4.332102892848965 5.314978067367635 0 0 0
8145 1 16.61638536608527 6.814756491848968 5.306647238967633 0 0 0
8146 1 14.84476134158527 5.590202699848945 6.547642074567634 0 0 0
8147 1 14.84476134158527 5.590202699848945 4.059352027767634 0 0 0
8148 1 16.61638536608527 6.814756491848968 -7.134850770392366 0 0 1
8149 1 16.61320839908527 9.304367782848956 -7.138026338852366 0 0 1
8150 1 14.85142522358527 8.066644073848963 6.547134461367634 0 0 0
8151 1 16.56268687508527 1.892934868848954 -4.590287321432366 0 0 0
8152 1 14.85863151458527 0.6651507198489526 -3.416999128832366 0 0 0
8153 1 14.85863151458527 0.6651507198489526 -5.905304105432366 0 0 0
8154 1 16.56268687508527 1.892934868848954 -2.101982344832365 0 0 0
8155 1 16.61758641458527 4.332102892848965 -2.149921932632366 0 0 0
8156 1 14.81663356058527 3.138113247848949 -0.9164517162323662 0 0 0
8157 1 14.81663356058527 3.138113247848949 -3.404741763032366 0 0 0
8158 1 16.61758641458527 4.332102892848965 0.3383830439676343 0 0 0
8159 1 16.61638536608527 6.814756491848968 0.3300522155676333 0 0 0
8160 1 14.84476134158527 5.590202699848945 1.571047051167634 0 0 0
8161 1 14.84476134158527 5.590202699848945 -0.9172579254323656 0 0 0
8162 1 16.61638536608527 6.814756491848968 2.818357192167634 0 0 0
8163 1 16.61320839908527 9.304367782848956 2.815177144767633 0 0 0
8164 1 14.85142522358527 8.066644073848963 4.058844414567634 0 0 0
8165 1 14.85142522358527 8.066644073848963 1.570539437967634 0 0 0
8166 1 16.61320839908527 9.304367782848956 5.303467191567634 0 0 0
8167 1 16.61134871108527 11.79422756284897 5.302257877767635 0 0 0
8168 1 14.85099904508527 10.55252802984894 6.546432760767635 0 0 0
8169 1 14.85099904508527 10.55252802984894 4.058127784167635 0 0 0
8170 1 16.61134871108527 11.79422756284897 -7.139243117552366 0 0 1
8171 1 14.84968176608527 13.04015140884896 6.545969936967634 0 0 0
8172 1 14.81663356058527 3.138113247848949 -5.893046739632366 0 0 0
8173 1 16.61758641458527 4.332102892848965 -4.638211979432366 0 0 0
8174 1 16.61638536608527 6.814756491848968 -4.646542807832366 0 0 0
8175 1 14.84476134158527 5.590202699848945 -3.405547972232366 0 0 0
8176 1 14.84476134158527 5.590202699848945 -5.893852948832365 0 0 0
8177 1 16.61638536608527 6.814756491848968 -2.158252761032365 0 0 0
8178 1 16.61320839908527 9.304367782848956 -2.161432808432366 0 0 0
8179 1 14.85142522358527 8.066644073848963 -0.9177655386323655 0 0 0
8180 1 14.85142522358527 8.066644073848963 -3.406055585432365 0 0 0
8181 1 16.61320839908527 9.304367782848956 0.3268721681676352 0 0 0
8182 1 16.61134871108527 11.79422756284897 0.3256628543676348 0 0 0
8183 1 14.85099904508527 10.55252802984894 1.569837737367633 0 0 0
8184 1 14.85099904508527 10.55252802984894 -0.9184672392323661 0 0 0
8185 1 16.61134871108527 11.79422756284897 2.813952901167635 0 0 0
8186 1 14.84968176608527 13.04015140884896 4.057664960367633 0 0 0
8187 1 14.84968176608527 13.04015140884896 1.569374913567634 0 0 0
8188 1 14.85142522358527 8.066644073848963 -5.894360562032366 0 0 0
8189 1 16.61320839908527 9.304367782848956 -4.649722855232366 0 0 0
8190 1 16.61134871108527 11.79422756284897 -4.650947098832366 0 0 0
8191 1 14.85099904508527 10.55252802984894 -3.406772215832365 0 0 0
8192 1 14.85099904508527 10.55252802984894 -5.895062262632366 0 0 0
8193 1 16.61134871108527 11.79422756284897 -2.162642122232366 0 0 0
8194 1 14.84968176608527 13.04015140884896 -0.9189300630323656 0 0 0
8195 1 14.84968176608527 13.04015140884896 -3.407235039632365 0 0 0
8196 1 14.84968176608527 13.04015140884896 -5.895525086432366 0 0 0
8197 1 13.08816979508527 1.818636657848941 5.242986571767634 0 0 0
8198 1 11.31193529408527 0.590355530848953 6.253271207967634 0 0 0
8199 1 11.31193529408527 0.590355530848953 3.764966231367634 0 0 0
8200 1 13.08816979508527 1.818636657848941 -7.198515916532366 0 0 1
8201 1 13.06647343508527 4.339557562848952 -7.149808937012366 0 0 1
8202 1 11.32751018108527 3.087918469848944 6.508167683367635 0 0 0
8203 1 13.08816979508527 1.818636657848941 0.2663915483676345 0 0 0
8204 1 11.31193529408527 0.590355530848953 1.276661254767633 0 0 0
8205 1 11.31193529408527 0.590355530848953 -1.211628792032366 0 0 0
8206 1 13.08816979508527 1.818636657848941 2.754681595167634 0 0 0
8207 1 13.06647343508527 4.339557562848952 2.803397532567635 0 0 0
8208 1 11.32751018108527 3.087918469848944 4.019877636567635 0 0 0
8209 1 11.32751018108527 3.087918469848944 1.531572659967635 0 0 0
8210 1 13.06647343508527 4.339557562848952 5.291687579367634 0 0 0
8211 1 13.08340434458527 6.827926408848938 5.300122916367634 0 0 0
8212 1 11.32057509458527 5.588711765848942 6.537400231767634 0 0 0
8213 1 11.32057509458527 5.588711765848942 4.049110184967635 0 0 0
8214 1 13.08340434458527 6.827926408848938 -7.141370614052366 0 0 1
8215 1 13.08805356458527 9.312070941848944 -7.139789548232366 0 0 1
8216 1 11.32328713958527 8.072607809848947 6.544178360967633 0 0 0
8217 1 13.08816979508527 1.818636657848941 -4.710218404832366 0 0 0
8218 1 11.31193529408527 0.590355530848953 -3.699933768632366 0 0 0
8219 1 11.31193529408527 0.590355530848953 -6.188232773312365 0 0 0
8220 1 13.08816979508527 1.818636657848941 -2.221913428232366 0 0 0
8221 1 13.06647343508527 4.339557562848952 -2.173212420632366 0 0 0
8222 1 11.32751018108527 3.087918469848944 -0.9567323166323654 0 0 0
8223 1 11.32751018108527 3.087918469848944 -3.445022363432366 0 0 0
8224 1 13.06647343508527 4.339557562848952 0.3150925559676345 0 0 0
8225 1 13.08340434458527 6.827926408848938 0.3235278929676353 0 0 0
8226 1 11.32057509458527 5.588711765848942 1.560805208367634 0 0 0
8227 1 11.32057509458527 5.588711765848942 -0.9274997682323658 0 0 0
8228 1 13.08340434458527 6.827926408848938 2.811832869567633 0 0 0
8229 1 13.08805356458527 9.312070941848944 2.813415428367634 0 0 0
8230 1 11.32328713958527 8.072607809848947 4.055888314167634 0 0 0
8231 1 11.32328713958527 8.072607809848947 1.567583337567633 0 0 0
8232 1 13.08805356458527 9.312070941848944 5.301705475167633 0 0 0
8233 1 13.08809230808527 11.79795489784895 5.301735334767635 0 0 0
8234 1 11.32491436658527 10.55650385384895 6.545507113167634 0 0 0
8235 1 11.32491436658527 10.55650385384895 4.057202136567634 0 0 0
8236 1 13.08809230808527 11.79795489784895 -7.139764167572366 0 0 1
8237 1 11.32526305808527 13.04238780984896 6.545626551567635 0 0 0
8238 1 11.32751018108527 3.087918469848944 -5.933327340032366 0 0 0
8239 1 13.06647343508527 4.339557562848952 -4.661502467432365 0 0 0
8240 1 13.08340434458527 6.827926408848938 -4.653067130432365 0 0 0
8241 1 11.32057509458527 5.588711765848942 -3.415789815032366 0 0 0
8242 1 11.32057509458527 5.588711765848942 -5.904094791632366 0 0 0
8243 1 13.08340434458527 6.827926408848938 -2.164777083632366 0 0 0
8244 1 13.08805356458527 9.312070941848944 -2.163194524832366 0 0 0
8245 1 11.32328713958527 8.072607809848947 -0.9207216390323651 0 0 0
8246 1 11.32328713958527 8.072607809848947 -3.409011685832366 0 0 0
8247 1 13.08805356458527 9.312070941848944 0.3251104517676344 0 0 0
8248 1 13.08809230808527 11.79795489784895 0.325140311367635 0 0 0
8249 1 11.32491436658527 10.55650385384895 1.568897159967634 0 0 0
8250 1 11.32491436658527 10.55650385384895 -0.919392886832366 0 0 0
8251 1 13.08809230808527 11.79795489784895 2.813430358167635 0 0 0
8252 1 11.32526305808527 13.04238780984896 4.057336504767635 0 0 0
8253 1 11.32526305808527 13.04238780984896 1.569031528167635 0 0 0
8254 1 11.32328713958527 8.072607809848947 -5.897316662432366 0 0 0
8255 1 13.08805356458527 9.312070941848944 -4.651484571632366 0 0 0
8256 1 13.08809230808527 11.79795489784895 -4.651469641832366 0 0 0
8257 1 11.32491436658527 10.55650385384895 -3.407697863432365 0 0 0
8258 1 11.32491436658527 10.55650385384895 -5.896002840032366 0 0 0
8259 1 13.08809230808527 11.79795489784895 -2.163164665232366 0 0 0
8260 1 11.32526305808527 13.04238780984896 -0.9192734484323664 0 0 0
8261 1 11.32526305808527 13.04238780984896 -3.407563495232366 0 0 0
8262 1 11.32526305808527 13.04238780984896 -5.895868471832365 0 0 0
8263 1 9.57060868658527 1.818885146848942 5.186880383367635 0 0 0
8264 1 7.830793075585273 0.6417927538489465 6.370529857167634 0 0 0
8265 1 7.830793075585273 0.6417927538489465 3.882224880567634 0 0 0
8266 1 9.57060868658527 1.818885146848942 -7.254616133012366 0 0 1
8267 1 9.576226494085269 4.330611958848934 -7.158839973032366 0 0 1
8268 1 7.821068457085271 3.117240171848948 6.517095703767634 0 0 0
8269 1 9.57060868658527 1.818885146848942 0.2102853599676342 0 0 0
8270 1 7.830793075585273 0.6417927538489465 1.393919903967634 0 0 0
8271 1 7.830793075585273 0.6417927538489465 -1.094370142832365 0 0 0
8272 1 9.57060868658527 1.818885146848942 2.698590336567634 0 0 0
8273 1 9.576226494085269 4.330611958848934 2.794365003567636 0 0 0
8274 1 7.821068457085271 3.117240171848948 4.028790727167634 0 0 0
8275 1 7.821068457085271 3.117240171848948 1.540485750567633 0 0 0
8276 1 9.576226494085269 4.330611958848934 5.282655050367635 0 0 0
8277 1 9.562705012585269 6.826683963848936 5.297062307367634 0 0 0
8278 1 7.80661713158527 5.585729897848964 6.538863352167633 0 0 0
8279 1 7.80661713158527 5.585729897848964 4.050558375567634 0 0 0
8280 1 9.562705012585269 6.826683963848936 -7.144437194972366 0 0 1
8281 1 9.56123275958527 9.313561875848947 -7.140930184952365 0 0 1
8282 1 7.799682045085273 8.069128963848939 6.543790186167634 0 0 0
8283 1 9.57060868658527 1.818885146848942 -4.766309663432366 0 0 0
8284 1 7.830793075585273 0.6417927538489465 -3.582675119432365 0 0 0
8285 1 7.830793075585273 0.6417927538489465 -6.070974124112366 0 0 0
8286 1 9.57060868658527 1.818885146848942 -2.278019616632366 0 0 0
8287 1 9.576226494085269 4.330611958848934 -2.182244949632366 0 0 0
8288 1 7.821068457085271 3.117240171848948 -0.9478042962323663 0 0 0
8289 1 7.821068457085271 3.117240171848948 -3.436109272832366 0 0 0
8290 1 9.576226494085269 4.330611958848934 0.3060600269676348 0 0 0
8291 1 9.562705012585269 6.826683963848936 0.320467283967635 0 0 0
8292 1 7.80661713158527 5.585729897848964 1.562268328767633 0 0 0
8293 1 7.80661713158527 5.585729897848964 -0.9260366478323654 0 0 0
8294 1 9.562705012585269 6.826683963848936 2.808757330767635 0 0 0
8295 1 9.56123275958527 9.313561875848947 2.812265833767635 0 0 0
8296 1 7.799682045085273 8.069128963848939 4.055500139367634 0 0 0
8297 1 7.799682045085273 8.069128963848939 1.567195162767634 0 0 0
8298 1 9.56123275958527 9.313561875848947 5.300570810367635 0 0 0
8299 1 9.562278834085269 11.79944583184896 5.301257581167635 0 0 0
8300 1 7.799488327585269 10.55575838684898 6.545059219167634 0 0 0
8301 1 7.799488327585269 10.55575838684898 4.056769172367634 0 0 0
8302 1 9.562278834085269 11.79944583184896 -7.140243414152366 0 0 1
8303 1 7.800340684585269 13.04263629884893 6.545357815167634 0 0 0
8304 1 7.821068457085271 3.117240171848948 -5.924414249432366 0 0 0
8305 1 9.576226494085269 4.330611958848934 -4.670534996432366 0 0 0
8306 1 9.562705012585269 6.826683963848936 -4.656142669232366 0 0 0
8307 1 7.80661713158527 5.585729897848964 -3.414341624432366 0 0 0
8308 1 7.80661713158527 5.585729897848964 -5.902631671232366 0 0 0
8309 1 9.562705012585269 6.826683963848936 -2.167837692632366 0 0 0
8310 1 9.56123275958527 9.313561875848947 -2.164329189632365 0 0 0
8311 1 7.799682045085273 8.069128963848939 -0.9211098138323655 0 0 0
8312 1 7.799682045085273 8.069128963848939 -3.409399860632366 0 0 0
8313 1 9.56123275958527 9.313561875848947 0.323975786967635 0 0 0
8314 1 9.562278834085269 11.79944583184896 0.3246625577676348 0 0 0
8315 1 7.799488327585269 10.55575838684898 1.568464195767634 0 0 0
8316 1 7.799488327585269 10.55575838684898 -0.9198407808323656 0 0 0
8317 1 9.562278834085269 11.79944583184896 2.812952604567634 0 0 0
8318 1 7.800340684585269 13.04263629884893 4.057052838567634 0 0 0
8319 1 7.800340684585269 13.04263629884893 1.568762791767634 0 0 0
8320 1 7.799682045085273 8.069128963848939 -5.897704837232366 0 0 0
8321 1 9.56123275958527 9.313561875848947 -4.652634166232366 0 0 0
8322 1 9.562278834085269 11.79944583184896 -4.651947395432366 0 0 0
8323 1 7.799488327585269 10.55575838684898 -3.408130827632365 0 0 0
8324 1 7.799488327585269 10.55575838684898 -5.896435804232366 0 0 0
8325 1 9.562278834085269 11.79944583184896 -2.163642418832366 0 0 0
8326 1 7.800340684585269 13.04263629884893 -0.9195421848323653 0 0 0
8327 1 7.800340684585269 13.04263629884893 -3.407847161432366 0 0 0
8328 1 7.800340684585269 13.04263629884893 -5.896137208232366 0 0 0
8329 1 6.064748115085269 1.861128276848945 5.287865550567634 0 0 0
8330 1 4.322220459085269 0.6480049788489595 6.662825481567635 0 0 0
8331 1 4.322220459085269 0.6480049788489595 4.174535434767634 0 0 0
8332 1 6.064748115085269 1.861128276848945 -7.153627979852366 0 0 1
8333 1 6.040998349585273 4.332599870848938 -7.145270277812366 0 0 1
8334 1 4.27018793858527 3.094379183848957 6.556883620767634 0 0 0
8335 1 6.064748115085269 1.861128276848945 0.3112705271676344 0 0 0
8336 1 4.322220459085269 0.6480049788489595 1.686230458167634 0 0 0
8337 1 4.322220459085269 0.6480049788489595 -0.8020745184323657 0 0 0
8338 1 6.064748115085269 1.861128276848945 2.799575503767635 0 0 0
8339 1 6.040998349585273 4.332599870848938 2.807936191767634 0 0 0
8340 1 4.27018793858527 3.094379183848957 4.068578644167635 0 0 0
8341 1 4.27018793858527 3.094379183848957 1.580273667567635 0 0 0
8342 1 6.040998349585273 4.332599870848938 5.296226238567634 0 0 0
8343 1 6.03890620058527 6.81972627184895 5.299824320367634 0 0 0
8344 1 4.275185850085272 5.574547892848969 6.547567425567633 0 0 0
8345 1 4.275185850085272 5.574547892848969 4.059262448967635 0 0 0
8346 1 6.03890620058527 6.81972627184895 -7.141676674952365 0 0 1
8347 1 6.03828630458527 9.309337562848967 -7.140812239532366 0 0 1
8348 1 4.278401560585269 8.062916738848955 6.545357815167634 0 0 0
8349 1 6.064748115085269 1.861128276848945 -4.665324496232365 0 0 0
8350 1 4.322220459085269 0.6480049788489595 -3.290364565232365 0 0 0
8351 1 4.322220459085269 0.6480049788489595 -5.778669541832365 0 0 0
8352 1 6.064748115085269 1.861128276848945 -2.177034449432365 0 0 0
8353 1 6.040998349585273 4.332599870848938 -2.168673761432366 0 0 0
8354 1 4.27018793858527 3.094379183848957 -0.9080163792323654 0 0 0
8355 1 4.27018793858527 3.094379183848957 -3.396321355832366 0 0 0
8356 1 6.040998349585273 4.332599870848938 0.3196312151676342 0 0 0
8357 1 6.03890620058527 6.81972627184895 0.3232292969676349 0 0 0
8358 1 4.275185850085272 5.574547892848969 1.570972402167634 0 0 0
8359 1 4.275185850085272 5.574547892848969 -0.9173325744323657 0 0 0
8360 1 6.03890620058527 6.81972627184895 2.811519343767635 0 0 0
8361 1 6.03828630458527 9.309337562848967 2.812385272167635 0 0 0
8362 1 4.278401560585269 8.062916738848955 4.057067768367634 0 0 0
8363 1 4.278401560585269 8.062916738848955 1.568762791767634 0 0 0
8364 1 6.03828630458527 9.309337562848967 5.300690248767635 0 0 0
8365 1 6.038363791585269 11.79795489784895 5.301033634167634 0 0 0
8366 1 4.277704177585271 10.55227954084894 6.545089078767633 0 0 0
8367 1 4.277704177585271 10.55227954084894 4.056784102167635 0 0 0
8368 1 6.038363791585269 11.79795489784895 -7.140468854132366 0 0 1
8369 1 4.277123025085274 13.04064838684893 6.545193587367635 0 0 0
8370 1 4.27018793858527 3.094379183848957 -5.884626332432366 0 0 0
8371 1 6.040998349585273 4.332599870848938 -4.656963808232366 0 0 0
8372 1 6.03890620058527 6.81972627184895 -4.653380656232366 0 0 0
8373 1 4.275185850085272 5.574547892848969 -3.405637551032366 0 0 0
8374 1 4.275185850085272 5.574547892848969 -5.893927597832366 0 0 0
8375 1 6.03890620058527 6.81972627184895 -2.165075679632365 0 0 0
8376 1 6.03828630458527 9.309337562848967 -2.164209751232366 0 0 0
8377 1 4.278401560585269 8.062916738848955 -0.9195421848323653 0 0 0
8378 1 4.278401560585269 8.062916738848955 -3.407832231632366 0 0 0
8379 1 6.03828630458527 9.309337562848967 0.3240952253676346 0 0 0
8380 1 6.038363791585269 11.79795489784895 0.3244236809676346 0 0 0
8381 1 4.277704177585271 10.55227954084894 1.568479125567634 0 0 0
8382 1 4.277704177585271 10.55227954084894 -0.919810921232366 0 0 0
8383 1 6.038363791585269 11.79795489784895 2.812728657567634 0 0 0
8384 1 4.277123025085274 13.04064838684893 4.056888610767635 0 0 0
8385 1 4.277123025085274 13.04064838684893 1.568583634167634 0 0 0
8386 1 4.278401560585269 8.062916738848955 -5.896137208232366 0 0 0
8387 1 6.03828630458527 9.309337562848967 -4.652514727832365 0 0 0
8388 1 6.038363791585269 11.79795489784895 -4.652171342432366 0 0 0
8389 1 4.277704177585271 10.55227954084894 -3.408115897832366 0 0 0
8390 1 4.277704177585271 10.55227954084894 -5.896420874432366 0 0 0
8391 1 6.038363791585269 11.79795489784895 -2.163866365832366 0 0 0
8392 1 4.277123025085274 13.04064838684893 -0.9197064126323662 0 0 0
8393 1 4.277123025085274 13.04064838684893 -3.408011389232366 0 0 0
8394 1 4.277123025085274 13.04064838684893 -5.896316365832366 0 0 0
8395 1 2.519407917085271 1.756265918848968 5.389656926967634 0 0 0
8396 1 2.519407917085271 1.756265918848968 -7.051850040272366 0 0 1
8397 1 2.517044563585269 4.304272124848964 -7.126149682952366 0 0 1
8398 1 2.519407917085271 1.756265918848968 0.413046973767635 0 0 0
8399 1 2.519407917085271 1.756265918848968 2.901351950367633 0 0 0
8400 1 2.517044563585269 4.304272124848964 2.827046335767635 0 0 0
8401 1 2.517044563585269 4.304272124848964 5.315351312367634 0 0 0
8402 1 2.520376504585272 6.812023112848962 5.303437331967634 0 0 0
8403 1 2.520376504585272 6.812023112848962 -7.138056198452365 0 0 1
8404 1 2.51843932958527 9.305113249848958 -7.140353894672366 0 0 1
8405 1 2.519407917085271 1.756265918848968 -4.563548049632366 0 0 0
8406 1 2.519407917085271 1.756265918848968 -2.075243073032365 0 0 0
8407 1 2.517044563585269 4.304272124848964 -2.149548687632366 0 0 0
8408 1 2.517044563585269 4.304272124848964 0.3387562889676339 0 0 0
8409 1 2.520376504585272 6.812023112848962 0.3268423085676346 0 0 0
8410 1 2.520376504585272 6.812023112848962 2.815147285167635 0 0 0
8411 1 2.51843932958527 9.305113249848958 2.812848095967635 0 0 0
8412 1 2.51843932958527 9.305113249848958 5.301153072567635 0 0 0
8413 1 2.516502154585272 11.79472454084895 5.300914195767634 0 0 0
8414 1 2.516502154585272 11.79472454084895 -7.140580827632366 0 0 1
8415 1 2.517044563585269 4.304272124848964 -4.637853664232366 0 0 0
8416 1 2.520376504585272 6.812023112848962 -4.649752714832365 0 0 0
8417 1 2.520376504585272 6.812023112848962 -2.161462668032366 0 0 0
8418 1 2.51843932958527 9.305113249848958 -2.163746927432365 0 0 0
8419 1 2.51843932958527 9.305113249848958 0.3245431193676342 0 0 0
8420 1 2.516502154585272 11.79472454084895 0.3243191723676349 0 0 0
8421 1 2.516502154585272 11.79472454084895 2.812624148967634 0 0 0
8422 1 2.51843932958527 9.305113249848958 -4.652051904032366 0 0 0
8423 1 2.516502154585272 11.79472454084895 -4.652275851032366 0 0 0
8424 1 2.516502154585272 11.79472454084895 -2.163985804232365 0 0 0
8425 1 -16.85192752746473 15.52429594184896 6.545701200567635 1 0 0
8426 1 -16.85192752746473 15.52429594184896 4.057396223967634 1 0 0
8427 1 -16.85165632296473 18.01415572184895 6.545551902567635 1 0 0
8428 1 -16.85192752746473 15.52429594184896 1.569091247367634 1 0 0
8429 1 -16.85192752746473 15.52429594184896 -0.9191987994323654 1 0 0
8430 1 -16.85165632296473 18.01415572184895 4.057261855767633 1 0 0
8431 1 -16.85165632296473 18.01415572184895 1.568956879167633 1 0 0
8432 1 -16.85173768431473 20.50376701284894 6.545492183367633 1 0 0
8433 1 -16.85173768431473 20.50376701284894 4.057202136567634 1 0 0
8434 1 -16.85195852226473 22.99312981484896 6.545462323767634 1 0 0
8435 1 -16.85192752746473 15.52429594184896 -3.407503776032366 1 0 0
8436 1 -16.85192752746473 15.52429594184896 -5.895808752632366 1 0 0
8437 1 -16.85165632296473 18.01415572184895 -0.9193480974323656 1 0 0
8438 1 -16.85165632296473 18.01415572184895 -3.407638144232365 1 0 0
8439 1 -16.85173768431473 20.50376701284894 1.568897159967634 1 0 0
8440 1 -16.85173768431473 20.50376701284894 -0.9194078166323658 1 0 0
8441 1 -16.85195852226473 22.99312981484896 4.057172276967634 1 0 0
8442 1 -16.85195852226473 22.99312981484896 1.568867300367634 1 0 0
8443 1 -16.85221035501473 25.48249261684894 6.545447393967635 1 0 0
8444 1 -16.85221035501473 25.48249261684894 4.057157347167633 1 0 0
8445 1 -16.85165632296473 18.01415572184895 -5.895943120832365 1 0 0
8446 1 -16.85173768431473 20.50376701284894 -3.407697863432365 1 0 0
8447 1 -16.85173768431473 20.50376701284894 -5.896002840032366 1 0 0
8448 1 -16.85195852226473 22.99312981484896 -0.9194376762323655 1 0 0
8449 1 -16.85195852226473 22.99312981484896 -3.407727723032365 1 0 0
8450 1 -16.85221035501473 25.48249261684894 1.568852370567635 1 0 0
8451 1 -16.85221035501473 25.48249261684894 -0.9194526060323653 1 0 0
8452 1 -16.85195852226473 22.99312981484896 -5.896032699632366 1 0 0
8453 1 -16.85221035501473 25.48249261684894 -3.407742652832366 1 0 0
8454 1 -16.85221035501473 25.48249261684894 -5.896047629432366 1 0 0
8455 1 -18.61232756001473 14.28060849684896 -7.139750730752366 1 0 1
8456 1 -18.61232756001473 14.28060849684896 2.813445287967633 1 0 0
8457 1 -18.61232756001473 14.28060849684896 5.301750264567634 1 0 0
8458 1 -18.61219195776473 16.77021978784894 5.301496457967636 1 0 0
8459 1 18.37080727658526 15.52678083184894 6.545760919767634 0 0 0
8460 1 18.37080727658526 15.52678083184894 4.057470872967635 0 0 0
8461 1 -18.61219195776473 16.77021978784894 -7.140000058412365 1 0 1
8462 1 -18.61238180091473 19.25958258984893 -7.140110538932365 1 0 1
8463 1 18.37041984158527 18.01589514484895 6.545596691967635 0 0 0
8464 1 -18.61232756001473 14.28060849684896 -2.163149735432365 1 0 0
8465 1 -18.61232756001473 14.28060849684896 0.3251552411676339 1 0 0
8466 1 -18.61219195776473 16.77021978784894 0.3249014345676349 1 0 0
8467 1 18.37080727658526 15.52678083184894 1.569165896367634 0 0 0
8468 1 18.37080727658526 15.52678083184894 -0.9191390802323651 0 0 0
8469 1 -18.61219195776473 16.77021978784894 2.813206411167634 1 0 0
8470 1 -18.61238180091473 19.25958258984893 2.813086972767636 1 0 0
8471 1 18.37041984158527 18.01589514484895 4.057291715367635 0 0 0
8472 1 18.37041984158527 18.01589514484895 1.569001668567635 0 0 0
8473 1 -18.61238180091473 19.25958258984893 5.301391949367636 1 0 0
8474 1 -18.61269174891473 21.74894539184898 5.301332230167635 1 0 0
8475 1 18.36999366308527 20.50476096884894 6.545522042967635 0 0 0
8476 1 18.36999366308527 20.50476096884894 4.057217066367635 0 0 0
8477 1 -18.61269174891473 21.74894539184898 -7.140161300252366 1 0 1
8478 1 -18.61302106866473 24.23805970484896 -7.140186680912366 1 0 1
8479 1 18.36960622808527 22.99362679284896 6.545477253567634 0 0 0
8480 1 -18.61232756001473 14.28060849684896 -4.651454712032366 1 0 0
8481 1 -18.61219195776473 16.77021978784894 -4.651693588832366 1 0 0
8482 1 18.37080727658526 15.52678083184894 -3.407429127032366 0 0 0
8483 1 18.37080727658526 15.52678083184894 -5.895734103632366 0 0 0
8484 1 -18.61219195776473 16.77021978784894 -2.163403542032365 1 0 0
8485 1 -18.61238180091473 19.25958258984893 -2.163508050632366 1 0 0
8486 1 18.37041984158527 18.01589514484895 -0.919303308032366 0 0 0
8487 1 18.37041984158527 18.01589514484895 -3.407608284632365 0 0 0
8488 1 -18.61238180091473 19.25958258984893 0.3247969259676351 1 0 0
8489 1 -18.61269174891473 21.74894539184898 0.3247372067676348 1 0 0
8490 1 18.36999366308527 20.50476096884894 1.568912089767634 0 0 0
8491 1 18.36999366308527 20.50476096884894 -0.9193779570323652 0 0 0
8492 1 -18.61269174891473 21.74894539184898 2.813042183367633 1 0 0
8493 1 -18.61302106866473 24.23805970484896 2.813012323767634 1 0 0
8494 1 18.36960622808527 22.99362679284896 4.057172276967634 0 0 0
8495 1 18.36960622808527 22.99362679284896 1.568882230167635 0 0 0
8496 1 -18.61302106866473 24.23805970484896 5.301317300367634 1 0 0
8497 1 -18.61331551926473 26.72717401784895 5.301302370567635 1 0 0
8498 1 18.36925753658527 25.48274110584897 6.545462323767634 0 0 0
8499 1 18.36925753658527 25.48274110584897 4.057157347167633 0 0 0
8500 1 -18.61331551926473 26.72717401784895 -7.140198624752366 1 0 1
8501 1 18.37041984158527 18.01589514484895 -5.895898331432366 0 0 0
8502 1 -18.61238180091473 19.25958258984893 -4.651813027232365 1 0 0
8503 1 -18.61269174891473 21.74894539184898 -4.651857816632366 1 0 0
8504 1 18.36999366308527 20.50476096884894 -3.407682933632366 0 0 0
8505 1 18.36999366308527 20.50476096884894 -5.895987910232366 0 0 0
8506 1 -18.61269174891473 21.74894539184898 -2.163567769832366 1 0 0
8507 1 -18.61302106866473 24.23805970484896 -2.163582699632365 1 0 0
8508 1 18.36960622808527 22.99362679284896 -0.9194227464323657 0 0 0
8509 1 18.36960622808527 22.99362679284896 -3.407727723032365 0 0 0
8510 1 -18.61302106866473 24.23805970484896 0.3247073471676343 1 0 0
8511 1 -18.61331551926473 26.72717401784895 0.3247073471676343 1 0 0
8512 1 18.36925753658527 25.48274110584897 1.568852370567635 0 0 0
8513 1 18.36925753658527 25.48274110584897 -0.9194376762323655 0 0 0
8514 1 -18.61331551926473 26.72717401784895 2.812997393967635 1 0 0
8515 1 18.36960622808527 22.99362679284896 -5.896017769832365 0 0 0
8516 1 -18.61302106866473 24.23805970484896 -4.651887676232366 1 0 0
8517 1 -18.61331551926473 26.72717401784895 -4.651902606032365 1 0 0
8518 1 18.36925753658527 25.48274110584897 -3.407742652832366 0 0 0
8519 1 18.36925753658527 25.48274110584897 -5.896047629432366 0 0 0
8520 1 -18.61331551926473 26.72717401784895 -2.163597629432366 1 0 0
8521 1 16.61030263658527 14.28334187584896 -7.139756702672366 0 0 1
8522 1 16.61030263658527 14.28334187584896 2.813445287967633 0 0 0
8523 1 16.61030263658527 14.28334187584896 5.301750264567634 0 0 0
8524 1 16.60960525358527 16.77195921084895 5.301511387767635 0 0 0
8525 1 14.84867443508527 15.52852025484894 6.545716130367635 0 0 0
8526 1 14.84867443508527 15.52852025484894 4.057411153767635 0 0 0
8527 1 16.60960525358527 16.77195921084895 -7.139991100532366 0 0 1
8528 1 16.60910158808527 19.26082503484896 -7.140103074032366 0 0 1
8529 1 14.84801579558527 18.01688910084896 6.545581762167634 0 0 0
8530 1 16.61030263658527 14.28334187584896 -2.163149735432365 0 0 0
8531 1 16.61030263658527 14.28334187584896 0.325140311367635 0 0 0
8532 1 16.60960525358527 16.77195921084895 0.3249163643676338 0 0 0
8533 1 14.84867443508527 15.52852025484894 1.569106177167635 0 0 0
8534 1 14.84867443508527 15.52852025484894 -0.9191838696323655 0 0 0
8535 1 16.60960525358527 16.77195921084895 2.813206411167634 0 0 0
8536 1 16.60910158808527 19.26082503484896 2.813101902567634 0 0 0
8537 1 14.84801579558527 18.01688910084896 4.057276785567634 0 0 0
8538 1 14.84801579558527 18.01688910084896 1.568971808967634 0 0 0
8539 1 16.60910158808527 19.26082503484896 5.301391949367636 0 0 0
8540 1 16.60863666608527 21.74944236984895 5.301347159967634 0 0 0
8541 1 14.84755087358527 20.50550643584897 6.545507113167634 0 0 0
8542 1 14.84755087358527 20.50550643584897 4.057202136567634 0 0 0
8543 1 16.60863666608527 21.74944236984895 -7.140156821312366 0 0 1
8544 1 16.60824923108527 24.23830819384897 -7.140183694952365 0 0 1
8545 1 14.84716343858527 22.99412377084896 6.545477253567634 0 0 0
8546 1 16.61030263658527 14.28334187584896 -4.651454712032366 0 0 0
8547 1 16.60960525358527 16.77195921084895 -4.651693588832366 0 0 0
8548 1 14.84867443508527 15.52852025484894 -3.407488846232366 0 0 0
8549 1 14.84867443508527 15.52852025484894 -5.895793822832366 0 0 0
8550 1 16.60960525358527 16.77195921084895 -2.163388612232366 0 0 0
8551 1 16.60910158808527 19.26082503484896 -2.163508050632366 0 0 0
8552 1 14.84801579558527 18.01688910084896 -0.9193182378323659 0 0 0
8553 1 14.84801579558527 18.01688910084896 -3.407623214432366 0 0 0
8554 1 16.60910158808527 19.26082503484896 0.3247969259676351 0 0 0
8555 1 16.60863666608527 21.74944236984895 0.3247372067676348 0 0 0
8556 1 14.84755087358527 20.50550643584897 1.568912089767634 0 0 0
8557 1 14.84755087358527 20.50550643584897 -0.919392886832366 0 0 0
8558 1 16.60863666608527 21.74944236984895 2.813042183367633 0 0 0
8559 1 16.60824923108527 24.23830819384897 2.813012323767634 0 0 0
8560 1 14.84716343858527 22.99412377084896 4.057172276967634 0 0 0
8561 1 14.84716343858527 22.99412377084896 1.568867300367634 0 0 0
8562 1 16.60824923108527 24.23830819384897 5.301317300367634 0 0 0
8563 1 16.60797802658527 26.72717401784895 5.301302370567635 0 0 0
8564 1 14.84685349058527 25.48274110584897 6.545462323767634 0 0 0
8565 1 14.84685349058527 25.48274110584897 4.057157347167633 0 0 0
8566 1 16.60797802658527 26.72717401784895 -7.140197131772366 0 0 1
8567 1 14.84801579558527 18.01688910084896 -5.895928191032366 0 0 0
8568 1 16.60910158808527 19.26082503484896 -4.651798097432366 0 0 0
8569 1 16.60863666608527 21.74944236984895 -4.651857816632366 0 0 0
8570 1 14.84755087358527 20.50550643584897 -3.407697863432365 0 0 0
8571 1 14.84755087358527 20.50550643584897 -5.895987910232366 0 0 0
8572 1 16.60863666608527 21.74944236984895 -2.163552840032366 0 0 0
8573 1 16.60824923108527 24.23830819384897 -2.163582699632365 0 0 0
8574 1 14.84716343858527 22.99412377084896 -0.9194227464323657 0 0 0
8575 1 14.84716343858527 22.99412377084896 -3.407727723032365 0 0 0
8576 1 16.60824923108527 24.23830819384897 0.324722276967635 0 0 0
8577 1 16.60797802658527 26.72717401784895 0.3247073471676343 0 0 0
8578 1 14.84685349058527 25.48274110584897 1.568852370567635 0 0 0
8579 1 14.84685349058527 25.48274110584897 -0.9194376762323655 0 0 0
8580 1 16.60797802658527 26.72717401784895 2.812997393967635 0 0 0
8581 1 14.84716343858527 22.99412377084896 -5.896032699632366 0 0 0
8582 1 16.60824923108527 24.23830819384897 -4.651887676232366 0 0 0
8583 1 16.60797802658527 26.72717401784895 -4.651902606032365 0 0 0
8584 1 14.84685349058527 25.48274110584897 -3.407742652832366 0 0 0
8585 1 14.84685349058527 25.48274110584897 -5.896047629432366 0 0 0
8586 1 16.60797802658527 26.72717401784895 -2.163597629432366 0 0 0
8587 1 13.08739492508527 14.28532978784894 -7.139931381332365 0 0 1
8588 1 13.08739492508527 14.28532978784894 2.813266130367635 0 0 0
8589 1 13.08739492508527 14.28532978784894 5.301571106967636 0 0 0
8590 1 13.08677502908527 16.77320165584895 5.301436738767634 0 0 0
8591 1 11.32510808408527 15.52976269984894 6.545566832367633 0 0 0
8592 1 11.32510808408527 15.52976269984894 4.057276785567634 0 0 0
8593 1 13.08677502908527 16.77320165584895 -7.140056791652365 0 0 1
8594 1 13.08627136358527 19.26132201284894 -7.140131440652365 0 0 1
8595 1 11.32479813608527 18.01763456784896 6.545522042967635 0 0 0
8596 1 13.08739492508527 14.28532978784894 -2.163328893032365 0 0 0
8597 1 13.08739492508527 14.28532978784894 0.3249760835676332 0 0 0
8598 1 13.08677502908527 16.77320165584895 0.3248417153676346 0 0 0
8599 1 11.32510808408527 15.52976269984894 1.568971808967634 0 0 0
8600 1 11.32510808408527 15.52976269984894 -0.9193331676323657 0 0 0
8601 1 13.08677502908527 16.77320165584895 2.813146691967635 0 0 0
8602 1 13.08627136358527 19.26132201284894 2.813072042967635 0 0 0
8603 1 11.32479813608527 18.01763456784896 4.057217066367635 0 0 0
8604 1 11.32479813608527 18.01763456784896 1.568912089767634 0 0 0
8605 1 13.08627136358527 19.26132201284894 5.301362089767634 0 0 0
8606 1 13.08592267208527 21.74993934784895 5.301332230167635 0 0 0
8607 1 11.32452693158527 20.50575492484894 6.545477253567634 0 0 0
8608 1 11.32452693158527 20.50575492484894 4.057172276967634 0 0 0
8609 1 13.08592267208527 21.74993934784895 -7.140170258132366 0 0 1
8610 1 13.08565146758527 24.23855668284897 -7.140191159852366 0 0 1
8611 1 11.32433321408527 22.99412377084896 6.545462323767634 0 0 0
8612 1 13.08739492508527 14.28532978784894 -4.651633869632366 0 0 0
8613 1 13.08677502908527 16.77320165584895 -4.651753308032365 0 0 0
8614 1 11.32510808408527 15.52976269984894 -3.407623214432366 0 0 0
8615 1 11.32510808408527 15.52976269984894 -5.895928191032366 0 0 0
8616 1 13.08677502908527 16.77320165584895 -2.163463261232366 0 0 0
8617 1 13.08627136358527 19.26132201284894 -2.163537910232366 0 0 0
8618 1 11.32479813608527 18.01763456784896 -0.9193779570323652 0 0 0
8619 1 11.32479813608527 18.01763456784896 -3.407682933632366 0 0 0
8620 1 13.08627136358527 19.26132201284894 0.3247670663676345 0 0 0
8621 1 13.08592267208527 21.74993934784895 0.324722276967635 0 0 0
8622 1 11.32452693158527 20.50575492484894 1.568882230167635 0 0 0
8623 1 11.32452693158527 20.50575492484894 -0.9194227464323657 0 0 0
8624 1 13.08592267208527 21.74993934784895 2.813027253567634 0 0 0
8625 1 13.08565146758527 24.23855668284897 2.813012323767634 0 0 0
8626 1 11.32433321408527 22.99412377084896 4.057157347167633 0 0 0
8627 1 11.32433321408527 22.99412377084896 1.568852370567635 0 0 0
8628 1 13.08565146758527 24.23855668284897 5.301302370567635 0 0 0
8629 1 13.08545775008527 26.72717401784895 5.301302370567635 0 0 0
8630 1 11.32417824008527 25.48298959484895 6.545447393967635 0 0 0
8631 1 11.32417824008527 25.48298959484895 4.057142417367634 0 0 0
8632 1 13.08545775008527 26.72717401784895 -7.140201610712365 0 0 1
8633 1 11.32479813608527 18.01763456784896 -5.895987910232366 0 0 0
8634 1 13.08627136358527 19.26132201284894 -4.651827957032365 0 0 0
8635 1 13.08592267208527 21.74993934784895 -4.651872746432366 0 0 0
8636 1 11.32452693158527 20.50575492484894 -3.407727723032365 0 0 0
8637 1 11.32452693158527 20.50575492484894 -5.896017769832365 0 0 0
8638 1 13.08592267208527 21.74993934784895 -2.163567769832366 0 0 0
8639 1 13.08565146758527 24.23855668284897 -2.163597629432366 0 0 0
8640 1 11.32433321408527 22.99412377084896 -0.9194376762323655 0 0 0
8641 1 11.32433321408527 22.99412377084896 -3.407742652832366 0 0 0
8642 1 13.08565146758527 24.23855668284897 0.3247073471676343 0 0 0
8643 1 13.08545775008527 26.72717401784895 0.3246924173676335 0 0 0
8644 1 11.32417824008527 25.48298959484895 1.568852370567635 0 0 0
8645 1 11.32417824008527 25.48298959484895 -0.9194526060323653 0 0 0
8646 1 13.08545775008527 26.72717401784895 2.812997393967635 0 0 0
8647 1 11.32433321408527 22.99412377084896 -5.896047629432366 0 0 0
8648 1 13.08565146758527 24.23855668284897 -4.651887676232366 0 0 0
8649 1 13.08545775008527 26.72717401784895 -4.651902606032365 0 0 0
8650 1 11.32417824008527 25.48298959484895 -3.407757582632366 0 0 0
8651 1 11.32417824008527 25.48298959484895 -5.896047629432366 0 0 0
8652 1 13.08545775008527 26.72717401784895 -2.163597629432366 0 0 0
8653 1 9.562898730085269 14.28632374384894 -7.140150849392366 0 0 1
8654 1 9.562898730085269 14.28632374384894 2.813042183367633 0 0 0
8655 1 9.562898730085269 14.28632374384894 5.301347159967634 0 0 0
8656 1 9.562976217085271 16.77369863384895 5.301332230167635 0 0 0
8657 1 7.800844350085271 15.53001118884897 6.545417534367635 0 0 0
8658 1 7.800844350085271 15.53001118884897 4.057127487567636 0 0 0
8659 1 9.562976217085271 16.77369863384895 -7.140162793232366 0 0 1
8660 1 9.562937473585272 19.26181899084897 -7.140182201972365 0 0 1
8661 1 7.80107681108527 18.01763456784896 6.545432464167636 0 0 0
8662 1 9.562898730085269 14.28632374384894 -2.163552840032366 0 0 0
8663 1 9.562898730085269 14.28632374384894 0.3247521365676338 0 0 0
8664 1 9.562976217085271 16.77369863384895 0.3247372067676348 0 0 0
8665 1 7.800844350085271 15.53001118884897 1.568822510967635 0 0 0
8666 1 7.800844350085271 15.53001118884897 -0.919482465632365 0 0 0
8667 1 9.562976217085271 16.77369863384895 2.813042183367633 0 0 0
8668 1 9.562937473585272 19.26181899084897 2.813012323767634 0 0 0
8669 1 7.80107681108527 18.01763456784896 4.057142417367634 0 0 0
8670 1 7.80107681108527 18.01763456784896 1.568837440767634 0 0 0
8671 1 9.562937473585272 19.26181899084897 5.301317300367634 0 0 0
8672 1 9.56285998658527 21.74993934784895 5.301302370567635 0 0 0
8673 1 7.801193041585268 20.50575492484894 6.545432464167636 0 0 0
8674 1 7.801193041585268 20.50575492484894 4.057142417367634 0 0 0
8675 1 9.56285998658527 21.74993934784895 -7.140195638792366 0 0 1
8676 1 9.562782499585271 24.23855668284897 -7.140203103692365 0 0 1
8677 1 7.80127052858527 22.99412377084896 6.545432464167636 0 0 0
8678 1 9.562898730085269 14.28632374384894 -4.651857816632366 0 0 0
8679 1 9.562976217085271 16.77369863384895 -4.651857816632366 0 0 0
8680 1 7.800844350085271 15.53001118884897 -3.407772512432366 0 0 0
8681 1 7.800844350085271 15.53001118884897 -5.896077489032366 0 0 0
8682 1 9.562976217085271 16.77369863384895 -2.163567769832366 0 0 0
8683 1 9.562937473585272 19.26181899084897 -2.163582699632365 0 0 0
8684 1 7.80107681108527 18.01763456784896 -0.9194675358323661 0 0 0
8685 1 7.80107681108527 18.01763456784896 -3.407757582632366 0 0 0
8686 1 9.562937473585272 19.26181899084897 0.324722276967635 0 0 0
8687 1 9.56285998658527 21.74993934784895 0.3247073471676343 0 0 0
8688 1 7.801193041585268 20.50575492484894 1.568837440767634 0 0 0
8689 1 7.801193041585268 20.50575492484894 -0.9194675358323661 0 0 0
8690 1 9.56285998658527 21.74993934784895 2.812997393967635 0 0 0
8691 1 9.562782499585271 24.23855668284897 2.812997393967635 0 0 0
8692 1 7.80127052858527 22.99412377084896 4.057142417367634 0 0 0
8693 1 7.80127052858527 22.99412377084896 1.568837440767634 0 0 0
8694 1 9.562782499585271 24.23855668284897 5.301302370567635 0 0 0
8695 1 9.562782499585271 26.72717401784895 5.301287440767634 0 0 0
8696 1 7.801348015585269 25.48274110584897 6.545432464167636 0 0 0
8697 1 7.801348015585269 25.48274110584897 4.057142417367634 0 0 0
8698 1 9.562782499585271 26.72717401784895 -7.140207582632366 0 0 1
8699 1 7.80107681108527 18.01763456784896 -5.896062559232366 0 0 0
8700 1 9.562937473585272 19.26181899084897 -4.651887676232366 0 0 0
8701 1 9.56285998658527 21.74993934784895 -4.651902606032365 0 0 0
8702 1 7.801193041585268 20.50575492484894 -3.407757582632366 0 0 0
8703 1 7.801193041585268 20.50575492484894 -5.896062559232366 0 0 0
8704 1 9.56285998658527 21.74993934784895 -2.163597629432366 0 0 0
8705 1 9.562782499585271 24.23855668284897 -2.163597629432366 0 0 0
8706 1 7.80127052858527 22.99412377084896 -0.9194675358323661 0 0 0
8707 1 7.80127052858527 22.99412377084896 -3.407757582632366 0 0 0
8708 1 9.562782499585271 24.23855668284897 0.3246924173676335 0 0 0
8709 1 9.562782499585271 26.72717401784895 0.3246924173676335 0 0 0
8710 1 7.801348015585269 25.48274110584897 1.568837440767634 0 0 0
8711 1 7.801348015585269 25.48274110584897 -0.9194675358323661 0 0 0
8712 1 9.562782499585271 26.72717401784895 2.812997393967635 0 0 0
8713 1 7.80127052858527 22.99412377084896 -5.896062559232366 0 0 0
8714 1 9.562782499585271 24.23855668284897 -4.651902606032365 0 0 0
8715 1 9.562782499585271 26.72717401784895 -4.651902606032365 0 0 0
8716 1 7.801348015585269 25.48274110584897 -3.407757582632366 0 0 0
8717 1 7.801348015585269 25.48274110584897 -5.896062559232366 0 0 0
8718 1 9.562782499585271 26.72717401784895 -2.163612559232366 0 0 0
8719 1 6.03871248308527 14.28557827684897 -7.140331499972365 0 0 1
8720 1 6.03871248308527 14.28557827684897 2.812863025767635 0 0 0
8721 1 6.03871248308527 14.28557827684897 5.301168002367636 0 0 0
8722 1 6.039099918085267 16.77345014484895 5.301227721567633 0 0 0
8723 1 4.277200512085269 15.52876874384894 6.545298095967635 0 0 0
8724 1 4.277200512085269 15.52876874384894 4.056993119367634 0 0 0
8725 1 6.039099918085267 16.77345014484895 -7.140268794812366 0 0 1
8726 1 6.039409866085268 19.26157050184894 -7.140240428192365 0 0 1
8727 1 4.27754920358527 18.01688910084896 6.545357815167634 0 0 0
8728 1 6.03871248308527 14.28557827684897 -2.163731997632365 0 0 0
8729 1 6.03871248308527 14.28557827684897 0.3245729789676339 0 0 0
8730 1 6.039099918085267 16.77345014484895 0.3246326981676333 0 0 0
8731 1 4.277200512085269 15.52876874384894 1.568703072567635 0 0 0
8732 1 4.277200512085269 15.52876874384894 -0.9196019040323655 0 0 0
8733 1 6.039099918085267 16.77345014484895 2.812937674767634 0 0 0
8734 1 6.039409866085268 19.26157050184894 2.812967534367635 0 0 0
8735 1 4.27754920358527 18.01688910084896 4.057067768367634 0 0 0
8736 1 4.27754920358527 18.01688910084896 1.568762791767634 0 0 0
8737 1 6.039409866085268 19.26157050184894 5.301257581167635 0 0 0
8738 1 6.039642327085271 21.74993934784895 5.301272510967635 0 0 0
8739 1 4.27793663858527 20.50525794684894 6.545402604567634 0 0 0
8740 1 4.27793663858527 20.50525794684894 4.057097627967634 0 0 0
8741 1 6.039642327085271 21.74993934784895 -7.140225498392366 0 0 1
8742 1 6.039836044585268 24.23830819384897 -7.140218033492366 0 0 1
8743 1 4.278246586585269 22.99387528184896 6.545417534367635 0 0 0
8744 1 6.03871248308527 14.28557827684897 -4.652036974232366 0 0 0
8745 1 6.039099918085267 16.77345014484895 -4.651962325232366 0 0 0
8746 1 4.277200512085269 15.52876874384894 -3.407906880632366 0 0 0
8747 1 4.277200512085269 15.52876874384894 -5.896196927432365 0 0 0
8748 1 6.039099918085267 16.77345014484895 -2.163672278432366 0 0 0
8749 1 6.039409866085268 19.26157050184894 -2.163642418832366 0 0 0
8750 1 4.27754920358527 18.01688910084896 -0.9195421848323653 0 0 0
8751 1 4.27754920358527 18.01688910084896 -3.407832231632366 0 0 0
8752 1 6.039409866085268 19.26157050184894 0.3246625577676348 0 0 0
8753 1 6.039642327085271 21.74993934784895 0.3246774875676346 0 0 0
8754 1 4.27793663858527 20.50525794684894 1.568792651367634 0 0 0
8755 1 4.27793663858527 20.50525794684894 -0.9194973954323657 0 0 0
8756 1 6.039642327085271 21.74993934784895 2.812967534367635 0 0 0
8757 1 6.039836044585268 24.23830819384897 2.812982464167636 0 0 0
8758 1 4.278246586585269 22.99387528184896 4.057112557767635 0 0 0
8759 1 4.278246586585269 22.99387528184896 1.568822510967635 0 0 0
8760 1 6.039836044585268 24.23830819384897 5.301287440767634 0 0 0
8761 1 6.040029762085268 26.72717401784895 5.301287440767634 0 0 0
8762 1 4.27855653458527 25.48274110584897 6.545432464167636 0 0 0
8763 1 4.27855653458527 25.48274110584897 4.057127487567636 0 0 0
8764 1 6.040029762085268 26.72717401784895 -7.140215047532366 0 0 1
8765 1 4.27754920358527 18.01688910084896 -5.896137208232366 0 0 0
8766 1 6.039409866085268 19.26157050184894 -4.651932465632366 0 0 0
8767 1 6.039642327085271 21.74993934784895 -4.651932465632366 0 0 0
8768 1 4.27793663858527 20.50525794684894 -3.407802372032366 0 0 0
8769 1 4.27793663858527 20.50525794684894 -5.896107348632365 0 0 0
8770 1 6.039642327085271 21.74993934784895 -2.163627489032366 0 0 0
8771 1 6.039836044585268 24.23830819384897 -2.163612559232366 0 0 0
8772 1 4.278246586585269 22.99387528184896 -0.919482465632365 0 0 0
8773 1 4.278246586585269 22.99387528184896 -3.407787442232365 0 0 0
8774 1 6.039836044585268 24.23830819384897 0.3246774875676346 0 0 0
8775 1 6.040029762085268 26.72717401784895 0.3246924173676335 0 0 0
8776 1 4.27855653458527 25.48274110584897 1.568822510967635 0 0 0
8777 1 4.27855653458527 25.48274110584897 -0.9194675358323661 0 0 0
8778 1 6.040029762085268 26.72717401784895 2.812982464167636 0 0 0
8779 1 4.278246586585269 22.99387528184896 -5.896077489032366 0 0 0
8780 1 6.039836044585268 24.23830819384897 -4.651917535832366 0 0 0
8781 1 6.040029762085268 26.72717401784895 -4.651917535832366 0 0 0
8782 1 4.27855653458527 25.48274110584897 -3.407772512432366 0 0 0
8783 1 4.27855653458527 25.48274110584897 -5.896077489032366 0 0 0
8784 1 6.040029762085268 26.72717401784895 -2.163612559232366 0 0 0
8785 1 2.515843515085269 14.28359036484896 -7.140465868172366 0 0 1
8786 1 2.515843515085269 14.28359036484896 2.812728657567634 0 0 0
8787 1 2.515843515085269 14.28359036484896 5.301033634167634 0 0 0
8788 1 2.515921002085271 16.77220769984895 5.301138142767634 0 0 0
8789 1 2.515921002085271 16.77220769984895 -7.140355387652366 0 0 1
8790 1 2.516230950085269 19.26057654584893 -7.140288203552366 0 0 1
8791 1 2.515843515085269 14.28359036484896 -2.163866365832366 0 0 0
8792 1 2.515843515085269 14.28359036484896 0.3244386107676345 0 0 0
8793 1 2.515921002085271 16.77220769984895 0.3245431193676342 0 0 0
8794 1 2.515921002085271 16.77220769984895 2.812848095967635 0 0 0
8795 1 2.516230950085269 19.26057654584893 2.812907815167634 0 0 0
8796 1 2.516230950085269 19.26057654584893 5.301212791767634 0 0 0
8797 1 2.516657128585273 21.74944236984895 5.301242651367634 0 0 0
8798 1 2.516657128585273 21.74944236984895 -7.140250879052366 0 0 1
8799 1 2.517083307085272 24.23805970484896 -7.140231470312366 0 0 1
8800 1 2.515843515085269 14.28359036484896 -4.652171342432366 0 0 0
8801 1 2.515921002085271 16.77220769984895 -4.652051904032366 0 0 0
8802 1 2.515921002085271 16.77220769984895 -2.163761857232366 0 0 0
8803 1 2.516230950085269 19.26057654584893 -2.163687208232366 0 0 0
8804 1 2.516230950085269 19.26057654584893 0.3246177683676352 0 0 0
8805 1 2.516657128585273 21.74944236984895 0.324647627967634 0 0 0
8806 1 2.516657128585273 21.74944236984895 2.812952604567634 0 0 0
8807 1 2.517083307085272 24.23805970484896 2.812967534367635 0 0 0
8808 1 2.517083307085272 24.23805970484896 5.301272510967635 0 0 0
8809 1 2.51743199858527 26.72692552884895 5.301272510967635 0 0 0
8810 1 2.51743199858527 26.72692552884895 -7.140221019452365 0 0 1
8811 1 2.516230950085269 19.26057654584893 -4.651992184832366 0 0 0
8812 1 2.516657128585273 21.74944236984895 -4.651947395432366 0 0 0
8813 1 2.516657128585273 21.74944236984895 -2.163657348632366 0 0 0
8814 1 2.517083307085272 24.23805970484896 -2.163627489032366 0 0 0
8815 1 2.517083307085272 24.23805970484896 0.3246625577676348 0 0 0
8816 1 2.51743199858527 26.72692552884895 0.3246774875676346 0 0 0
8817 1 2.51743199858527 26.72692552884895 2.812982464167636 0 0 0
8818 1 2.517083307085272 24.23805970484896 -4.651932465632366 0 0 0
8819 1 2.51743199858527 26.72692552884895 -4.651917535832366 0 0 0
8820 1 2.51743199858527 26.72692552884895 -2.163627489032366 0 0 0
8821 1 -16.85244281601473 27.97160692984893 6.545447393967635 1 0 0
8822 1 -16.85244281601473 27.97160692984893 4.057142417367634 1 0 0
8823 1 -16.85244281601473 27.97160692984893 1.568852370567635 1 0 0
8824 1 -16.85262878481473 30.46072124284895 6.545447393967635 1 0 0
8825 1 -16.85262878481473 30.46072124284895 4.057142417367634 1 0 0
8826 1 -16.85276051271473 32.94983555584894 6.545447393967635 1 0 0
8827 1 -16.85244281601473 27.97160692984893 -0.9194526060323653 1 0 0
8828 1 -16.85244281601473 27.97160692984893 -3.407757582632366 1 0 0
8829 1 -16.85262878481473 30.46072124284895 1.568837440767634 1 0 0
8830 1 -16.85262878481473 30.46072124284895 -0.9194526060323653 1 0 0
8831 1 -16.85276051271473 32.94983555584894 4.057142417367634 1 0 0
8832 1 -16.85276051271473 32.94983555584894 1.568837440767634 1 0 0
8833 1 -16.85284187406473 35.43870137984895 6.545432464167636 1 0 0
8834 1 -16.85284187406473 35.43870137984895 4.057142417367634 1 0 0
8835 1 -16.85287674321473 37.92781569284897 6.545432464167636 1 0 0
8836 1 -16.85244281601473 27.97160692984893 -5.896047629432366 1 0 0
8837 1 -16.85262878481473 30.46072124284895 -3.407757582632366 1 0 0
8838 1 -16.85262878481473 30.46072124284895 -5.896062559232366 1 0 0
8839 1 -16.85276051271473 32.94983555584894 -0.9194526060323653 1 0 0
8840 1 -16.85276051271473 32.94983555584894 -3.407757582632366 1 0 0
8841 1 -16.85284187406473 35.43870137984895 1.568837440767634 1 0 0
8842 1 -16.85284187406473 35.43870137984895 -0.9194675358323661 1 0 0
8843 1 -16.85287674321473 37.92781569284897 4.057142417367634 1 0 0
8844 1 -16.85287674321473 37.92781569284897 1.568837440767634 1 0 0
8845 1 -16.85287674321473 40.41693000584895 6.545432464167636 1 0 0
8846 1 -16.85287674321473 40.41693000584895 4.057142417367634 1 0 0
8847 1 -16.85276051271473 32.94983555584894 -5.896062559232366 1 0 0
8848 1 -16.85284187406473 35.43870137984895 -3.407757582632366 1 0 0
8849 1 -16.85284187406473 35.43870137984895 -5.896062559232366 1 0 0
8850 1 -16.85287674321473 37.92781569284897 -0.9194675358323661 1 0 0
8851 1 -16.85287674321473 37.92781569284897 -3.407757582632366 1 0 0
8852 1 -16.85287674321473 40.41693000584895 1.568837440767634 1 0 0
8853 1 -16.85287674321473 40.41693000584895 -0.9194675358323661 1 0 0
8854 1 -16.85287674321473 37.92781569284897 -5.896062559232366 1 0 0
8855 1 -16.85287674321473 40.41693000584895 -3.407757582632366 1 0 0
8856 1 -16.85287674321473 40.41693000584895 -5.896062559232366 1 0 0
8857 1 -18.61355960331473 29.21603984184894 -7.140204596672366 1 0 1
8858 1 18.36898633208527 27.97160692984893 6.545447393967635 0 0 0
8859 1 -18.61355960331473 29.21603984184894 2.812997393967635 1 0 0
8860 1 18.36898633208527 27.97160692984893 4.057142417367634 0 0 0
8861 1 18.36898633208527 27.97160692984893 1.568852370567635 0 0 0
8862 1 -18.61355960331473 29.21603984184894 5.301287440767634 1 0 0
8863 1 -18.61374169776473 31.70515415484896 5.301287440767634 1 0 0
8864 1 18.36875387108527 30.46072124284895 6.545447393967635 0 0 0
8865 1 18.36875387108527 30.46072124284895 4.057142417367634 0 0 0
8866 1 -18.61374169776473 31.70515415484896 -7.140207582632366 1 0 1
8867 1 -18.61386180261473 34.19426846784894 -7.140210568592366 1 0 1
8868 1 18.36859889708527 32.94958706684896 6.545447393967635 0 0 0
8869 1 -18.61355960331473 29.21603984184894 -2.163612559232366 1 0 0
8870 1 18.36898633208527 27.97160692984893 -0.9194526060323653 0 0 0
8871 1 18.36898633208527 27.97160692984893 -3.407757582632366 0 0 0
8872 1 -18.61355960331473 29.21603984184894 0.3246924173676335 1 0 0
8873 1 -18.61374169776473 31.70515415484896 0.3246924173676335 1 0 0
8874 1 18.36875387108527 30.46072124284895 1.568837440767634 0 0 0
8875 1 18.36875387108527 30.46072124284895 -0.9194526060323653 0 0 0
8876 1 -18.61374169776473 31.70515415484896 2.812997393967635 1 0 0
8877 1 -18.61386180261473 34.19426846784894 2.812997393967635 1 0 0
8878 1 18.36859889708527 32.94958706684896 4.057142417367634 0 0 0
8879 1 18.36859889708527 32.94958706684896 1.568837440767634 0 0 0
8880 1 -18.61386180261473 34.19426846784894 5.301287440767634 1 0 0
8881 1 -18.61393154091473 36.68338278084896 5.301287440767634 1 0 0
8882 1 18.36852141008527 35.43870137984895 6.545432464167636 0 0 0
8883 1 18.36852141008527 35.43870137984895 4.057142417367634 0 0 0
8884 1 -18.61393154091473 36.68338278084896 -7.140210568592366 1 0 1
8885 1 -18.61395478701473 39.17224860484897 -7.140210568592366 1 0 1
8886 1 18.36848266658527 37.92781569284897 6.545432464167636 0 0 0
8887 1 18.36898633208527 27.97160692984893 -5.896047629432366 0 0 0
8888 1 -18.61355960331473 29.21603984184894 -4.651902606032365 1 0 0
8889 1 -18.61374169776473 31.70515415484896 -4.651902606032365 1 0 0
8890 1 18.36875387108527 30.46072124284895 -3.407757582632366 0 0 0
8891 1 18.36875387108527 30.46072124284895 -5.896062559232366 0 0 0
8892 1 -18.61374169776473 31.70515415484896 -2.163612559232366 1 0 0
8893 1 -18.61386180261473 34.19426846784894 -2.163612559232366 1 0 0
8894 1 18.36859889708527 32.94958706684896 -0.9194526060323653 0 0 0
8895 1 18.36859889708527 32.94958706684896 -3.407757582632366 0 0 0
8896 1 -18.61386180261473 34.19426846784894 0.3246924173676335 1 0 0
8897 1 -18.61393154091473 36.68338278084896 0.3246924173676335 1 0 0
8898 1 18.36852141008527 35.43870137984895 1.568837440767634 0 0 0
8899 1 18.36852141008527 35.43870137984895 -0.9194675358323661 0 0 0
8900 1 -18.61393154091473 36.68338278084896 2.812982464167636 1 0 0
8901 1 -18.61395478701473 39.17224860484897 2.812982464167636 1 0 0
8902 1 18.36848266658527 37.92781569284897 4.057142417367634 0 0 0
8903 1 18.36848266658527 37.92781569284897 1.568837440767634 0 0 0
8904 1 -18.61395478701473 39.17224860484897 5.301287440767634 1 0 0
8905 1 18.36848266658527 40.41693000584895 6.545432464167636 0 0 0
8906 1 18.36848266658527 40.41693000584895 4.057142417367634 0 0 0
8907 1 18.36859889708527 32.94958706684896 -5.896062559232366 0 0 0
8908 1 -18.61386180261473 34.19426846784894 -4.651902606032365 1 0 0
8909 1 -18.61393154091473 36.68338278084896 -4.651917535832366 1 0 0
8910 1 18.36852141008527 35.43870137984895 -3.407757582632366 0 0 0
8911 1 18.36852141008527 35.43870137984895 -5.896062559232366 0 0 0
8912 1 -18.61393154091473 36.68338278084896 -2.163612559232366 1 0 0
8913 1 -18.61395478701473 39.17224860484897 -2.163612559232366 1 0 0
8914 1 18.36848266658527 37.92781569284897 -0.9194675358323661 0 0 0
8915 1 18.36848266658527 37.92781569284897 -3.407757582632366 0 0 0
8916 1 -18.61395478701473 39.17224860484897 0.3246924173676335 1 0 0
8917 1 18.36848266658527 40.41693000584895 1.568837440767634 0 0 0
8918 1 18.36848266658527 40.41693000584895 -0.9194675358323661 0 0 0
8919 1 18.36848266658527 37.92781569284897 -5.896062559232366 0 0 0
8920 1 -18.61395478701473 39.17224860484897 -4.651917535832366 1 0 0
8921 1 18.36848266658527 40.41693000584895 -3.407757582632366 0 0 0
8922 1 18.36848266658527 40.41693000584895 -5.896062559232366 0 0 0
8923 1 16.60770682208527 29.21603984184894 -7.140204596672366 0 0 1
8924 1 14.84662102958527 27.97160692984893 6.545447393967635 0 0 0
8925 1 16.60770682208527 29.21603984184894 2.812997393967635 0 0 0
8926 1 14.84662102958527 27.97160692984893 4.057142417367634 0 0 0
8927 1 14.84662102958527 27.97160692984893 1.568852370567635 0 0 0
8928 1 16.60770682208527 29.21603984184894 5.301302370567635 0 0 0
8929 1 16.60755184808527 31.70515415484896 5.301287440767634 0 0 0
8930 1 14.84646605558527 30.46072124284895 6.545447393967635 0 0 0
8931 1 14.84646605558527 30.46072124284895 4.057142417367634 0 0 0
8932 1 16.60755184808527 31.70515415484896 -7.140207582632366 0 0 1
8933 1 16.60743561758527 34.19426846784894 -7.140209075612366 0 0 1
8934 1 14.84634982508527 32.94958706684896 6.545447393967635 0 0 0
8935 1 16.60770682208527 29.21603984184894 -2.163597629432366 0 0 0
8936 1 14.84662102958527 27.97160692984893 -0.9194526060323653 0 0 0
8937 1 14.84662102958527 27.97160692984893 -3.407757582632366 0 0 0
8938 1 16.60770682208527 29.21603984184894 0.3246924173676335 0 0 0
8939 1 16.60755184808527 31.70515415484896 0.3246924173676335 0 0 0
8940 1 14.84646605558527 30.46072124284895 1.568837440767634 0 0 0
8941 1 14.84646605558527 30.46072124284895 -0.9194526060323653 0 0 0
8942 1 16.60755184808527 31.70515415484896 2.812997393967635 0 0 0
8943 1 16.60743561758527 34.19426846784894 2.812997393967635 0 0 0
8944 1 14.84634982508527 32.94958706684896 4.057142417367634 0 0 0
8945 1 14.84634982508527 32.94958706684896 1.568837440767634 0 0 0
8946 1 16.60743561758527 34.19426846784894 5.301287440767634 0 0 0
8947 1 16.60739687408527 36.68313429184896 5.301287440767634 0 0 0
8948 1 14.84631108158527 35.43870137984895 6.545432464167636 0 0 0
8949 1 14.84631108158527 35.43870137984895 4.057142417367634 0 0 0
8950 1 16.60739687408527 36.68313429184896 -7.140210568592366 0 0 1
8951 1 16.60739687408527 39.17224860484897 -7.140210568592366 0 0 1
8952 1 14.84627233808527 37.92756720384894 6.545432464167636 0 0 0
8953 1 14.84662102958527 27.97160692984893 -5.896047629432366 0 0 0
8954 1 16.60770682208527 29.21603984184894 -4.651902606032365 0 0 0
8955 1 16.60755184808527 31.70515415484896 -4.651902606032365 0 0 0
8956 1 14.84646605558527 30.46072124284895 -3.407757582632366 0 0 0
8957 1 14.84646605558527 30.46072124284895 -5.896062559232366 0 0 0
8958 1 16.60755184808527 31.70515415484896 -2.163612559232366 0 0 0
8959 1 16.60743561758527 34.19426846784894 -2.163612559232366 0 0 0
8960 1 14.84634982508527 32.94958706684896 -0.9194526060323653 0 0 0
8961 1 14.84634982508527 32.94958706684896 -3.407757582632366 0 0 0
8962 1 16.60743561758527 34.19426846784894 0.3246924173676335 0 0 0
8963 1 16.60739687408527 36.68313429184896 0.3246924173676335 0 0 0
8964 1 14.84631108158527 35.43870137984895 1.568837440767634 0 0 0
8965 1 14.84631108158527 35.43870137984895 -0.9194675358323661 0 0 0
8966 1 16.60739687408527 36.68313429184896 2.812982464167636 0 0 0
8967 1 16.60739687408527 39.17224860484897 2.812982464167636 0 0 0
8968 1 14.84627233808527 37.92756720384894 4.057142417367634 0 0 0
8969 1 14.84627233808527 37.92756720384894 1.568837440767634 0 0 0
8970 1 16.60739687408527 39.17224860484897 5.301287440767634 0 0 0
8971 1 14.84631108158527 40.41668151684895 6.545432464167636 0 0 0
8972 1 14.84631108158527 40.41668151684895 4.057142417367634 0 0 0
8973 1 14.84634982508527 32.94958706684896 -5.896062559232366 0 0 0
8974 1 16.60743561758527 34.19426846784894 -4.651902606032365 0 0 0
8975 1 16.60739687408527 36.68313429184896 -4.651917535832366 0 0 0
8976 1 14.84631108158527 35.43870137984895 -3.407757582632366 0 0 0
8977 1 14.84631108158527 35.43870137984895 -5.896062559232366 0 0 0
8978 1 16.60739687408527 36.68313429184896 -2.163612559232366 0 0 0
8979 1 16.60739687408527 39.17224860484897 -2.163612559232366 0 0 0
8980 1 14.84627233808527 37.92756720384894 -0.9194675358323661 0 0 0
8981 1 14.84627233808527 37.92756720384894 -3.407757582632366 0 0 0
8982 1 16.60739687408527 39.17224860484897 0.3246924173676335 0 0 0
8983 1 14.84631108158527 40.41668151684895 1.568837440767634 0 0 0
8984 1 14.84631108158527 40.41668151684895 -0.9194675358323661 0 0 0
8985 1 14.84627233808527 37.92756720384894 -5.896062559232366 0 0 0
8986 1 16.60739687408527 39.17224860484897 -4.651917535832366 0 0 0
8987 1 14.84631108158527 40.41668151684895 -3.407757582632366 0 0 0
8988 1 14.84631108158527 40.41668151684895 -5.896062559232366 0 0 0
8989 1 13.08530277608527 29.21603984184894 -7.140206089652366 0 0 1
8990 1 11.32410075308527 27.97160692984893 6.545447393967635 0 0 0
8991 1 13.08530277608527 29.21603984184894 2.812997393967635 0 0 0
8992 1 11.32410075308527 27.97160692984893 4.057142417367634 0 0 0
8993 1 11.32410075308527 27.97160692984893 1.568837440767634 0 0 0
8994 1 13.08530277608527 29.21603984184894 5.301287440767634 0 0 0
8995 1 13.08522528908527 31.70515415484896 5.301287440767634 0 0 0
8996 1 11.32402326608527 30.46047275384895 6.545447393967635 0 0 0
8997 1 11.32402326608527 30.46047275384895 4.057142417367634 0 0 0
8998 1 13.08522528908527 31.70515415484896 -7.140209075612366 0 0 1
8999 1 13.08518654558527 34.19401997884897 -7.140210568592366 0 0 1
9000 1 11.32402326608527 32.94958706684896 6.545447393967635 0 0 0
9001 1 13.08530277608527 29.21603984184894 -2.163612559232366 0 0 0
9002 1 11.32410075308527 27.97160692984893 -0.9194526060323653 0 0 0
9003 1 11.32410075308527 27.97160692984893 -3.407757582632366 0 0 0
9004 1 13.08530277608527 29.21603984184894 0.3246924173676335 0 0 0
9005 1 13.08522528908527 31.70515415484896 0.3246924173676335 0 0 0
9006 1 11.32402326608527 30.46047275384895 1.568837440767634 0 0 0
9007 1 11.32402326608527 30.46047275384895 -0.9194526060323653 0 0 0
9008 1 13.08522528908527 31.70515415484896 2.812997393967635 0 0 0
9009 1 13.08518654558527 34.19401997884897 2.812982464167636 0 0 0
9010 1 11.32402326608527 32.94958706684896 4.057142417367634 0 0 0
9011 1 11.32402326608527 32.94958706684896 1.568837440767634 0 0 0
9012 1 13.08518654558527 34.19401997884897 5.301287440767634 0 0 0
9013 1 13.08518654558527 36.68313429184896 5.301287440767634 0 0 0
9014 1 11.32402326608527 35.43845289084895 6.545432464167636 0 0 0
9015 1 11.32402326608527 35.43845289084895 4.057142417367634 0 0 0
9016 1 13.08518654558527 36.68313429184896 -7.140210568592366 0 0 1
9017 1 13.08518654558527 39.17224860484897 -7.140210568592366 0 0 1
9018 1 11.32406200958527 37.92756720384894 6.545432464167636 0 0 0
9019 1 11.32410075308527 27.97160692984893 -5.896062559232366 0 0 0
9020 1 13.08530277608527 29.21603984184894 -4.651902606032365 0 0 0
9021 1 13.08522528908527 31.70515415484896 -4.651902606032365 0 0 0
9022 1 11.32402326608527 30.46047275384895 -3.407757582632366 0 0 0
9023 1 11.32402326608527 30.46047275384895 -5.896062559232366 0 0 0
9024 1 13.08522528908527 31.70515415484896 -2.163612559232366 0 0 0
9025 1 13.08518654558527 34.19401997884897 -2.163612559232366 0 0 0
9026 1 11.32402326608527 32.94958706684896 -0.9194526060323653 0 0 0
9027 1 11.32402326608527 32.94958706684896 -3.407757582632366 0 0 0
9028 1 13.08518654558527 34.19401997884897 0.3246924173676335 0 0 0
9029 1 13.08518654558527 36.68313429184896 0.3246924173676335 0 0 0
9030 1 11.32402326608527 35.43845289084895 1.568837440767634 0 0 0
9031 1 11.32402326608527 35.43845289084895 -0.9194675358323661 0 0 0
9032 1 13.08518654558527 36.68313429184896 2.812982464167636 0 0 0
9033 1 13.08518654558527 39.17224860484897 2.812982464167636 0 0 0
9034 1 11.32406200958527 37.92756720384894 4.057142417367634 0 0 0
9035 1 11.32406200958527 37.92756720384894 1.568837440767634 0 0 0
9036 1 13.08518654558527 39.17224860484897 5.301287440767634 0 0 0
9037 1 11.32413949658527 40.41668151684895 6.545432464167636 0 0 0
9038 1 11.32413949658527 40.41668151684895 4.057142417367634 0 0 0
9039 1 11.32402326608527 32.94958706684896 -5.896062559232366 0 0 0
9040 1 13.08518654558527 34.19401997884897 -4.651917535832366 0 0 0
9041 1 13.08518654558527 36.68313429184896 -4.651917535832366 0 0 0
9042 1 11.32402326608527 35.43845289084895 -3.407757582632366 0 0 0
9043 1 11.32402326608527 35.43845289084895 -5.896062559232366 0 0 0
9044 1 13.08518654558527 36.68313429184896 -2.163612559232366 0 0 0
9045 1 13.08518654558527 39.17224860484897 -2.163612559232366 0 0 0
9046 1 11.32406200958527 37.92756720384894 -0.9194675358323661 0 0 0
9047 1 11.32406200958527 37.92756720384894 -3.407757582632366 0 0 0
9048 1 13.08518654558527 39.17224860484897 0.3246924173676335 0 0 0
9049 1 11.32413949658527 40.41668151684895 1.568837440767634 0 0 0
9050 1 11.32413949658527 40.41668151684895 -0.9194675358323661 0 0 0
9051 1 11.32406200958527 37.92756720384894 -5.896062559232366 0 0 0
9052 1 13.08518654558527 39.17224860484897 -4.651917535832366 0 0 0
9053 1 11.32413949658527 40.41668151684895 -3.407757582632366 0 0 0
9054 1 11.32413949658527 40.41668151684895 -5.896062559232366 0 0 0
9055 1 9.562782499585271 29.21603984184894 -7.140209075612366 0 0 1
9056 1 7.801464246085271 27.97160692984893 6.545432464167636 0 0 0
9057 1 9.562782499585271 29.21603984184894 2.812997393967635 0 0 0
9058 1 7.801464246085271 27.97160692984893 4.057142417367634 0 0 0
9059 1 7.801464246085271 27.97160692984893 1.568837440767634 0 0 0
9060 1 9.562782499585271 29.21603984184894 5.301287440767634 0 0 0
9061 1 9.562821243085271 31.70490566584895 5.301287440767634 0 0 0
9062 1 7.801541733085269 30.46047275384895 6.545432464167636 0 0 0
9063 1 7.801541733085269 30.46047275384895 4.057142417367634 0 0 0
9064 1 9.562821243085271 31.70490566584895 -7.140210568592366 0 0 1
9065 1 9.56285998658527 34.19401997884897 -7.140210568592366 0 0 1
9066 1 7.801657963585267 32.94958706684896 6.545432464167636 0 0 0
9067 1 9.562782499585271 29.21603984184894 -2.163612559232366 0 0 0
9068 1 7.801464246085271 27.97160692984893 -0.9194675358323661 0 0 0
9069 1 7.801464246085271 27.97160692984893 -3.407757582632366 0 0 0
9070 1 9.562782499585271 29.21603984184894 0.3246924173676335 0 0 0
9071 1 9.562821243085271 31.70490566584895 0.3246924173676335 0 0 0
9072 1 7.801541733085269 30.46047275384895 1.568837440767634 0 0 0
9073 1 7.801541733085269 30.46047275384895 -0.9194675358323661 0 0 0
9074 1 9.562821243085271 31.70490566584895 2.812982464167636 0 0 0
9075 1 9.56285998658527 34.19401997884897 2.812982464167636 0 0 0
9076 1 7.801657963585267 32.94958706684896 4.057142417367634 0 0 0
9077 1 7.801657963585267 32.94958706684896 1.568837440767634 0 0 0
9078 1 9.56285998658527 34.19401997884897 5.301287440767634 0 0 0
9079 1 9.562937473585272 36.68313429184896 5.301287440767634 0 0 0
9080 1 7.801774194085272 35.43845289084895 6.545432464167636 0 0 0
9081 1 7.801774194085272 35.43845289084895 4.057142417367634 0 0 0
9082 1 9.562937473585272 36.68313429184896 -7.140210568592366 0 0 1
9083 1 9.563014960585267 39.17200011584895 -7.140210568592366 0 0 1
9084 1 7.80189042458527 37.92756720384894 6.545432464167636 0 0 0
9085 1 7.801464246085271 27.97160692984893 -5.896062559232366 0 0 0
9086 1 9.562782499585271 29.21603984184894 -4.651902606032365 0 0 0
9087 1 9.562821243085271 31.70490566584895 -4.651917535832366 0 0 0
9088 1 7.801541733085269 30.46047275384895 -3.407757582632366 0 0 0
9089 1 7.801541733085269 30.46047275384895 -5.896062559232366 0 0 0
9090 1 9.562821243085271 31.70490566584895 -2.163612559232366 0 0 0
9091 1 9.56285998658527 34.19401997884897 -2.163612559232366 0 0 0
9092 1 7.801657963585267 32.94958706684896 -0.9194675358323661 0 0 0
9093 1 7.801657963585267 32.94958706684896 -3.407757582632366 0 0 0
9094 1 9.56285998658527 34.19401997884897 0.3246924173676335 0 0 0
9095 1 9.562937473585272 36.68313429184896 0.3246924173676335 0 0 0
9096 1 7.801774194085272 35.43845289084895 1.568837440767634 0 0 0
9097 1 7.801774194085272 35.43845289084895 -0.9194675358323661 0 0 0
9098 1 9.562937473585272 36.68313429184896 2.812982464167636 0 0 0
9099 1 9.563014960585267 39.17200011584895 2.812982464167636 0 0 0
9100 1 7.80189042458527 37.92756720384894 4.057142417367634 0 0 0
9101 1 7.80189042458527 37.92756720384894 1.568837440767634 0 0 0
9102 1 9.563014960585267 39.17200011584895 5.301287440767634 0 0 0
9103 1 7.801967911585269 40.41668151684895 6.545432464167636 0 0 0
9104 1 7.801967911585269 40.41668151684895 4.057142417367634 0 0 0
9105 1 7.801657963585267 32.94958706684896 -5.896062559232366 0 0 0
9106 1 9.56285998658527 34.19401997884897 -4.651917535832366 0 0 0
9107 1 9.562937473585272 36.68313429184896 -4.651917535832366 0 0 0
9108 1 7.801774194085272 35.43845289084895 -3.407757582632366 0 0 0
9109 1 7.801774194085272 35.43845289084895 -5.896062559232366 0 0 0
9110 1 9.562937473585272 36.68313429184896 -2.163612559232366 0 0 0
9111 1 9.563014960585267 39.17200011584895 -2.163612559232366 0 0 0
9112 1 7.80189042458527 37.92756720384894 -0.9194675358323661 0 0 0
9113 1 7.80189042458527 37.92756720384894 -3.407757582632366 0 0 0
9114 1 9.563014960585267 39.17200011584895 0.3246924173676335 0 0 0
9115 1 7.801967911585269 40.41668151684895 1.568837440767634 0 0 0
9116 1 7.801967911585269 40.41668151684895 -0.9194675358323661 0 0 0
9117 1 7.80189042458527 37.92756720384894 -5.896062559232366 0 0 0
9118 1 9.563014960585267 39.17200011584895 -4.651917535832366 0 0 0
9119 1 7.801967911585269 40.41668151684895 -3.407757582632366 0 0 0
9120 1 7.801967911585269 40.41668151684895 -5.896062559232366 0 0 0
9121 1 6.040223479585272 29.21603984184894 -7.140213554552366 0 0 1
9122 1 4.278866482585272 27.97160692984893 6.545432464167636 0 0 0
9123 1 6.040223479585272 29.21603984184894 2.812982464167636 0 0 0
9124 1 4.278866482585272 27.97160692984893 4.057127487567636 0 0 0
9125 1 4.278866482585272 27.97160692984893 1.568837440767634 0 0 0
9126 1 6.040223479585272 29.21603984184894 5.301287440767634 0 0 0
9127 1 6.040417197085272 31.70490566584895 5.301287440767634 0 0 0
9128 1 4.279098943585268 30.46047275384895 6.545432464167636 0 0 0
9129 1 4.279098943585268 30.46047275384895 4.057142417367634 0 0 0
9130 1 6.040417197085272 31.70490566584895 -7.140212061572366 0 0 1
9131 1 6.040572171085273 34.19401997884897 -7.140212061572366 0 0 1
9132 1 4.279331404585271 32.94933857784896 6.545432464167636 0 0 0
9133 1 6.040223479585272 29.21603984184894 -2.163612559232366 0 0 0
9134 1 4.278866482585272 27.97160692984893 -0.9194675358323661 0 0 0
9135 1 4.278866482585272 27.97160692984893 -3.407772512432366 0 0 0
9136 1 6.040223479585272 29.21603984184894 0.3246924173676335 0 0 0
9137 1 6.040417197085272 31.70490566584895 0.3246924173676335 0 0 0
9138 1 4.279098943585268 30.46047275384895 1.568837440767634 0 0 0
9139 1 4.279098943585268 30.46047275384895 -0.9194675358323661 0 0 0
9140 1 6.040417197085272 31.70490566584895 2.812982464167636 0 0 0
9141 1 6.040572171085273 34.19401997884897 2.812982464167636 0 0 0
9142 1 4.279331404585271 32.94933857784896 4.057142417367634 0 0 0
9143 1 4.279331404585271 32.94933857784896 1.568837440767634 0 0 0
9144 1 6.040572171085273 34.19401997884897 5.301287440767634 0 0 0
9145 1 6.04072714508527 36.68313429184896 5.301287440767634 0 0 0
9146 1 4.279525122085268 35.43845289084895 6.545432464167636 0 0 0
9147 1 4.279525122085268 35.43845289084895 4.057142417367634 0 0 0
9148 1 6.04072714508527 36.68313429184896 -7.140212061572366 0 0 1
9149 1 6.040843375585272 39.17200011584895 -7.140212061572366 0 0 1
9150 1 4.279680096085269 37.92756720384894 6.545432464167636 0 0 0
9151 1 4.278866482585272 27.97160692984893 -5.896062559232366 0 0 0
9152 1 6.040223479585272 29.21603984184894 -4.651917535832366 0 0 0
9153 1 6.040417197085272 31.70490566584895 -4.651917535832366 0 0 0
9154 1 4.279098943585268 30.46047275384895 -3.407757582632366 0 0 0
9155 1 4.279098943585268 30.46047275384895 -5.896062559232366 0 0 0
9156 1 6.040417197085272 31.70490566584895 -2.163612559232366 0 0 0
9157 1 6.040572171085273 34.19401997884897 -2.163612559232366 0 0 0
9158 1 4.279331404585271 32.94933857784896 -0.9194675358323661 0 0 0
9159 1 4.279331404585271 32.94933857784896 -3.407757582632366 0 0 0
9160 1 6.040572171085273 34.19401997884897 0.3246924173676335 0 0 0
9161 1 6.04072714508527 36.68313429184896 0.3246924173676335 0 0 0
9162 1 4.279525122085268 35.43845289084895 1.568837440767634 0 0 0
9163 1 4.279525122085268 35.43845289084895 -0.9194675358323661 0 0 0
9164 1 6.04072714508527 36.68313429184896 2.812982464167636 0 0 0
9165 1 6.040843375585272 39.17200011584895 2.812982464167636 0 0 0
9166 1 4.279680096085269 37.92756720384894 4.057142417367634 0 0 0
9167 1 4.279680096085269 37.92756720384894 1.568837440767634 0 0 0
9168 1 6.040843375585272 39.17200011584895 5.301287440767634 0 0 0
9169 1 4.279835070085269 40.41668151684895 6.545432464167636 0 0 0
9170 1 4.279835070085269 40.41668151684895 4.057142417367634 0 0 0
9171 1 4.279331404585271 32.94933857784896 -5.896062559232366 0 0 0
9172 1 6.040572171085273 34.19401997884897 -4.651917535832366 0 0 0
9173 1 6.04072714508527 36.68313429184896 -4.651917535832366 0 0 0
9174 1 4.279525122085268 35.43845289084895 -3.407757582632366 0 0 0
9175 1 4.279525122085268 35.43845289084895 -5.896062559232366 0 0 0
9176 1 6.04072714508527 36.68313429184896 -2.163612559232366 0 0 0
9177 1 6.040843375585272 39.17200011584895 -2.163612559232366 0 0 0
9178 1 4.279680096085269 37.92756720384894 -0.9194675358323661 0 0 0
9179 1 4.279680096085269 37.92756720384894 -3.407757582632366 0 0 0
9180 1 6.040843375585272 39.17200011584895 0.3246924173676335 0 0 0
9181 1 4.279835070085269 40.41668151684895 1.568837440767634 0 0 0
9182 1 4.279835070085269 40.41668151684895 -0.9194675358323661 0 0 0
9183 1 4.279680096085269 37.92756720384894 -5.896062559232366 0 0 0
9184 1 6.040843375585272 39.17200011584895 -4.651917535832366 0 0 0
9185 1 4.279835070085269 40.41668151684895 -3.407757582632366 0 0 0
9186 1 4.279835070085269 40.41668151684895 -5.896062559232366 0 0 0
9187 1 2.517780690085271 29.21579135284897 -7.140216540512366 0 0 1
9188 1 2.517780690085271 29.21579135284897 2.812982464167636 0 0 0
9189 1 2.517780690085271 29.21579135284897 5.301287440767634 0 0 0
9190 1 2.518090638085269 31.70490566584895 5.301287440767634 0 0 0
9191 1 2.518090638085269 31.70490566584895 -7.140213554552366 0 0 1
9192 1 2.518323099085269 34.19401997884897 -7.140212061572366 0 0 1
9193 1 2.517780690085271 29.21579135284897 -2.163612559232366 0 0 0
9194 1 2.517780690085271 29.21579135284897 0.3246774875676346 0 0 0
9195 1 2.518090638085269 31.70490566584895 0.3246924173676335 0 0 0
9196 1 2.518090638085269 31.70490566584895 2.812982464167636 0 0 0
9197 1 2.518323099085269 34.19401997884897 2.812982464167636 0 0 0
9198 1 2.518323099085269 34.19401997884897 5.301287440767634 0 0 0
9199 1 2.518516816585269 36.68313429184896 5.301287440767634 0 0 0
9200 1 2.518516816585269 36.68313429184896 -7.140212061572366 0 0 1
9201 1 2.518710534085272 39.17224860484897 -7.140212061572366 0 0 1
9202 1 2.517780690085271 29.21579135284897 -4.651917535832366 0 0 0
9203 1 2.518090638085269 31.70490566584895 -4.651917535832366 0 0 0
9204 1 2.518090638085269 31.70490566584895 -2.163612559232366 0 0 0
9205 1 2.518323099085269 34.19401997884897 -2.163612559232366 0 0 0
9206 1 2.518323099085269 34.19401997884897 0.3246924173676335 0 0 0
9207 1 2.518516816585269 36.68313429184896 0.3246924173676335 0 0 0
9208 1 2.518516816585269 36.68313429184896 2.812982464167636 0 0 0
9209 1 2.518710534085272 39.17224860484897 2.812982464167636 0 0 0
9210 1 2.518710534085272 39.17224860484897 5.301287440767634 0 0 0
9211 1 2.518323099085269 34.19401997884897 -4.651917535832366 0 0 0
9212 1 2.518516816585269 36.68313429184896 -4.651917535832366 0 0 0
9213 1 2.518516816585269 36.68313429184896 -2.163612559232366 0 0 0
9214 1 2.518710534085272 39.17224860484897 -2.163612559232366 0 0 0
9215 1 2.518710534085272 39.17224860484897 0.3246924173676335 0 0 0
9216 1 2.518710534085272 39.17224860484897 -4.651917535832366 0 0 0
9217 1 -16.85284962276473 42.90604431884897 6.545432464167636 1 0 0
9218 1 -16.85284962276473 42.90604431884897 4.057142417367634 1 0 0
9219 1 -16.85284962276473 42.90604431884897 1.568837440767634 1 0 0
9220 1 -16.85279925621473 45.39491014284896 6.545432464167636 1 0 0
9221 1 -16.85279925621473 45.39491014284896 4.057142417367634 1 0 0
9222 1 -16.85274114096473 47.88402445584894 6.545432464167636 1 0 0
9223 1 -16.85284962276473 42.90604431884897 -0.9194675358323661 1 0 0
9224 1 -16.85284962276473 42.90604431884897 -3.407757582632366 1 0 0
9225 1 -16.85279925621473 45.39491014284896 1.568837440767634 1 0 0
9226 1 -16.85279925621473 45.39491014284896 -0.9194675358323661 1 0 0
9227 1 -16.85274114096473 47.88402445584894 4.057142417367634 1 0 0
9228 1 -16.85274114096473 47.88402445584894 1.568837440767634 1 0 0
9229 1 -16.85267140266473 50.37313876884896 6.545432464167636 1 0 0
9230 1 -16.85267140266473 50.37313876884896 4.057142417367634 1 0 0
9231 1 -16.85259391566473 52.86225308184895 6.545432464167636 1 0 0
9232 1 -16.85284962276473 42.90604431884897 -5.896062559232366 1 0 0
9233 1 -16.85279925621473 45.39491014284896 -3.407757582632366 1 0 0
9234 1 -16.85279925621473 45.39491014284896 -5.896062559232366 1 0 0
9235 1 -16.85274114096473 47.88402445584894 -0.9194675358323661 1 0 0
9236 1 -16.85274114096473 47.88402445584894 -3.407757582632366 1 0 0
9237 1 -16.85267140266473 50.37313876884896 1.568837440767634 1 0 0
9238 1 -16.85267140266473 50.37313876884896 -0.9194675358323661 1 0 0
9239 1 -16.85259391566473 52.86225308184895 4.057142417367634 1 0 0
9240 1 -16.85259391566473 52.86225308184895 1.568837440767634 1 0 0
9241 1 -16.85274114096473 47.88402445584894 -5.896062559232366 1 0 0
9242 1 -16.85267140266473 50.37313876884896 -3.407757582632366 1 0 0
9243 1 -16.85267140266473 50.37313876884896 -5.896062559232366 1 0 0
9244 1 -16.85259391566473 52.86225308184895 -0.9194675358323661 1 0 0
9245 1 -16.85259391566473 52.86225308184895 -3.407757582632366 1 0 0
9246 1 -16.85259391566473 52.86225308184895 -5.896062559232366 1 0 0
9247 1 -18.61394316396473 41.66136291784893 5.301287440767634 1 0 0
9248 1 -18.61394316396473 41.66136291784893 -7.140210568592366 1 0 1
9249 1 -18.61390442046473 44.15047723084895 -7.140210568592366 1 0 1
9250 1 18.36848266658527 42.90579582984894 6.545432464167636 0 0 0
9251 1 -18.61394316396473 41.66136291784893 0.3246924173676335 1 0 0
9252 1 -18.61394316396473 41.66136291784893 2.812982464167636 1 0 0
9253 1 -18.61390442046473 44.15047723084895 2.812982464167636 1 0 0
9254 1 18.36848266658527 42.90579582984894 4.057142417367634 0 0 0
9255 1 18.36848266658527 42.90579582984894 1.568837440767634 0 0 0
9256 1 -18.61390442046473 44.15047723084895 5.301287440767634 1 0 0
9257 1 -18.61385017956473 46.63959154384894 5.301287440767634 1 0 0
9258 1 18.36856015358527 45.39491014284896 6.545432464167636 0 0 0
9259 1 18.36856015358527 45.39491014284896 4.057142417367634 0 0 0
9260 1 -18.61385017956473 46.63959154384894 -7.140210568592366 1 0 1
9261 1 -18.61378044126473 49.12845736784895 -7.140210568592366 1 0 1
9262 1 18.36859889708527 47.88402445584894 6.545432464167636 0 0 0
9263 1 -18.61394316396473 41.66136291784893 -4.651917535832366 1 0 0
9264 1 -18.61394316396473 41.66136291784893 -2.163612559232366 1 0 0
9265 1 -18.61390442046473 44.15047723084895 -2.163612559232366 1 0 0
9266 1 18.36848266658527 42.90579582984894 -0.9194675358323661 0 0 0
9267 1 18.36848266658527 42.90579582984894 -3.407757582632366 0 0 0
9268 1 -18.61390442046473 44.15047723084895 0.3246924173676335 1 0 0
9269 1 -18.61385017956473 46.63959154384894 0.3246924173676335 1 0 0
9270 1 18.36856015358527 45.39491014284896 1.568837440767634 0 0 0
9271 1 18.36856015358527 45.39491014284896 -0.9194675358323661 0 0 0
9272 1 -18.61385017956473 46.63959154384894 2.812982464167636 1 0 0
9273 1 -18.61378044126473 49.12845736784895 2.812982464167636 1 0 0
9274 1 18.36859889708527 47.88402445584894 4.057142417367634 0 0 0
9275 1 18.36859889708527 47.88402445584894 1.568837440767634 0 0 0
9276 1 -18.61378044126473 49.12845736784895 5.301287440767634 1 0 0
9277 1 -18.61370682861473 51.61757168084894 5.301287440767634 1 0 0
9278 1 18.36867638408527 50.37313876884896 6.545432464167636 0 0 0
9279 1 18.36867638408527 50.37313876884896 4.057142417367634 0 0 0
9280 1 -18.61370682861473 51.61757168084894 -7.140210568592366 1 0 1
9281 1 -18.61362934161473 54.10668599384896 -7.140210568592366 1 0 1
9282 1 18.36875387108527 52.86225308184895 6.545432464167636 0 0 0
9283 1 18.36848266658527 42.90579582984894 -5.896062559232366 0 0 0
9284 1 -18.61390442046473 44.15047723084895 -4.651917535832366 1 0 0
9285 1 -18.61385017956473 46.63959154384894 -4.651917535832366 1 0 0
9286 1 18.36856015358527 45.39491014284896 -3.407757582632366 0 0 0
9287 1 18.36856015358527 45.39491014284896 -5.896062559232366 0 0 0
9288 1 -18.61385017956473 46.63959154384894 -2.163612559232366 1 0 0
9289 1 -18.61378044126473 49.12845736784895 -2.163612559232366 1 0 0
9290 1 18.36859889708527 47.88402445584894 -0.9194675358323661 0 0 0
9291 1 18.36859889708527 47.88402445584894 -3.407757582632366 0 0 0
9292 1 -18.61378044126473 49.12845736784895 0.3246924173676335 1 0 0
9293 1 -18.61370682861473 51.61757168084894 0.3246924173676335 1 0 0
9294 1 18.36867638408527 50.37313876884896 1.568837440767634 0 0 0
9295 1 18.36867638408527 50.37313876884896 -0.9194675358323661 0 0 0
9296 1 -18.61370682861473 51.61757168084894 2.812982464167636 1 0 0
9297 1 -18.61362934161473 54.10668599384896 2.812982464167636 1 0 0
9298 1 18.36875387108527 52.86225308184895 4.057142417367634 0 0 0
9299 1 18.36875387108527 52.86225308184895 1.568837440767634 0 0 0
9300 1 -18.61362934161473 54.10668599384896 5.301287440767634 1 0 0
9301 1 18.36859889708527 47.88402445584894 -5.896062559232366 0 0 0
9302 1 -18.61378044126473 49.12845736784895 -4.651917535832366 1 0 0
9303 1 -18.61370682861473 51.61757168084894 -4.651917535832366 1 0 0
9304 1 18.36867638408527 50.37313876884896 -3.407757582632366 0 0 0
9305 1 18.36867638408527 50.37313876884896 -5.896062559232366 0 0 0
9306 1 -18.61370682861473 51.61757168084894 -2.163612559232366 1 0 0
9307 1 -18.61362934161473 54.10668599384896 -2.163612559232366 1 0 0
9308 1 18.36875387108527 52.86225308184895 -0.9194675358323661 0 0 0
9309 1 18.36875387108527 52.86225308184895 -3.407757582632366 0 0 0
9310 1 -18.61362934161473 54.10668599384896 0.3246924173676335 1 0 0
9311 1 18.36875387108527 52.86225308184895 -5.896062559232366 0 0 0
9312 1 -18.61362934161473 54.10668599384896 -4.651917535832366 1 0 0
9313 1 16.60739687408527 41.66136291784893 5.301287440767634 0 0 0
9314 1 16.60739687408527 41.66136291784893 -7.140210568592366 0 0 1
9315 1 16.60743561758527 44.15047723084895 -7.140210568592366 0 0 1
9316 1 14.84634982508527 42.90579582984894 6.545432464167636 0 0 0
9317 1 16.60739687408527 41.66136291784893 0.3246924173676335 0 0 0
9318 1 16.60739687408527 41.66136291784893 2.812982464167636 0 0 0
9319 1 16.60743561758527 44.15047723084895 2.812982464167636 0 0 0
9320 1 14.84634982508527 42.90579582984894 4.057142417367634 0 0 0
9321 1 14.84634982508527 42.90579582984894 1.568837440767634 0 0 0
9322 1 16.60743561758527 44.15047723084895 5.301287440767634 0 0 0
9323 1 16.60751310458527 46.63934305484894 5.301287440767634 0 0 0
9324 1 14.84638856858527 45.39491014284896 6.545432464167636 0 0 0
9325 1 14.84638856858527 45.39491014284896 4.057142417367634 0 0 0
9326 1 16.60751310458527 46.63934305484894 -7.140210568592366 0 0 1
9327 1 16.60759059158527 49.12845736784895 -7.140210568592366 0 0 1
9328 1 14.84646605558527 47.88402445584894 6.545432464167636 0 0 0
9329 1 16.60739687408527 41.66136291784893 -4.651917535832366 0 0 0
9330 1 16.60739687408527 41.66136291784893 -2.163612559232366 0 0 0
9331 1 16.60743561758527 44.15047723084895 -2.163612559232366 0 0 0
9332 1 14.84634982508527 42.90579582984894 -0.9194675358323661 0 0 0
9333 1 14.84634982508527 42.90579582984894 -3.407757582632366 0 0 0
9334 1 16.60743561758527 44.15047723084895 0.3246924173676335 0 0 0
9335 1 16.60751310458527 46.63934305484894 0.3246924173676335 0 0 0
9336 1 14.84638856858527 45.39491014284896 1.568837440767634 0 0 0
9337 1 14.84638856858527 45.39491014284896 -0.9194675358323661 0 0 0
9338 1 16.60751310458527 46.63934305484894 2.812982464167636 0 0 0
9339 1 16.60759059158527 49.12845736784895 2.812982464167636 0 0 0
9340 1 14.84646605558527 47.88402445584894 4.057142417367634 0 0 0
9341 1 14.84646605558527 47.88402445584894 1.568837440767634 0 0 0
9342 1 16.60759059158527 49.12845736784895 5.301287440767634 0 0 0
9343 1 16.60766807858527 51.61757168084894 5.301287440767634 0 0 0
9344 1 14.84654354258527 50.37313876884896 6.545432464167636 0 0 0
9345 1 14.84654354258527 50.37313876884896 4.057142417367634 0 0 0
9346 1 16.60766807858527 51.61757168084894 -7.140210568592366 0 0 1
9347 1 16.60774556558527 54.10668599384896 -7.140210568592366 0 0 1
9348 1 14.84662102958527 52.86225308184895 6.545432464167636 0 0 0
9349 1 14.84634982508527 42.90579582984894 -5.896062559232366 0 0 0
9350 1 16.60743561758527 44.15047723084895 -4.651917535832366 0 0 0
9351 1 16.60751310458527 46.63934305484894 -4.651917535832366 0 0 0
9352 1 14.84638856858527 45.39491014284896 -3.407757582632366 0 0 0
9353 1 14.84638856858527 45.39491014284896 -5.896062559232366 0 0 0
9354 1 16.60751310458527 46.63934305484894 -2.163612559232366 0 0 0
9355 1 16.60759059158527 49.12845736784895 -2.163612559232366 0 0 0
9356 1 14.84646605558527 47.88402445584894 -0.9194675358323661 0 0 0
9357 1 14.84646605558527 47.88402445584894 -3.407757582632366 0 0 0
9358 1 16.60759059158527 49.12845736784895 0.3246924173676335 0 0 0
9359 1 16.60766807858527 51.61757168084894 0.3246924173676335 0 0 0
9360 1 14.84654354258527 50.37313876884896 1.568837440767634 0 0 0
9361 1 14.84654354258527 50.37313876884896 -0.9194675358323661 0 0 0
9362 1 16.60766807858527 51.61757168084894 2.812982464167636 0 0 0
9363 1 16.60774556558527 54.10668599384896 2.812982464167636 0 0 0
9364 1 14.84662102958527 52.86225308184895 4.057142417367634 0 0 0
9365 1 14.84662102958527 52.86225308184895 1.568837440767634 0 0 0
9366 1 16.60774556558527 54.10668599384896 5.301287440767634 0 0 0
9367 1 14.84646605558527 47.88402445584894 -5.896062559232366 0 0 0
9368 1 16.60759059158527 49.12845736784895 -4.651917535832366 0 0 0
9369 1 16.60766807858527 51.61757168084894 -4.651917535832366 0 0 0
9370 1 14.84654354258527 50.37313876884896 -3.407757582632366 0 0 0
9371 1 14.84654354258527 50.37313876884896 -5.896062559232366 0 0 0
9372 1 16.60766807858527 51.61757168084894 -2.163612559232366 0 0 0
9373 1 16.60774556558527 54.10668599384896 -2.163612559232366 0 0 0
9374 1 14.84662102958527 52.86225308184895 -0.9194675358323661 0 0 0
9375 1 14.84662102958527 52.86225308184895 -3.407757582632366 0 0 0
9376 1 16.60774556558527 54.10668599384896 0.3246924173676335 0 0 0
9377 1 14.84662102958527 52.86225308184895 -5.896062559232366 0 0 0
9378 1 16.60774556558527 54.10668599384896 -4.651917535832366 0 0 0
9379 1 13.08526403258527 41.66136291784893 5.301287440767634 0 0 0
9380 1 13.08526403258527 41.66136291784893 -7.140210568592366 0 0 1
9381 1 13.08530277608527 44.15022874184895 -7.140210568592366 0 0 1
9382 1 11.32421698358527 42.90579582984894 6.545432464167636 0 0 0
9383 1 13.08526403258527 41.66136291784893 0.3246924173676335 0 0 0
9384 1 13.08526403258527 41.66136291784893 2.812982464167636 0 0 0
9385 1 13.08530277608527 44.15022874184895 2.812982464167636 0 0 0
9386 1 11.32421698358527 42.90579582984894 4.057142417367634 0 0 0
9387 1 11.32421698358527 42.90579582984894 1.568837440767634 0 0 0
9388 1 13.08530277608527 44.15022874184895 5.301287440767634 0 0 0
9389 1 13.08538026308527 46.63934305484894 5.301287440767634 0 0 0
9390 1 11.32429447058527 45.39491014284896 6.545432464167636 0 0 0
9391 1 11.32429447058527 45.39491014284896 4.057142417367634 0 0 0
9392 1 13.08538026308527 46.63934305484894 -7.140210568592366 0 0 1
9393 1 13.08545775008527 49.12845736784895 -7.140210568592366 0 0 1
9394 1 11.32433321408527 47.88402445584894 6.545432464167636 0 0 0
9395 1 13.08526403258527 41.66136291784893 -4.651917535832366 0 0 0
9396 1 13.08526403258527 41.66136291784893 -2.163612559232366 0 0 0
9397 1 13.08530277608527 44.15022874184895 -2.163612559232366 0 0 0
9398 1 11.32421698358527 42.90579582984894 -0.9194675358323661 0 0 0
9399 1 11.32421698358527 42.90579582984894 -3.407757582632366 0 0 0
9400 1 13.08530277608527 44.15022874184895 0.3246924173676335 0 0 0
9401 1 13.08538026308527 46.63934305484894 0.3246924173676335 0 0 0
9402 1 11.32429447058527 45.39491014284896 1.568837440767634 0 0 0
9403 1 11.32429447058527 45.39491014284896 -0.9194675358323661 0 0 0
9404 1 13.08538026308527 46.63934305484894 2.812982464167636 0 0 0
9405 1 13.08545775008527 49.12845736784895 2.812982464167636 0 0 0
9406 1 11.32433321408527 47.88402445584894 4.057142417367634 0 0 0
9407 1 11.32433321408527 47.88402445584894 1.568837440767634 0 0 0
9408 1 13.08545775008527 49.12845736784895 5.301287440767634 0 0 0
9409 1 13.08553523708527 51.61757168084894 5.301287440767634 0 0 0
9410 1 11.32444944458527 50.37313876884896 6.545432464167636 0 0 0
9411 1 11.32444944458527 50.37313876884896 4.057142417367634 0 0 0
9412 1 13.08553523708527 51.61757168084894 -7.140210568592366 0 0 1
9413 1 13.08561272408527 54.10668599384896 -7.140210568592366 0 0 1
9414 1 11.32452693158527 52.86225308184895 6.545432464167636 0 0 0
9415 1 11.32421698358527 42.90579582984894 -5.896062559232366 0 0 0
9416 1 13.08530277608527 44.15022874184895 -4.651917535832366 0 0 0
9417 1 13.08538026308527 46.63934305484894 -4.651917535832366 0 0 0
9418 1 11.32429447058527 45.39491014284896 -3.407757582632366 0 0 0
9419 1 11.32429447058527 45.39491014284896 -5.896062559232366 0 0 0
9420 1 13.08538026308527 46.63934305484894 -2.163612559232366 0 0 0
9421 1 13.08545775008527 49.12845736784895 -2.163612559232366 0 0 0
9422 1 11.32433321408527 47.88402445584894 -0.9194675358323661 0 0 0
9423 1 11.32433321408527 47.88402445584894 -3.407757582632366 0 0 0
9424 1 13.08545775008527 49.12845736784895 0.3246924173676335 0 0 0
9425 1 13.08553523708527 51.61757168084894 0.3246924173676335 0 0 0
9426 1 11.32444944458527 50.37313876884896 1.568837440767634 0 0 0
9427 1 11.32444944458527 50.37313876884896 -0.9194675358323661 0 0 0
9428 1 13.08553523708527 51.61757168084894 2.812982464167636 0 0 0
9429 1 13.08561272408527 54.10668599384896 2.812982464167636 0 0 0
9430 1 11.32452693158527 52.86225308184895 4.057142417367634 0 0 0
9431 1 11.32452693158527 52.86225308184895 1.568837440767634 0 0 0
9432 1 13.08561272408527 54.10668599384896 5.301287440767634 0 0 0
9433 1 11.32433321408527 47.88402445584894 -5.896062559232366 0 0 0
9434 1 13.08545775008527 49.12845736784895 -4.651917535832366 0 0 0
9435 1 13.08553523708527 51.61757168084894 -4.651917535832366 0 0 0
9436 1 11.32444944458527 50.37313876884896 -3.407757582632366 0 0 0
9437 1 11.32444944458527 50.37313876884896 -5.896062559232366 0 0 0
9438 1 13.08553523708527 51.61757168084894 -2.163612559232366 0 0 0
9439 1 13.08561272408527 54.10668599384896 -2.163612559232366 0 0 0
9440 1 11.32452693158527 52.86225308184895 -0.9194675358323661 0 0 0
9441 1 11.32452693158527 52.86225308184895 -3.407757582632366 0 0 0
9442 1 13.08561272408527 54.10668599384896 0.3246924173676335 0 0 0
9443 1 11.32452693158527 52.86225308184895 -5.896062559232366 0 0 0
9444 1 13.08561272408527 54.10668599384896 -4.651917535832366 0 0 0
9445 1 9.563092447585269 41.66111442884893 5.301287440767634 0 0 0
9446 1 9.563092447585269 41.66111442884893 -7.140210568592366 0 0 1
9447 1 9.563169934585268 44.15022874184895 -7.140212061572366 0 0 1
9448 1 7.802084142085267 42.90579582984894 6.545432464167636 0 0 0
9449 1 9.563092447585269 41.66111442884893 0.3246924173676335 0 0 0
9450 1 9.563092447585269 41.66111442884893 2.812982464167636 0 0 0
9451 1 9.563169934585268 44.15022874184895 2.812982464167636 0 0 0
9452 1 7.802084142085267 42.90579582984894 4.057142417367634 0 0 0
9453 1 7.802084142085267 42.90579582984894 1.568837440767634 0 0 0
9454 1 9.563169934585268 44.15022874184895 5.301287440767634 0 0 0
9455 1 9.56324742158527 46.63934305484894 5.301287440767634 0 0 0
9456 1 7.802161629085269 45.39491014284896 6.545432464167636 0 0 0
9457 1 7.802161629085269 45.39491014284896 4.057142417367634 0 0 0
9458 1 9.56324742158527 46.63934305484894 -7.140212061572366 0 0 1
9459 1 9.563324908585269 49.12845736784895 -7.140212061572366 0 0 1
9460 1 7.802239116085268 47.88402445584894 6.545432464167636 0 0 0
9461 1 9.563092447585269 41.66111442884893 -4.651917535832366 0 0 0
9462 1 9.563092447585269 41.66111442884893 -2.163612559232366 0 0 0
9463 1 9.563169934585268 44.15022874184895 -2.163612559232366 0 0 0
9464 1 7.802084142085267 42.90579582984894 -0.9194675358323661 0 0 0
9465 1 7.802084142085267 42.90579582984894 -3.407757582632366 0 0 0
9466 1 9.563169934585268 44.15022874184895 0.3246924173676335 0 0 0
9467 1 9.56324742158527 46.63934305484894 0.3246924173676335 0 0 0
9468 1 7.802161629085269 45.39491014284896 1.568837440767634 0 0 0
9469 1 7.802161629085269 45.39491014284896 -0.9194675358323661 0 0 0
9470 1 9.56324742158527 46.63934305484894 2.812982464167636 0 0 0
9471 1 9.563324908585269 49.12845736784895 2.812982464167636 0 0 0
9472 1 7.802239116085268 47.88402445584894 4.057142417367634 0 0 0
9473 1 7.802239116085268 47.88402445584894 1.568837440767634 0 0 0
9474 1 9.563324908585269 49.12845736784895 5.301287440767634 0 0 0
9475 1 9.563402395585271 51.61757168084894 5.301287440767634 0 0 0
9476 1 7.80231660308527 50.37313876884896 6.545432464167636 0 0 0
9477 1 7.80231660308527 50.37313876884896 4.057142417367634 0 0 0
9478 1 9.563402395585271 51.61757168084894 -7.140210568592366 0 0 1
9479 1 9.56347988258527 54.10668599384896 -7.140210568592366 0 0 1
9480 1 7.802394090085269 52.86225308184895 6.545432464167636 0 0 0
9481 1 7.802084142085267 42.90579582984894 -5.896062559232366 0 0 0
9482 1 9.563169934585268 44.15022874184895 -4.651917535832366 0 0 0
9483 1 9.56324742158527 46.63934305484894 -4.651917535832366 0 0 0
9484 1 7.802161629085269 45.39491014284896 -3.407757582632366 0 0 0
9485 1 7.802161629085269 45.39491014284896 -5.896062559232366 0 0 0
9486 1 9.56324742158527 46.63934305484894 -2.163612559232366 0 0 0
9487 1 9.563324908585269 49.12845736784895 -2.163612559232366 0 0 0
9488 1 7.802239116085268 47.88402445584894 -0.9194675358323661 0 0 0
9489 1 7.802239116085268 47.88402445584894 -3.407757582632366 0 0 0
9490 1 9.563324908585269 49.12845736784895 0.3246924173676335 0 0 0
9491 1 9.563402395585271 51.61757168084894 0.3246924173676335 0 0 0
9492 1 7.80231660308527 50.37313876884896 1.568837440767634 0 0 0
9493 1 7.80231660308527 50.37313876884896 -0.9194675358323661 0 0 0
9494 1 9.563402395585271 51.61757168084894 2.812982464167636 0 0 0
9495 1 9.56347988258527 54.10668599384896 2.812982464167636 0 0 0
9496 1 7.802394090085269 52.86225308184895 4.057142417367634 0 0 0
9497 1 7.802394090085269 52.86225308184895 1.568837440767634 0 0 0
9498 1 9.56347988258527 54.10668599384896 5.301287440767634 0 0 0
9499 1 7.802239116085268 47.88402445584894 -5.896062559232366 0 0 0
9500 1 9.563324908585269 49.12845736784895 -4.651917535832366 0 0 0
9501 1 9.563402395585271 51.61757168084894 -4.651917535832366 0 0 0
9502 1 7.80231660308527 50.37313876884896 -3.407757582632366 0 0 0
9503 1 7.80231660308527 50.37313876884896 -5.896062559232366 0 0 0
9504 1 9.563402395585271 51.61757168084894 -2.163612559232366 0 0 0
9505 1 9.56347988258527 54.10668599384896 -2.163612559232366 0 0 0
9506 1 7.802394090085269 52.86225308184895 -0.9194675358323661 0 0 0
9507 1 7.802394090085269 52.86225308184895 -3.407757582632366 0 0 0
9508 1 9.56347988258527 54.10668599384896 0.3246924173676335 0 0 0
9509 1 7.802394090085269 52.86225308184895 -5.896062559232366 0 0 0
9510 1 9.56347988258527 54.10668599384896 -4.651917535832366 0 0 0
9511 1 6.04095960608527 41.66111442884893 5.301287440767634 0 0 0
9512 1 6.04095960608527 41.66111442884893 -7.140212061572366 0 0 1
9513 1 6.041037093085269 44.15022874184895 -7.140212061572366 0 0 1
9514 1 4.279951300585271 42.90579582984894 6.545432464167636 0 0 0
9515 1 6.04095960608527 41.66111442884893 0.3246924173676335 0 0 0
9516 1 6.04095960608527 41.66111442884893 2.812982464167636 0 0 0
9517 1 6.041037093085269 44.15022874184895 2.812982464167636 0 0 0
9518 1 4.279951300585271 42.90579582984894 4.057142417367634 0 0 0
9519 1 4.279951300585271 42.90579582984894 1.568837440767634 0 0 0
9520 1 6.041037093085269 44.15022874184895 5.301287440767634 0 0 0
9521 1 6.04115332358527 46.63934305484894 5.301287440767634 0 0 0
9522 1 4.28002878758527 45.39491014284896 6.545432464167636 0 0 0
9523 1 4.28002878758527 45.39491014284896 4.057142417367634 0 0 0
9524 1 6.04115332358527 46.63934305484894 -7.140212061572366 0 0 1
9525 1 6.041230810585269 49.12845736784895 -7.140212061572366 0 0 1
9526 1 4.280145018085268 47.88402445584894 6.545432464167636 0 0 0
9527 1 6.04095960608527 41.66111442884893 -4.651917535832366 0 0 0
9528 1 6.04095960608527 41.66111442884893 -2.163612559232366 0 0 0
9529 1 6.041037093085269 44.15022874184895 -2.163612559232366 0 0 0
9530 1 4.279951300585271 42.90579582984894 -0.9194675358323661 0 0 0
9531 1 4.279951300585271 42.90579582984894 -3.407757582632366 0 0 0
9532 1 6.041037093085269 44.15022874184895 0.3246924173676335 0 0 0
9533 1 6.04115332358527 46.63934305484894 0.3246924173676335 0 0 0
9534 1 4.28002878758527 45.39491014284896 1.568837440767634 0 0 0
9535 1 4.28002878758527 45.39491014284896 -0.9194675358323661 0 0 0
9536 1 6.04115332358527 46.63934305484894 2.812982464167636 0 0 0
9537 1 6.041230810585269 49.12845736784895 2.812982464167636 0 0 0
9538 1 4.280145018085268 47.88402445584894 4.057142417367634 0 0 0
9539 1 4.280145018085268 47.88402445584894 1.568837440767634 0 0 0
9540 1 6.041230810585269 49.12845736784895 5.301287440767634 0 0 0
9541 1 6.041308297585271 51.61757168084894 5.301287440767634 0 0 0
9542 1 4.28022250508527 50.37313876884896 6.545432464167636 0 0 0
9543 1 4.28022250508527 50.37313876884896 4.057142417367634 0 0 0
9544 1 6.041308297585271 51.61757168084894 -7.140210568592366 0 0 1
9545 1 6.04138578458527 54.10668599384896 -7.140210568592366 0 0 1
9546 1 4.280261248585273 52.86225308184895 6.545432464167636 0 0 0
9547 1 4.279951300585271 42.90579582984894 -5.896062559232366 0 0 0
9548 1 6.041037093085269 44.15022874184895 -4.651917535832366 0 0 0
9549 1 6.04115332358527 46.63934305484894 -4.651917535832366 0 0 0
9550 1 4.28002878758527 45.39491014284896 -3.407757582632366 0 0 0
9551 1 4.28002878758527 45.39491014284896 -5.896062559232366 0 0 0
9552 1 6.04115332358527 46.63934305484894 -2.163612559232366 0 0 0
9553 1 6.041230810585269 49.12845736784895 -2.163612559232366 0 0 0
9554 1 4.280145018085268 47.88402445584894 -0.9194675358323661 0 0 0
9555 1 4.280145018085268 47.88402445584894 -3.407757582632366 0 0 0
9556 1 6.041230810585269 49.12845736784895 0.3246924173676335 0 0 0
9557 1 6.041308297585271 51.61757168084894 0.3246924173676335 0 0 0
9558 1 4.28022250508527 50.37313876884896 1.568837440767634 0 0 0
9559 1 4.28022250508527 50.37313876884896 -0.9194675358323661 0 0 0
9560 1 6.041308297585271 51.61757168084894 2.812982464167636 0 0 0
9561 1 6.04138578458527 54.10668599384896 2.812982464167636 0 0 0
9562 1 4.280261248585273 52.86225308184895 4.057142417367634 0 0 0
9563 1 4.280261248585273 52.86225308184895 1.568837440767634 0 0 0
9564 1 6.04138578458527 54.10668599384896 5.301287440767634 0 0 0
9565 1 4.280145018085268 47.88402445584894 -5.896062559232366 0 0 0
9566 1 6.041230810585269 49.12845736784895 -4.651917535832366 0 0 0
9567 1 6.041308297585271 51.61757168084894 -4.651917535832366 0 0 0
9568 1 4.28022250508527 50.37313876884896 -3.407757582632366 0 0 0
9569 1 4.28022250508527 50.37313876884896 -5.896062559232366 0 0 0
9570 1 6.041308297585271 51.61757168084894 -2.163612559232366 0 0 0
9571 1 6.04138578458527 54.10668599384896 -2.163612559232366 0 0 0
9572 1 4.280261248585273 52.86225308184895 -0.9194675358323661 0 0 0
9573 1 4.280261248585273 52.86225308184895 -3.407757582632366 0 0 0
9574 1 6.04138578458527 54.10668599384896 0.3246924173676335 0 0 0
9575 1 4.280261248585273 52.86225308184895 -5.896062559232366 0 0 0
9576 1 6.04138578458527 54.10668599384896 -4.651917535832366 0 0 0
9577 1 2.51882676458527 41.66136291784893 5.301287440767634 0 0 0
9578 1 2.51882676458527 41.66136291784893 -7.140212061572366 0 0 1
9579 1 2.518942995085268 44.15047723084895 -7.140212061572366 0 0 1
9580 1 2.51882676458527 41.66136291784893 0.3246924173676335 0 0 0
9581 1 2.51882676458527 41.66136291784893 2.812982464167636 0 0 0
9582 1 2.518942995085268 44.15047723084895 2.812982464167636 0 0 0
9583 1 2.518942995085268 44.15047723084895 5.301287440767634 0 0 0
9584 1 2.519020482085271 46.63934305484894 5.301287440767634 0 0 0
9585 1 2.519020482085271 46.63934305484894 -7.140212061572366 0 0 1
9586 1 2.519097969085269 49.12845736784895 -7.140212061572366 0 0 1
9587 1 2.51882676458527 41.66136291784893 -4.651917535832366 0 0 0
9588 1 2.51882676458527 41.66136291784893 -2.163612559232366 0 0 0
9589 1 2.518942995085268 44.15047723084895 -2.163612559232366 0 0 0
9590 1 2.518942995085268 44.15047723084895 0.3246924173676335 0 0 0
9591 1 2.519020482085271 46.63934305484894 0.3246924173676335 0 0 0
9592 1 2.519020482085271 46.63934305484894 2.812982464167636 0 0 0
9593 1 2.519097969085269 49.12845736784895 2.812982464167636 0 0 0
9594 1 2.519097969085269 49.12845736784895 5.301287440767634 0 0 0
9595 1 2.519175456085271 51.61757168084894 5.301287440767634 0 0 0
9596 1 2.519175456085271 51.61757168084894 -7.140212061572366 0 0 1
9597 1 2.51925294308527 54.10668599384896 -7.140210568592366 0 0 1
9598 1 2.518942995085268 44.15047723084895 -4.651917535832366 0 0 0
9599 1 2.519020482085271 46.63934305484894 -4.651917535832366 0 0 0
9600 1 2.519020482085271 46.63934305484894 -2.163612559232366 0 0 0
9601 1 2.519097969085269 49.12845736784895 -2.163612559232366 0 0 0
9602 1 2.519097969085269 49.12845736784895 0.3246924173676335 0 0 0
9603 1 2.519175456085271 51.61757168084894 0.3246924173676335 0 0 0
9604 1 2.519175456085271 51.61757168084894 2.812982464167636 0 0 0
9605 1 2.51925294308527 54.10668599384896 2.812982464167636 0 0 0
9606 1 2.51925294308527 54.10668599384896 5.301287440767634 0 0 0
9607 1 2.519097969085269 49.12845736784895 -4.651917535832366 0 0 0
9608 1 2.519175456085271 51.61757168084894 -4.651917535832366 0 0 0
9609 1 2.519175456085271 51.61757168084894 -2.163612559232366 0 0 0
9610 1 2.51925294308527 54.10668599384896 -2.163612559232366 0 0 0
9611 1 2.51925294308527 54.10668599384896 0.3246924173676335 0 0 0
9612 1 2.51925294308527 54.10668599384896 -4.651917535832366 0 0 0
9613 1 -16.85251642866473 55.35136739484896 6.545432464167636 1 0 0
9614 1 -16.85251642866473 55.35136739484896 4.057142417367634 1 0 0
9615 1 -16.85243894166473 57.84023321884895 6.545432464167636 1 0 0
9616 1 -16.85251642866473 55.35136739484896 1.568837440767634 1 0 0
9617 1 -16.85251642866473 55.35136739484896 -0.9194675358323661 1 0 0
9618 1 -16.85243894166473 57.84023321884895 4.057142417367634 1 0 0
9619 1 -16.85243894166473 57.84023321884895 1.568837440767634 1 0 0
9620 1 -16.85235758031473 60.32934753184897 6.545432464167636 1 0 0
9621 1 -16.85235758031473 60.32934753184897 4.057142417367634 1 0 0
9622 1 -16.85228009331473 62.81846184484893 6.545432464167636 1 0 0
9623 1 -16.85251642866473 55.35136739484896 -3.407757582632366 1 0 0
9624 1 -16.85251642866473 55.35136739484896 -5.896062559232366 1 0 0
9625 1 -16.85243894166473 57.84023321884895 -0.9194675358323661 1 0 0
9626 1 -16.85243894166473 57.84023321884895 -3.407757582632366 1 0 0
9627 1 -16.85235758031473 60.32934753184897 1.568837440767634 1 0 0
9628 1 -16.85235758031473 60.32934753184897 -0.9194675358323661 1 0 0
9629 1 -16.85228009331473 62.81846184484893 4.057142417367634 1 0 0
9630 1 -16.85228009331473 62.81846184484893 1.568837440767634 1 0 0
9631 1 -16.85220260631473 65.30757615784894 6.545432464167636 1 0 0
9632 1 -16.85220260631473 65.30757615784894 4.057142417367634 1 0 0
9633 1 -16.85212511931473 67.79669047084893 6.545432464167636 1 0 0
9634 1 -16.85243894166473 57.84023321884895 -5.896062559232366 1 0 0
9635 1 -16.85235758031473 60.32934753184897 -3.407757582632366 1 0 0
9636 1 -16.85235758031473 60.32934753184897 -5.896062559232366 1 0 0
9637 1 -16.85228009331473 62.81846184484893 -0.9194675358323661 1 0 0
9638 1 -16.85228009331473 62.81846184484893 -3.407757582632366 1 0 0
9639 1 -16.85220260631473 65.30757615784894 1.568837440767634 1 0 0
9640 1 -16.85220260631473 65.30757615784894 -0.9194675358323661 1 0 0
9641 1 -16.85212511931473 67.79669047084893 4.057142417367634 1 0 0
9642 1 -16.85212511931473 67.79669047084893 1.568837440767634 1 0 0
9643 1 -16.85228009331473 62.81846184484893 -5.896062559232366 1 0 0
9644 1 -16.85220260631473 65.30757615784894 -3.407757582632366 1 0 0
9645 1 -16.85220260631473 65.30757615784894 -5.896062559232366 1 0 0
9646 1 -16.85212511931473 67.79669047084893 -0.9194675358323661 1 0 0
9647 1 -16.85212511931473 67.79669047084893 -3.407757582632366 1 0 0
9648 1 -16.85212511931473 67.79669047084893 -5.896062559232366 1 0 0
9649 1 -18.61354798026473 56.59580030684897 5.301287440767634 1 0 0
9650 1 18.36883135808527 55.35111890584896 6.545432464167636 0 0 0
9651 1 18.36883135808527 55.35111890584896 4.057142417367634 0 0 0
9652 1 -18.61354798026473 56.59580030684897 -7.140210568592366 1 0 1
9653 1 -18.61347049326473 59.08491461984896 -7.140210568592366 1 0 1
9654 1 18.36890884508527 57.84023321884895 6.545432464167636 0 0 0
9655 1 -18.61354798026473 56.59580030684897 0.3246924173676335 1 0 0
9656 1 18.36883135808527 55.35111890584896 1.568837440767634 0 0 0
9657 1 18.36883135808527 55.35111890584896 -0.9194675358323661 0 0 0
9658 1 -18.61354798026473 56.59580030684897 2.812982464167636 1 0 0
9659 1 -18.61347049326473 59.08491461984896 2.812982464167636 1 0 0
9660 1 18.36890884508527 57.84023321884895 4.057142417367634 0 0 0
9661 1 18.36890884508527 57.84023321884895 1.568837440767634 0 0 0
9662 1 -18.61347049326473 59.08491461984896 5.301287440767634 1 0 0
9663 1 -18.61338913191473 61.57402893284898 5.301287440767634 1 0 0
9664 1 18.36898633208527 60.32934753184897 6.545432464167636 0 0 0
9665 1 18.36898633208527 60.32934753184897 4.057142417367634 0 0 0
9666 1 -18.61338913191473 61.57402893284898 -7.140210568592366 1 0 1
9667 1 -18.61331164491473 64.06289475684893 -7.140210568592366 1 0 1
9668 1 18.36906381908527 62.81846184484893 6.545432464167636 0 0 0
9669 1 -18.61354798026473 56.59580030684897 -4.651917535832366 1 0 0
9670 1 18.36883135808527 55.35111890584896 -3.407757582632366 0 0 0
9671 1 18.36883135808527 55.35111890584896 -5.896062559232366 0 0 0
9672 1 -18.61354798026473 56.59580030684897 -2.163612559232366 1 0 0
9673 1 -18.61347049326473 59.08491461984896 -2.163612559232366 1 0 0
9674 1 18.36890884508527 57.84023321884895 -0.9194675358323661 0 0 0
9675 1 18.36890884508527 57.84023321884895 -3.407757582632366 0 0 0
9676 1 -18.61347049326473 59.08491461984896 0.3246924173676335 1 0 0
9677 1 -18.61338913191473 61.57402893284898 0.3246924173676335 1 0 0
9678 1 18.36898633208527 60.32934753184897 1.568837440767634 0 0 0
9679 1 18.36898633208527 60.32934753184897 -0.9194675358323661 0 0 0
9680 1 -18.61338913191473 61.57402893284898 2.812982464167636 1 0 0
9681 1 -18.61331164491473 64.06289475684893 2.812982464167636 1 0 0
9682 1 18.36906381908527 62.81846184484893 4.057142417367634 0 0 0
9683 1 18.36906381908527 62.81846184484893 1.568837440767634 0 0 0
9684 1 -18.61331164491473 64.06289475684893 5.301287440767634 1 0 0
9685 1 -18.61323415791473 66.55200906984895 5.301287440767634 1 0 0
9686 1 18.36914130608527 65.30757615784894 6.545432464167636 0 0 0
9687 1 18.36914130608527 65.30757615784894 4.057142417367634 0 0 0
9688 1 -18.61323415791473 66.55200906984895 -7.140210568592366 1 0 1
9689 1 18.36921879308527 67.79669047084893 6.545432464167636 0 0 0
9690 1 18.36890884508527 57.84023321884895 -5.896062559232366 0 0 0
9691 1 -18.61347049326473 59.08491461984896 -4.651917535832366 1 0 0
9692 1 -18.61338913191473 61.57402893284898 -4.651917535832366 1 0 0
9693 1 18.36898633208527 60.32934753184897 -3.407757582632366 0 0 0
9694 1 18.36898633208527 60.32934753184897 -5.896062559232366 0 0 0
9695 1 -18.61338913191473 61.57402893284898 -2.163612559232366 1 0 0
9696 1 -18.61331164491473 64.06289475684893 -2.163612559232366 1 0 0
9697 1 18.36906381908527 62.81846184484893 -0.9194675358323661 0 0 0
9698 1 18.36906381908527 62.81846184484893 -3.407757582632366 0 0 0
9699 1 -18.61331164491473 64.06289475684893 0.3246924173676335 1 0 0
9700 1 -18.61323415791473 66.55200906984895 0.3246924173676335 1 0 0
9701 1 18.36914130608527 65.30757615784894 1.568837440767634 0 0 0
9702 1 18.36914130608527 65.30757615784894 -0.9194675358323661 0 0 0
9703 1 -18.61323415791473 66.55200906984895 2.812982464167636 1 0 0
9704 1 18.36921879308527 67.79669047084893 4.057142417367634 0 0 0
9705 1 18.36921879308527 67.79669047084893 1.568837440767634 0 0 0
9706 1 18.36906381908527 62.81846184484893 -5.896062559232366 0 0 0
9707 1 -18.61331164491473 64.06289475684893 -4.651917535832366 1 0 0
9708 1 -18.61323415791473 66.55200906984895 -4.651917535832366 1 0 0
9709 1 18.36914130608527 65.30757615784894 -3.407757582632366 0 0 0
9710 1 18.36914130608527 65.30757615784894 -5.896062559232366 0 0 0
9711 1 -18.61323415791473 66.55200906984895 -2.163612559232366 1 0 0
9712 1 18.36921879308527 67.79669047084893 -0.9194675358323661 0 0 0
9713 1 18.36921879308527 67.79669047084893 -3.407757582632366 0 0 0
9714 1 18.36921879308527 67.79669047084893 -5.896062559232366 0 0 0
9715 1 16.60782305258527 56.59580030684897 5.301287440767634 0 0 0
9716 1 14.84669851658527 55.35111890584896 6.545432464167636 0 0 0
9717 1 14.84669851658527 55.35111890584896 4.057142417367634 0 0 0
9718 1 16.60782305258527 56.59580030684897 -7.140210568592366 0 0 1
9719 1 16.60790053958527 59.08491461984896 -7.140210568592366 0 0 1
9720 1 14.84677600358527 57.84023321884895 6.545432464167636 0 0 0
9721 1 16.60782305258527 56.59580030684897 0.3246924173676335 0 0 0
9722 1 14.84669851658527 55.35111890584896 1.568837440767634 0 0 0
9723 1 14.84669851658527 55.35111890584896 -0.9194675358323661 0 0 0
9724 1 16.60782305258527 56.59580030684897 2.812982464167636 0 0 0
9725 1 16.60790053958527 59.08491461984896 2.812982464167636 0 0 0
9726 1 14.84677600358527 57.84023321884895 4.057142417367634 0 0 0
9727 1 14.84677600358527 57.84023321884895 1.568837440767634 0 0 0
9728 1 16.60790053958527 59.08491461984896 5.301287440767634 0 0 0
9729 1 16.60797802658527 61.57402893284898 5.301287440767634 0 0 0
9730 1 14.84685349058527 60.32934753184897 6.545432464167636 0 0 0
9731 1 14.84685349058527 60.32934753184897 4.057142417367634 0 0 0
9732 1 16.60797802658527 61.57402893284898 -7.140210568592366 0 0 1
9733 1 16.60805551358527 64.06289475684893 -7.140210568592366 0 0 1
9734 1 14.84693097758527 62.81846184484893 6.545432464167636 0 0 0
9735 1 16.60782305258527 56.59580030684897 -4.651917535832366 0 0 0
9736 1 14.84669851658527 55.35111890584896 -3.407757582632366 0 0 0
9737 1 14.84669851658527 55.35111890584896 -5.896062559232366 0 0 0
9738 1 16.60782305258527 56.59580030684897 -2.163612559232366 0 0 0
9739 1 16.60790053958527 59.08491461984896 -2.163612559232366 0 0 0
9740 1 14.84677600358527 57.84023321884895 -0.9194675358323661 0 0 0
9741 1 14.84677600358527 57.84023321884895 -3.407757582632366 0 0 0
9742 1 16.60790053958527 59.08491461984896 0.3246924173676335 0 0 0
9743 1 16.60797802658527 61.57402893284898 0.3246924173676335 0 0 0
9744 1 14.84685349058527 60.32934753184897 1.568837440767634 0 0 0
9745 1 14.84685349058527 60.32934753184897 -0.9194675358323661 0 0 0
9746 1 16.60797802658527 61.57402893284898 2.812982464167636 0 0 0
9747 1 16.60805551358527 64.06289475684893 2.812982464167636 0 0 0
9748 1 14.84693097758527 62.81846184484893 4.057142417367634 0 0 0
9749 1 14.84693097758527 62.81846184484893 1.568837440767634 0 0 0
9750 1 16.60805551358527 64.06289475684893 5.301287440767634 0 0 0
9751 1 16.60813300058527 66.55200906984895 5.301287440767634 0 0 0
9752 1 14.84700846458527 65.30757615784894 6.545432464167636 0 0 0
9753 1 14.84700846458527 65.30757615784894 4.057142417367634 0 0 0
9754 1 16.60813300058527 66.55200906984895 -7.140210568592366 0 0 1
9755 1 14.84708595158527 67.79669047084893 6.545432464167636 0 0 0
9756 1 14.84677600358527 57.84023321884895 -5.896062559232366 0 0 0
9757 1 16.60790053958527 59.08491461984896 -4.651917535832366 0 0 0
9758 1 16.60797802658527 61.57402893284898 -4.651917535832366 0 0 0
9759 1 14.84685349058527 60.32934753184897 -3.407757582632366 0 0 0
9760 1 14.84685349058527 60.32934753184897 -5.896062559232366 0 0 0
9761 1 16.60797802658527 61.57402893284898 -2.163612559232366 0 0 0
9762 1 16.60805551358527 64.06289475684893 -2.163612559232366 0 0 0
9763 1 14.84693097758527 62.81846184484893 -0.9194675358323661 0 0 0
9764 1 14.84693097758527 62.81846184484893 -3.407757582632366 0 0 0
9765 1 16.60805551358527 64.06289475684893 0.3246924173676335 0 0 0
9766 1 16.60813300058527 66.55200906984895 0.3246924173676335 0 0 0
9767 1 14.84700846458527 65.30757615784894 1.568837440767634 0 0 0
9768 1 14.84700846458527 65.30757615784894 -0.9194675358323661 0 0 0
9769 1 16.60813300058527 66.55200906984895 2.812982464167636 0 0 0
9770 1 14.84708595158527 67.79669047084893 4.057142417367634 0 0 0
9771 1 14.84708595158527 67.79669047084893 1.568837440767634 0 0 0
9772 1 14.84693097758527 62.81846184484893 -5.896062559232366 0 0 0
9773 1 16.60805551358527 64.06289475684893 -4.651917535832366 0 0 0
9774 1 16.60813300058527 66.55200906984895 -4.651917535832366 0 0 0
9775 1 14.84700846458527 65.30757615784894 -3.407757582632366 0 0 0
9776 1 14.84700846458527 65.30757615784894 -5.896062559232366 0 0 0
9777 1 16.60813300058527 66.55200906984895 -2.163612559232366 0 0 0
9778 1 14.84708595158527 67.79669047084893 -0.9194675358323661 0 0 0
9779 1 14.84708595158527 67.79669047084893 -3.407757582632366 0 0 0
9780 1 14.84708595158527 67.79669047084893 -5.896062559232366 0 0 0
9781 1 13.08569021108528 56.59580030684897 5.301287440767634 0 0 0
9782 1 11.32460441858527 55.35111890584896 6.545432464167636 0 0 0
9783 1 11.32460441858527 55.35111890584896 4.057142417367634 0 0 0
9784 1 13.08569021108528 56.59580030684897 -7.140210568592366 0 0 1
9785 1 13.08576769808527 59.08491461984896 -7.140210568592366 0 0 1
9786 1 11.32468190558527 57.84023321884895 6.545432464167636 0 0 0
9787 1 13.08569021108528 56.59580030684897 0.3246924173676335 0 0 0
9788 1 11.32460441858527 55.35111890584896 1.568837440767634 0 0 0
9789 1 11.32460441858527 55.35111890584896 -0.9194675358323661 0 0 0
9790 1 13.08569021108528 56.59580030684897 2.812982464167636 0 0 0
9791 1 13.08576769808527 59.08491461984896 2.812982464167636 0 0 0
9792 1 11.32468190558527 57.84023321884895 4.057142417367634 0 0 0
9793 1 11.32468190558527 57.84023321884895 1.568837440767634 0 0 0
9794 1 13.08576769808527 59.08491461984896 5.301287440767634 0 0 0
9795 1 13.08584518508527 61.57402893284898 5.301287440767634 0 0 0
9796 1 11.32475939258527 60.32934753184897 6.545432464167636 0 0 0
9797 1 11.32475939258527 60.32934753184897 4.057142417367634 0 0 0
9798 1 13.08584518508527 61.57402893284898 -7.140210568592366 0 0 1
9799 1 13.08592267208527 64.06289475684893 -7.140210568592366 0 0 1
9800 1 11.32483687958527 62.81846184484893 6.545432464167636 0 0 0
9801 1 13.08569021108528 56.59580030684897 -4.651917535832366 0 0 0
9802 1 11.32460441858527 55.35111890584896 -3.407757582632366 0 0 0
9803 1 11.32460441858527 55.35111890584896 -5.896062559232366 0 0 0
9804 1 13.08569021108528 56.59580030684897 -2.163612559232366 0 0 0
9805 1 13.08576769808527 59.08491461984896 -2.163612559232366 0 0 0
9806 1 11.32468190558527 57.84023321884895 -0.9194675358323661 0 0 0
9807 1 11.32468190558527 57.84023321884895 -3.407757582632366 0 0 0
9808 1 13.08576769808527 59.08491461984896 0.3246924173676335 0 0 0
9809 1 13.08584518508527 61.57402893284898 0.3246924173676335 0 0 0
9810 1 11.32475939258527 60.32934753184897 1.568837440767634 0 0 0
9811 1 11.32475939258527 60.32934753184897 -0.9194675358323661 0 0 0
9812 1 13.08584518508527 61.57402893284898 2.812982464167636 0 0 0
9813 1 13.08592267208527 64.06289475684893 2.812982464167636 0 0 0
9814 1 11.32483687958527 62.81846184484893 4.057142417367634 0 0 0
9815 1 11.32483687958527 62.81846184484893 1.568837440767634 0 0 0
9816 1 13.08592267208527 64.06289475684893 5.301287440767634 0 0 0
9817 1 13.08600015908527 66.55200906984895 5.301287440767634 0 0 0
9818 1 11.32487562308527 65.30757615784894 6.545432464167636 0 0 0
9819 1 11.32487562308527 65.30757615784894 4.057142417367634 0 0 0
9820 1 13.08600015908527 66.55200906984895 -7.140210568592366 0 0 1
9821 1 11.32495311008527 67.79669047084893 6.545432464167636 0 0 0
9822 1 11.32468190558527 57.84023321884895 -5.896062559232366 0 0 0
9823 1 13.08576769808527 59.08491461984896 -4.651917535832366 0 0 0
9824 1 13.08584518508527 61.57402893284898 -4.651917535832366 0 0 0
9825 1 11.32475939258527 60.32934753184897 -3.407757582632366 0 0 0
9826 1 11.32475939258527 60.32934753184897 -5.896062559232366 0 0 0
9827 1 13.08584518508527 61.57402893284898 -2.163612559232366 0 0 0
9828 1 13.08592267208527 64.06289475684893 -2.163612559232366 0 0 0
9829 1 11.32483687958527 62.81846184484893 -0.9194675358323661 0 0 0
9830 1 11.32483687958527 62.81846184484893 -3.407757582632366 0 0 0
9831 1 13.08592267208527 64.06289475684893 0.3246924173676335 0 0 0
9832 1 13.08600015908527 66.55200906984895 0.3246924173676335 0 0 0
9833 1 11.32487562308527 65.30757615784894 1.568837440767634 0 0 0
9834 1 11.32487562308527 65.30757615784894 -0.9194675358323661 0 0 0
9835 1 13.08600015908527 66.55200906984895 2.812982464167636 0 0 0
9836 1 11.32495311008527 67.79669047084893 4.057142417367634 0 0 0
9837 1 11.32495311008527 67.79669047084893 1.568837440767634 0 0 0
9838 1 11.32483687958527 62.81846184484893 -5.896062559232366 0 0 0
9839 1 13.08592267208527 64.06289475684893 -4.651917535832366 0 0 0
9840 1 13.08600015908527 66.55200906984895 -4.651917535832366 0 0 0
9841 1 11.32487562308527 65.30757615784894 -3.407757582632366 0 0 0
9842 1 11.32487562308527 65.30757615784894 -5.896062559232366 0 0 0
9843 1 13.08600015908527 66.55200906984895 -2.163612559232366 0 0 0
9844 1 11.32495311008527 67.79669047084893 -0.9194675358323661 0 0 0
9845 1 11.32495311008527 67.79669047084893 -3.407757582632366 0 0 0
9846 1 11.32495311008527 67.79669047084893 -5.896062559232366 0 0 0
9847 1 9.563557369585272 56.59580030684897 5.301287440767634 0 0 0
9848 1 7.802471577085271 55.35111890584896 6.545432464167636 0 0 0
9849 1 7.802471577085271 55.35111890584896 4.057142417367634 0 0 0
9850 1 9.563557369585272 56.59580030684897 -7.140210568592366 0 0 1
9851 1 9.563634856585271 59.08491461984896 -7.140210568592366 0 0 1
9852 1 7.802549064085269 57.84023321884895 6.545432464167636 0 0 0
9853 1 9.563557369585272 56.59580030684897 0.3246924173676335 0 0 0
9854 1 7.802471577085271 55.35111890584896 1.568837440767634 0 0 0
9855 1 7.802471577085271 55.35111890584896 -0.9194675358323661 0 0 0
9856 1 9.563557369585272 56.59580030684897 2.812982464167636 0 0 0
9857 1 9.563634856585271 59.08491461984896 2.812982464167636 0 0 0
9858 1 7.802549064085269 57.84023321884895 4.057142417367634 0 0 0
9859 1 7.802549064085269 57.84023321884895 1.568837440767634 0 0 0
9860 1 9.563634856585271 59.08491461984896 5.301287440767634 0 0 0
9861 1 9.563712343585273 61.57402893284898 5.301287440767634 0 0 0
9862 1 7.802626551085272 60.32934753184897 6.545432464167636 0 0 0
9863 1 7.802626551085272 60.32934753184897 4.057142417367634 0 0 0
9864 1 9.563712343585273 61.57402893284898 -7.140210568592366 0 0 1
9865 1 9.563789830585268 64.06289475684893 -7.140210568592366 0 0 1
9866 1 7.802704038085267 62.81846184484893 6.545432464167636 0 0 0
9867 1 9.563557369585272 56.59580030684897 -4.651917535832366 0 0 0
9868 1 7.802471577085271 55.35111890584896 -3.407757582632366 0 0 0
9869 1 7.802471577085271 55.35111890584896 -5.896062559232366 0 0 0
9870 1 9.563557369585272 56.59580030684897 -2.163612559232366 0 0 0
9871 1 9.563634856585271 59.08491461984896 -2.163612559232366 0 0 0
9872 1 7.802549064085269 57.84023321884895 -0.9194675358323661 0 0 0
9873 1 7.802549064085269 57.84023321884895 -3.407757582632366 0 0 0
9874 1 9.563634856585271 59.08491461984896 0.3246924173676335 0 0 0
9875 1 9.563712343585273 61.57402893284898 0.3246924173676335 0 0 0
9876 1 7.802626551085272 60.32934753184897 1.568837440767634 0 0 0
9877 1 7.802626551085272 60.32934753184897 -0.9194675358323661 0 0 0
9878 1 9.563712343585273 61.57402893284898 2.812982464167636 0 0 0
9879 1 9.563789830585268 64.06289475684893 2.812982464167636 0 0 0
9880 1 7.802704038085267 62.81846184484893 4.057142417367634 0 0 0
9881 1 7.802704038085267 62.81846184484893 1.568837440767634 0 0 0
9882 1 9.563789830585268 64.06289475684893 5.301287440767634 0 0 0
9883 1 9.56386731758527 66.55200906984895 5.301287440767634 0 0 0
9884 1 7.802781525085269 65.30757615784894 6.545432464167636 0 0 0
9885 1 7.802781525085269 65.30757615784894 4.057142417367634 0 0 0
9886 1 9.56386731758527 66.55200906984895 -7.140210568592366 0 0 1
9887 1 7.802820268585272 67.79669047084893 6.545432464167636 0 0 0
9888 1 7.802549064085269 57.84023321884895 -5.896062559232366 0 0 0
9889 1 9.563634856585271 59.08491461984896 -4.651917535832366 0 0 0
9890 1 9.563712343585273 61.57402893284898 -4.651917535832366 0 0 0
9891 1 7.802626551085272 60.32934753184897 -3.407757582632366 0 0 0
9892 1 7.802626551085272 60.32934753184897 -5.896062559232366 0 0 0
9893 1 9.563712343585273 61.57402893284898 -2.163612559232366 0 0 0
9894 1 9.563789830585268 64.06289475684893 -2.163612559232366 0 0 0
9895 1 7.802704038085267 62.81846184484893 -0.9194675358323661 0 0 0
9896 1 7.802704038085267 62.81846184484893 -3.407757582632366 0 0 0
9897 1 9.563789830585268 64.06289475684893 0.3246924173676335 0 0 0
9898 1 9.56386731758527 66.55200906984895 0.3246924173676335 0 0 0
9899 1 7.802781525085269 65.30757615784894 1.568837440767634 0 0 0
9900 1 7.802781525085269 65.30757615784894 -0.9194675358323661 0 0 0
9901 1 9.56386731758527 66.55200906984895 2.812982464167636 0 0 0
9902 1 7.802820268585272 67.79669047084893 4.057142417367634 0 0 0
9903 1 7.802820268585272 67.79669047084893 1.568837440767634 0 0 0
9904 1 7.802704038085267 62.81846184484893 -5.896062559232366 0 0 0
9905 1 9.563789830585268 64.06289475684893 -4.651917535832366 0 0 0
9906 1 9.56386731758527 66.55200906984895 -4.651917535832366 0 0 0
9907 1 7.802781525085269 65.30757615784894 -3.407757582632366 0 0 0
9908 1 7.802781525085269 65.30757615784894 -5.896062559232366 0 0 0
9909 1 9.56386731758527 66.55200906984895 -2.163612559232366 0 0 0
9910 1 7.802820268585272 67.79669047084893 -0.9194675358323661 0 0 0
9911 1 7.802820268585272 67.79669047084893 -3.407757582632366 0 0 0
9912 1 7.802820268585272 67.79669047084893 -5.896062559232366 0 0 0
9913 1 6.041463271585272 56.59580030684897 5.301287440767634 0 0 0
9914 1 4.280338735585271 55.35111890584896 6.545432464167636 0 0 0
9915 1 4.280338735585271 55.35111890584896 4.057142417367634 0 0 0
9916 1 6.041463271585272 56.59580030684897 -7.140210568592366 0 0 1
9917 1 6.041502015085268 59.08491461984896 -7.140210568592366 0 0 1
9918 1 4.280416222585274 57.84023321884895 6.545432464167636 0 0 0
9919 1 6.041463271585272 56.59580030684897 0.3246924173676335 0 0 0
9920 1 4.280338735585271 55.35111890584896 1.568837440767634 0 0 0
9921 1 4.280338735585271 55.35111890584896 -0.9194675358323661 0 0 0
9922 1 6.041463271585272 56.59580030684897 2.812982464167636 0 0 0
9923 1 6.041502015085268 59.08491461984896 2.812982464167636 0 0 0
9924 1 4.280416222585274 57.84023321884895 4.057142417367634 0 0 0
9925 1 4.280416222585274 57.84023321884895 1.568837440767634 0 0 0
9926 1 6.041502015085268 59.08491461984896 5.301287440767634 0 0 0
9927 1 6.04157950208527 61.57402893284898 5.301287440767634 0 0 0
9928 1 4.280493709585269 60.32934753184897 6.545432464167636 0 0 0
9929 1 4.280493709585269 60.32934753184897 4.057142417367634 0 0 0
9930 1 6.04157950208527 61.57402893284898 -7.140210568592366 0 0 1
9931 1 6.041656989085268 64.06289475684893 -7.140210568592366 0 0 1
9932 1 4.280571196585271 62.81846184484893 6.545432464167636 0 0 0
9933 1 6.041463271585272 56.59580030684897 -4.651917535832366 0 0 0
9934 1 4.280338735585271 55.35111890584896 -3.407757582632366 0 0 0
9935 1 4.280338735585271 55.35111890584896 -5.896062559232366 0 0 0
9936 1 6.041463271585272 56.59580030684897 -2.163612559232366 0 0 0
9937 1 6.041502015085268 59.08491461984896 -2.163612559232366 0 0 0
9938 1 4.280416222585274 57.84023321884895 -0.9194675358323661 0 0 0
9939 1 4.280416222585274 57.84023321884895 -3.407757582632366 0 0 0
9940 1 6.041502015085268 59.08491461984896 0.3246924173676335 0 0 0
9941 1 6.04157950208527 61.57402893284898 0.3246924173676335 0 0 0
9942 1 4.280493709585269 60.32934753184897 1.568837440767634 0 0 0
9943 1 4.280493709585269 60.32934753184897 -0.9194675358323661 0 0 0
9944 1 6.04157950208527 61.57402893284898 2.812982464167636 0 0 0
9945 1 6.041656989085268 64.06289475684893 2.812982464167636 0 0 0
9946 1 4.280571196585271 62.81846184484893 4.057142417367634 0 0 0
9947 1 4.280571196585271 62.81846184484893 1.568837440767634 0 0 0
9948 1 6.041656989085268 64.06289475684893 5.301287440767634 0 0 0
9949 1 6.041734476085271 66.55200906984895 5.301287440767634 0 0 0
9950 1 4.28064868358527 65.30757615784894 6.545432464167636 0 0 0
9951 1 4.28064868358527 65.30757615784894 4.057142417367634 0 0 0
9952 1 6.041734476085271 66.55200906984895 -7.140210568592366 0 0 1
9953 1 4.280687427085272 67.79669047084893 6.545432464167636 0 0 0
9954 1 4.280416222585274 57.84023321884895 -5.896062559232366 0 0 0
9955 1 6.041502015085268 59.08491461984896 -4.651917535832366 0 0 0
9956 1 6.04157950208527 61.57402893284898 -4.651917535832366 0 0 0
9957 1 4.280493709585269 60.32934753184897 -3.407757582632366 0 0 0
9958 1 4.280493709585269 60.32934753184897 -5.896062559232366 0 0 0
9959 1 6.04157950208527 61.57402893284898 -2.163612559232366 0 0 0
9960 1 6.041656989085268 64.06289475684893 -2.163612559232366 0 0 0
9961 1 4.280571196585271 62.81846184484893 -0.9194675358323661 0 0 0
9962 1 4.280571196585271 62.81846184484893 -3.407757582632366 0 0 0
9963 1 6.041656989085268 64.06289475684893 0.3246924173676335 0 0 0
9964 1 6.041734476085271 66.55200906984895 0.3246924173676335 0 0 0
9965 1 4.28064868358527 65.30757615784894 1.568837440767634 0 0 0
9966 1 4.28064868358527 65.30757615784894 -0.9194675358323661 0 0 0
9967 1 6.041734476085271 66.55200906984895 2.812982464167636 0 0 0
9968 1 4.280687427085272 67.79669047084893 4.057142417367634 0 0 0
9969 1 4.280687427085272 67.79669047084893 1.568837440767634 0 0 0
9970 1 4.280571196585271 62.81846184484893 -5.896062559232366 0 0 0
9971 1 6.041656989085268 64.06289475684893 -4.651917535832366 0 0 0
9972 1 6.041734476085271 66.55200906984895 -4.651917535832366 0 0 0
9973 1 4.28064868358527 65.30757615784894 -3.407757582632366 0 0 0
9974 1 4.28064868358527 65.30757615784894 -5.896062559232366 0 0 0
9975 1 6.041734476085271 66.55200906984895 -2.163612559232366 0 0 0
9976 1 4.280687427085272 67.79669047084893 -0.9194675358323661 0 0 0
9977 1 4.280687427085272 67.79669047084893 -3.407757582632366 0 0 0
9978 1 4.280687427085272 67.79669047084893 -5.896062559232366 0 0 0
9979 1 2.519330430085272 56.59580030684897 5.301287440767634 0 0 0
9980 1 2.519330430085272 56.59580030684897 -7.140210568592366 0 0 1
9981 1 2.519407917085271 59.08491461984896 -7.140210568592366 0 0 1
9982 1 2.519330430085272 56.59580030684897 0.3246924173676335 0 0 0
9983 1 2.519330430085272 56.59580030684897 2.812982464167636 0 0 0
9984 1 2.519407917085271 59.08491461984896 2.812982464167636 0 0 0
9985 1 2.519407917085271 59.08491461984896 5.301287440767634 0 0 0
9986 1 2.51944666058527 61.57402893284898 5.301287440767634 0 0 0
9987 1 2.51944666058527 61.57402893284898 -7.140210568592366 0 0 1
9988 1 2.519524147585269 64.06289475684893 -7.140210568592366 0 0 1
9989 1 2.519330430085272 56.59580030684897 -4.651917535832366 0 0 0
9990 1 2.519330430085272 56.59580030684897 -2.163612559232366 0 0 0
9991 1 2.519407917085271 59.08491461984896 -2.163612559232366 0 0 0
9992 1 2.519407917085271 59.08491461984896 0.3246924173676335 0 0 0
9993 1 2.51944666058527 61.57402893284898 0.3246924173676335 0 0 0
9994 1 2.51944666058527 61.57402893284898 2.812982464167636 0 0 0
9995 1 2.519524147585269 64.06289475684893 2.812982464167636 0 0 0
9996 1 2.519524147585269 64.06289475684893 5.301287440767634 0 0 0
9997 1 2.519601634585271 66.55200906984895 5.301287440767634 0 0 0
9998 1 2.519601634585271 66.55200906984895 -7.140210568592366 0 0 1
9999 1 2.519407917085271 59.08491461984896 -4.651917535832366 0 0 0
10000 1 2.51944666058527 61.57402893284898 -4.651917535832366 0 0 0
10001 1 2.51944666058527 61.57402893284898 -2.163612559232366 0 0 0
10002 1 2.519524147585269 64.06289475684893 -2.163612559232366 0 0 0
10003 1 2.519524147585269 64.06289475684893 0.3246924173676335 0 0 0
10004 1 2.519601634585271 66.55200906984895 0.3246924173676335 0 0 0
10005 1 2.519601634585271 66.55200906984895 2.812982464167636 0 0 0
10006 1 2.519524147585269 64.06289475684893 -4.651917535832366 0 0 0
10007 1 2.519601634585271 66.55200906984895 -4.651917535832366 0 0 0
10008 1 2.519601634585271 66.55200906984895 -2.163612559232366 0 0 0
10009 1 -16.85205150666473 70.28555629484894 6.545432464167636 1 0 0
10010 1 -16.85205150666473 70.28555629484894 4.057142417367634 1 0 0
10011 1 -16.85197401966473 72.77467060784896 6.545432464167636 1 0 0
10012 1 -16.85205150666473 70.28555629484894 1.568837440767634 1 0 0
10013 1 -16.85205150666473 70.28555629484894 -0.9194675358323661 1 0 0
10014 1 -16.85197401966473 72.77467060784896 4.057142417367634 1 0 0
10015 1 -16.85197401966473 72.77467060784896 1.568837440767634 1 0 0
10016 1 -16.85190040701473 75.26378492084895 6.545432464167636 1 0 0
10017 1 -16.85190040701473 75.26378492084895 4.057142417367634 1 0 0
10018 1 -16.85182679436473 77.75289923384896 6.545432464167636 1 0 0
10019 1 -16.85205150666473 70.28555629484894 -3.407757582632366 1 0 0
10020 1 -16.85205150666473 70.28555629484894 -5.896062559232366 1 0 0
10021 1 -16.85197401966473 72.77467060784896 -0.9194675358323661 1 0 0
10022 1 -16.85197401966473 72.77467060784896 -3.407757582632366 1 0 0
10023 1 -16.85190040701473 75.26378492084895 1.568837440767634 1 0 0
10024 1 -16.85190040701473 75.26378492084895 -0.9194675358323661 1 0 0
10025 1 -16.85182679436473 77.75289923384896 4.057142417367634 1 0 0
10026 1 -16.85182679436473 77.75289923384896 1.568837440767634 1 0 0
10027 1 -16.85175318171473 80.24201354684895 6.545432464167636 1 0 0
10028 1 -16.85175318171473 80.24201354684895 4.057142417367634 1 0 0
10029 1 -16.85197401966473 72.77467060784896 -5.896062559232366 1 0 0
10030 1 -16.85190040701473 75.26378492084895 -3.407757582632366 1 0 0
10031 1 -16.85190040701473 75.26378492084895 -5.896062559232366 1 0 0
10032 1 -16.85182679436473 77.75289923384896 -0.9194675358323661 1 0 0
10033 1 -16.85182679436473 77.75289923384896 -3.407757582632366 1 0 0
10034 1 -16.85175318171473 80.24201354684895 1.568837440767634 1 0 0
10035 1 -16.85175318171473 80.24201354684895 -0.9194675358323661 1 0 0
10036 1 -16.85182679436473 77.75289923384896 -5.896062559232366 1 0 0
10037 1 -16.85175318171473 80.24201354684895 -3.407757582632366 1 0 0
10038 1 -16.85175318171473 80.24201354684895 -5.896062559232366 1 0 0
10039 1 -18.61315667091473 69.04112338284894 -7.140210568592366 1 0 1
10040 1 -18.61315667091473 69.04112338284894 2.812982464167636 1 0 0
10041 1 -18.61315667091473 69.04112338284894 5.301287440767634 1 0 0
10042 1 -18.61308305826473 71.53023769584895 5.301287440767634 1 0 0
10043 1 18.36929628008527 70.28555629484894 6.545432464167636 0 0 0
10044 1 18.36929628008527 70.28555629484894 4.057142417367634 0 0 0
10045 1 -18.61308305826473 71.53023769584895 -7.140210568592366 1 0 1
10046 1 -18.61300557126473 74.01935200884894 -7.140210568592366 1 0 1
10047 1 18.36937376708527 72.77467060784896 6.545432464167636 0 0 0
10048 1 -18.61315667091473 69.04112338284894 -2.163612559232366 1 0 0
10049 1 -18.61315667091473 69.04112338284894 0.3246924173676335 1 0 0
10050 1 -18.61308305826473 71.53023769584895 0.3246924173676335 1 0 0
10051 1 18.36929628008527 70.28555629484894 1.568837440767634 0 0 0
10052 1 18.36929628008527 70.28555629484894 -0.9194675358323661 0 0 0
10053 1 -18.61308305826473 71.53023769584895 2.812982464167636 1 0 0
10054 1 -18.61300557126473 74.01935200884894 2.812982464167636 1 0 0
10055 1 18.36937376708527 72.77467060784896 4.057142417367634 0 0 0
10056 1 18.36937376708527 72.77467060784896 1.568837440767634 0 0 0
10057 1 -18.61300557126473 74.01935200884894 5.301287440767634 1 0 0
10058 1 -18.61293195861473 76.50846632184896 5.301287440767634 1 0 0
10059 1 18.36945125408527 75.26378492084895 6.545432464167636 0 0 0
10060 1 18.36945125408527 75.26378492084895 4.057142417367634 0 0 0
10061 1 -18.61293195861473 76.50846632184896 -7.140210568592366 1 0 1
10062 1 -18.61285834596473 78.99733214584897 -7.140210568592366 1 0 1
10063 1 18.36952874108527 77.75289923384896 6.545432464167636 0 0 0
10064 1 -18.61315667091473 69.04112338284894 -4.651917535832366 1 0 0
10065 1 -18.61308305826473 71.53023769584895 -4.651917535832366 1 0 0
10066 1 18.36929628008527 70.28555629484894 -3.407757582632366 0 0 0
10067 1 18.36929628008527 70.28555629484894 -5.896062559232366 0 0 0
10068 1 -18.61308305826473 71.53023769584895 -2.163612559232366 1 0 0
10069 1 -18.61300557126473 74.01935200884894 -2.163612559232366 1 0 0
10070 1 18.36937376708527 72.77467060784896 -0.9194675358323661 0 0 0
10071 1 18.36937376708527 72.77467060784896 -3.407757582632366 0 0 0
10072 1 -18.61300557126473 74.01935200884894 0.3246924173676335 1 0 0
10073 1 -18.61293195861473 76.50846632184896 0.3246924173676335 1 0 0
10074 1 18.36945125408527 75.26378492084895 1.568837440767634 0 0 0
10075 1 18.36945125408527 75.26378492084895 -0.9194675358323661 0 0 0
10076 1 -18.61293195861473 76.50846632184896 2.812982464167636 1 0 0
10077 1 -18.61285834596473 78.99733214584897 2.812982464167636 1 0 0
10078 1 18.36952874108527 77.75289923384896 4.057142417367634 0 0 0
10079 1 18.36952874108527 77.75289923384896 1.568837440767634 0 0 0
10080 1 -18.61285834596473 78.99733214584897 5.301287440767634 1 0 0
10081 1 -18.61278473331473 81.48644645884896 5.301287440767634 1 0 0
10082 1 18.36960622808527 80.24201354684895 6.545432464167636 0 0 0
10083 1 18.36960622808527 80.24201354684895 4.057142417367634 0 0 0
10084 1 -18.61278473331473 81.48644645884896 -7.140210568592366 1 0 1
10085 1 18.36937376708527 72.77467060784896 -5.896062559232366 0 0 0
10086 1 -18.61300557126473 74.01935200884894 -4.651917535832366 1 0 0
10087 1 -18.61293195861473 76.50846632184896 -4.651917535832366 1 0 0
10088 1 18.36945125408527 75.26378492084895 -3.407757582632366 0 0 0
10089 1 18.36945125408527 75.26378492084895 -5.896062559232366 0 0 0
10090 1 -18.61293195861473 76.50846632184896 -2.163612559232366 1 0 0
10091 1 -18.61285834596473 78.99733214584897 -2.163612559232366 1 0 0
10092 1 18.36952874108527 77.75289923384896 -0.9194675358323661 0 0 0
10093 1 18.36952874108527 77.75289923384896 -3.407757582632366 0 0 0
10094 1 -18.61285834596473 78.99733214584897 0.3246924173676335 1 0 0
10095 1 -18.61278473331473 81.48644645884896 0.3246924173676335 1 0 0
10096 1 18.36960622808527 80.24201354684895 1.568837440767634 0 0 0
10097 1 18.36960622808527 80.24201354684895 -0.9194675358323661 0 0 0
10098 1 -18.61278473331473 81.48644645884896 2.812982464167636 1 0 0
10099 1 18.36952874108527 77.75289923384896 -5.896062559232366 0 0 0
10100 1 -18.61285834596473 78.99733214584897 -4.651917535832366 1 0 0
10101 1 -18.61278473331473 81.48644645884896 -4.651917535832366 1 0 0
10102 1 18.36960622808527 80.24201354684895 -3.407757582632366 0 0 0
10103 1 18.36960622808527 80.24201354684895 -5.896062559232366 0 0 0
10104 1 -18.61278473331473 81.48644645884896 -2.163612559232366 1 0 0
10105 1 16.60821048758527 69.04112338284894 -7.140210568592366 0 0 1
10106 1 16.60821048758527 69.04112338284894 2.812982464167636 0 0 0
10107 1 16.60821048758527 69.04112338284894 5.301287440767634 0 0 0
10108 1 16.60828797458527 71.53023769584895 5.301287440767634 0 0 0
10109 1 14.84716343858527 70.28555629484894 6.545432464167636 0 0 0
10110 1 14.84716343858527 70.28555629484894 4.057142417367634 0 0 0
10111 1 16.60828797458527 71.53023769584895 -7.140210568592366 0 0 1
10112 1 16.60836546158527 74.01935200884894 -7.140210568592366 0 0 1
10113 1 14.84724092558527 72.77467060784896 6.545432464167636 0 0 0
10114 1 16.60821048758527 69.04112338284894 -2.163612559232366 0 0 0
10115 1 16.60821048758527 69.04112338284894 0.3246924173676335 0 0 0
10116 1 16.60828797458527 71.53023769584895 0.3246924173676335 0 0 0
10117 1 14.84716343858527 70.28555629484894 1.568837440767634 0 0 0
10118 1 14.84716343858527 70.28555629484894 -0.9194675358323661 0 0 0
10119 1 16.60828797458527 71.53023769584895 2.812982464167636 0 0 0
10120 1 16.60836546158527 74.01935200884894 2.812982464167636 0 0 0
10121 1 14.84724092558527 72.77467060784896 4.057142417367634 0 0 0
10122 1 14.84724092558527 72.77467060784896 1.568837440767634 0 0 0
10123 1 16.60836546158527 74.01935200884894 5.301287440767634 0 0 0
10124 1 16.60844294858527 76.50846632184896 5.301287440767634 0 0 0
10125 1 14.84731841258527 75.26378492084895 6.545432464167636 0 0 0
10126 1 14.84731841258527 75.26378492084895 4.057142417367634 0 0 0
10127 1 16.60844294858527 76.50846632184896 -7.140210568592366 0 0 1
10128 1 16.60852043558527 78.99733214584897 -7.140210568592366 0 0 1
10129 1 14.84739589958527 77.75289923384896 6.545432464167636 0 0 0
10130 1 16.60821048758527 69.04112338284894 -4.651917535832366 0 0 0
10131 1 16.60828797458527 71.53023769584895 -4.651917535832366 0 0 0
10132 1 14.84716343858527 70.28555629484894 -3.407757582632366 0 0 0
10133 1 14.84716343858527 70.28555629484894 -5.896062559232366 0 0 0
10134 1 16.60828797458527 71.53023769584895 -2.163612559232366 0 0 0
10135 1 16.60836546158527 74.01935200884894 -2.163612559232366 0 0 0
10136 1 14.84724092558527 72.77467060784896 -0.9194675358323661 0 0 0
10137 1 14.84724092558527 72.77467060784896 -3.407757582632366 0 0 0
10138 1 16.60836546158527 74.01935200884894 0.3246924173676335 0 0 0
10139 1 16.60844294858527 76.50846632184896 0.3246924173676335 0 0 0
10140 1 14.84731841258527 75.26378492084895 1.568837440767634 0 0 0
10141 1 14.84731841258527 75.26378492084895 -0.9194675358323661 0 0 0
10142 1 16.60844294858527 76.50846632184896 2.812982464167636 0 0 0
10143 1 16.60852043558527 78.99733214584897 2.812982464167636 0 0 0
10144 1 14.84739589958527 77.75289923384896 4.057142417367634 0 0 0
10145 1 14.84739589958527 77.75289923384896 1.568837440767634 0 0 0
10146 1 16.60852043558527 78.99733214584897 5.301287440767634 0 0 0
10147 1 16.60859792258527 81.48644645884896 5.301287440767634 0 0 0
10148 1 14.84747338658527 80.24201354684895 6.545432464167636 0 0 0
10149 1 14.84747338658527 80.24201354684895 4.057142417367634 0 0 0
10150 1 16.60859792258527 81.48644645884896 -7.140210568592366 0 0 1
10151 1 14.84724092558527 72.77467060784896 -5.896062559232366 0 0 0
10152 1 16.60836546158527 74.01935200884894 -4.651917535832366 0 0 0
10153 1 16.60844294858527 76.50846632184896 -4.651917535832366 0 0 0
10154 1 14.84731841258527 75.26378492084895 -3.407757582632366 0 0 0
10155 1 14.84731841258527 75.26378492084895 -5.896062559232366 0 0 0
10156 1 16.60844294858527 76.50846632184896 -2.163612559232366 0 0 0
10157 1 16.60852043558527 78.99733214584897 -2.163612559232366 0 0 0
10158 1 14.84739589958527 77.75289923384896 -0.9194675358323661 0 0 0
10159 1 14.84739589958527 77.75289923384896 -3.407757582632366 0 0 0
10160 1 16.60852043558527 78.99733214584897 0.3246924173676335 0 0 0
10161 1 16.60859792258527 81.48644645884896 0.3246924173676335 0 0 0
10162 1 14.84747338658527 80.24201354684895 1.568837440767634 0 0 0
10163 1 14.84747338658527 80.24201354684895 -0.9194675358323661 0 0 0
10164 1 16.60859792258527 81.48644645884896 2.812982464167636 0 0 0
10165 1 14.84739589958527 77.75289923384896 -5.896062559232366 0 0 0
10166 1 16.60852043558527 78.99733214584897 -4.651917535832366 0 0 0
10167 1 16.60859792258527 81.48644645884896 -4.651917535832366 0 0 0
10168 1 14.84747338658527 80.24201354684895 -3.407757582632366 0 0 0
10169 1 14.84747338658527 80.24201354684895 -5.896062559232366 0 0 0
10170 1 16.60859792258527 81.48644645884896 -2.163612559232366 0 0 0
10171 1 13.08607764608527 69.04112338284894 -7.140210568592366 0 0 1
10172 1 13.08607764608527 69.04112338284894 2.812982464167636 0 0 0
10173 1 13.08607764608527 69.04112338284894 5.301287440767634 0 0 0
10174 1 13.08615513308527 71.53023769584895 5.301287440767634 0 0 0
10175 1 11.32503059708527 70.28555629484894 6.545432464167636 0 0 0
10176 1 11.32503059708527 70.28555629484894 4.057142417367634 0 0 0
10177 1 13.08615513308527 71.53023769584895 -7.140210568592366 0 0 1
10178 1 13.08623262008527 74.01935200884894 -7.140210568592366 0 0 1
10179 1 11.32510808408527 72.77467060784896 6.545432464167636 0 0 0
10180 1 13.08607764608527 69.04112338284894 -2.163612559232366 0 0 0
10181 1 13.08607764608527 69.04112338284894 0.3246924173676335 0 0 0
10182 1 13.08615513308527 71.53023769584895 0.3246924173676335 0 0 0
10183 1 11.32503059708527 70.28555629484894 1.568837440767634 0 0 0
10184 1 11.32503059708527 70.28555629484894 -0.9194675358323661 0 0 0
10185 1 13.08615513308527 71.53023769584895 2.812982464167636 0 0 0
10186 1 13.08623262008527 74.01935200884894 2.812982464167636 0 0 0
10187 1 11.32510808408527 72.77467060784896 4.057142417367634 0 0 0
10188 1 11.32510808408527 72.77467060784896 1.568837440767634 0 0 0
10189 1 13.08623262008527 74.01935200884894 5.301287440767634 0 0 0
10190 1 13.08631010708527 76.50846632184896 5.301287440767634 0 0 0
10191 1 11.32518557108527 75.26378492084895 6.545432464167636 0 0 0
10192 1 11.32518557108527 75.26378492084895 4.057142417367634 0 0 0
10193 1 13.08631010708527 76.50846632184896 -7.140210568592366 0 0 1
10194 1 13.08638759408527 78.99733214584897 -7.140210568592366 0 0 1
10195 1 11.32526305808527 77.75289923384896 6.545432464167636 0 0 0
10196 1 13.08607764608527 69.04112338284894 -4.651917535832366 0 0 0
10197 1 13.08615513308527 71.53023769584895 -4.651917535832366 0 0 0
10198 1 11.32503059708527 70.28555629484894 -3.407757582632366 0 0 0
10199 1 11.32503059708527 70.28555629484894 -5.896062559232366 0 0 0
10200 1 13.08615513308527 71.53023769584895 -2.163612559232366 0 0 0
10201 1 13.08623262008527 74.01935200884894 -2.163612559232366 0 0 0
10202 1 11.32510808408527 72.77467060784896 -0.9194675358323661 0 0 0
10203 1 11.32510808408527 72.77467060784896 -3.407757582632366 0 0 0
10204 1 13.08623262008527 74.01935200884894 0.3246924173676335 0 0 0
10205 1 13.08631010708527 76.50846632184896 0.3246924173676335 0 0 0
10206 1 11.32518557108527 75.26378492084895 1.568837440767634 0 0 0
10207 1 11.32518557108527 75.26378492084895 -0.9194675358323661 0 0 0
10208 1 13.08631010708527 76.50846632184896 2.812982464167636 0 0 0
10209 1 13.08638759408527 78.99733214584897 2.812982464167636 0 0 0
10210 1 11.32526305808527 77.75289923384896 4.057142417367634 0 0 0
10211 1 11.32526305808527 77.75289923384896 1.568837440767634 0 0 0
10212 1 13.08638759408527 78.99733214584897 5.301287440767634 0 0 0
10213 1 13.08642633758527 81.48644645884896 5.301287440767634 0 0 0
10214 1 11.32534054508527 80.24201354684895 6.545432464167636 0 0 0
10215 1 11.32534054508527 80.24201354684895 4.057142417367634 0 0 0
10216 1 13.08642633758527 81.48644645884896 -7.140210568592366 0 0 1
10217 1 11.32510808408527 72.77467060784896 -5.896062559232366 0 0 0
10218 1 13.08623262008527 74.01935200884894 -4.651917535832366 0 0 0
10219 1 13.08631010708527 76.50846632184896 -4.651917535832366 0 0 0
10220 1 11.32518557108527 75.26378492084895 -3.407757582632366 0 0 0
10221 1 11.32518557108527 75.26378492084895 -5.896062559232366 0 0 0
10222 1 13.08631010708527 76.50846632184896 -2.163612559232366 0 0 0
10223 1 13.08638759408527 78.99733214584897 -2.163612559232366 0 0 0
10224 1 11.32526305808527 77.75289923384896 -0.9194675358323661 0 0 0
10225 1 11.32526305808527 77.75289923384896 -3.407757582632366 0 0 0
10226 1 13.08638759408527 78.99733214584897 0.3246924173676335 0 0 0
10227 1 13.08642633758527 81.48644645884896 0.3246924173676335 0 0 0
10228 1 11.32534054508527 80.24201354684895 1.568837440767634 0 0 0
10229 1 11.32534054508527 80.24201354684895 -0.9194675358323661 0 0 0
10230 1 13.08642633758527 81.48644645884896 2.812982464167636 0 0 0
10231 1 11.32526305808527 77.75289923384896 -5.896062559232366 0 0 0
10232 1 13.08638759408527 78.99733214584897 -4.651917535832366 0 0 0
10233 1 13.08642633758527 81.48644645884896 -4.651917535832366 0 0 0
10234 1 11.32534054508527 80.24201354684895 -3.407757582632366 0 0 0
10235 1 11.32534054508527 80.24201354684895 -5.896062559232366 0 0 0
10236 1 13.08642633758527 81.48644645884896 -2.163612559232366 0 0 0
10237 1 9.563944804585269 69.04112338284894 -7.140210568592366 0 0 1
10238 1 9.563944804585269 69.04112338284894 2.812982464167636 0 0 0
10239 1 9.563944804585269 69.04112338284894 5.301287440767634 0 0 0
10240 1 9.564022291585271 71.53023769584895 5.301287440767634 0 0 0
10241 1 7.802897755585271 70.28555629484894 6.545432464167636 0 0 0
10242 1 7.802897755585271 70.28555629484894 4.057142417367634 0 0 0
10243 1 9.564022291585271 71.53023769584895 -7.140210568592366 0 0 1
10244 1 9.56409977858527 74.01935200884894 -7.140210568592366 0 0 1
10245 1 7.802975242585273 72.77467060784896 6.545432464167636 0 0 0
10246 1 9.563944804585269 69.04112338284894 -2.163612559232366 0 0 0
10247 1 9.563944804585269 69.04112338284894 0.3246924173676335 0 0 0
10248 1 9.564022291585271 71.53023769584895 0.3246924173676335 0 0 0
10249 1 7.802897755585271 70.28555629484894 1.568837440767634 0 0 0
10250 1 7.802897755585271 70.28555629484894 -0.9194675358323661 0 0 0
10251 1 9.564022291585271 71.53023769584895 2.812982464167636 0 0 0
10252 1 9.56409977858527 74.01935200884894 2.812982464167636 0 0 0
10253 1 7.802975242585273 72.77467060784896 4.057142417367634 0 0 0
10254 1 7.802975242585273 72.77467060784896 1.568837440767634 0 0 0
10255 1 9.56409977858527 74.01935200884894 5.301287440767634 0 0 0
10256 1 9.564177265585272 76.50846632184896 5.301287440767634 0 0 0
10257 1 7.803052729585271 75.26378492084895 6.545432464167636 0 0 0
10258 1 7.803052729585271 75.26378492084895 4.057142417367634 0 0 0
10259 1 9.564177265585272 76.50846632184896 -7.140210568592366 0 0 1
10260 1 9.564216009085268 78.99733214584897 -7.140210568592366 0 0 1
10261 1 7.803130216585267 77.75289923384896 6.545432464167636 0 0 0
10262 1 9.563944804585269 69.04112338284894 -4.651917535832366 0 0 0
10263 1 9.564022291585271 71.53023769584895 -4.651917535832366 0 0 0
10264 1 7.802897755585271 70.28555629484894 -3.407757582632366 0 0 0
10265 1 7.802897755585271 70.28555629484894 -5.896062559232366 0 0 0
10266 1 9.564022291585271 71.53023769584895 -2.163612559232366 0 0 0
10267 1 9.56409977858527 74.01935200884894 -2.163612559232366 0 0 0
10268 1 7.802975242585273 72.77467060784896 -0.9194675358323661 0 0 0
10269 1 7.802975242585273 72.77467060784896 -3.407757582632366 0 0 0
10270 1 9.56409977858527 74.01935200884894 0.3246924173676335 0 0 0
10271 1 9.564177265585272 76.50846632184896 0.3246924173676335 0 0 0
10272 1 7.803052729585271 75.26378492084895 1.568837440767634 0 0 0
10273 1 7.803052729585271 75.26378492084895 -0.9194675358323661 0 0 0
10274 1 9.564177265585272 76.50846632184896 2.812982464167636 0 0 0
10275 1 9.564216009085268 78.99733214584897 2.812982464167636 0 0 0
10276 1 7.803130216585267 77.75289923384896 4.057142417367634 0 0 0
10277 1 7.803130216585267 77.75289923384896 1.568837440767634 0 0 0
10278 1 9.564216009085268 78.99733214584897 5.301287440767634 0 0 0
10279 1 9.56429349608527 81.48644645884896 5.301287440767634 0 0 0
10280 1 7.803207703585269 80.24201354684895 6.545432464167636 0 0 0
10281 1 7.803207703585269 80.24201354684895 4.057142417367634 0 0 0
10282 1 9.56429349608527 81.48644645884896 -7.140210568592366 0 0 1
10283 1 7.802975242585273 72.77467060784896 -5.896062559232366 0 0 0
10284 1 9.56409977858527 74.01935200884894 -4.651917535832366 0 0 0
10285 1 9.564177265585272 76.50846632184896 -4.651917535832366 0 0 0
10286 1 7.803052729585271 75.26378492084895 -3.407757582632366 0 0 0
10287 1 7.803052729585271 75.26378492084895 -5.896062559232366 0 0 0
10288 1 9.564177265585272 76.50846632184896 -2.163612559232366 0 0 0
10289 1 9.564216009085268 78.99733214584897 -2.163612559232366 0 0 0
10290 1 7.803130216585267 77.75289923384896 -0.9194675358323661 0 0 0
10291 1 7.803130216585267 77.75289923384896 -3.407757582632366 0 0 0
10292 1 9.564216009085268 78.99733214584897 0.3246924173676335 0 0 0
10293 1 9.56429349608527 81.48644645884896 0.3246924173676335 0 0 0
10294 1 7.803207703585269 80.24201354684895 1.568837440767634 0 0 0
10295 1 7.803207703585269 80.24201354684895 -0.9194675358323661 0 0 0
10296 1 9.56429349608527 81.48644645884896 2.812982464167636 0 0 0
10297 1 7.803130216585267 77.75289923384896 -5.896062559232366 0 0 0
10298 1 9.564216009085268 78.99733214584897 -4.651917535832366 0 0 0
10299 1 9.56429349608527 81.48644645884896 -4.651917535832366 0 0 0
10300 1 7.803207703585269 80.24201354684895 -3.407757582632366 0 0 0
10301 1 7.803207703585269 80.24201354684895 -5.896062559232366 0 0 0
10302 1 9.56429349608527 81.48644645884896 -2.163612559232366 0 0 0
10303 1 6.041811963085269 69.04112338284894 -7.140210568592366 0 0 1
10304 1 6.041811963085269 69.04112338284894 2.812982464167636 0 0 0
10305 1 6.041811963085269 69.04112338284894 5.301287440767634 0 0 0
10306 1 6.041889450085272 71.53023769584895 5.301287440767634 0 0 0
10307 1 4.280764914085271 70.28555629484894 6.545432464167636 0 0 0
10308 1 4.280764914085271 70.28555629484894 4.057142417367634 0 0 0
10309 1 6.041889450085272 71.53023769584895 -7.140210568592366 0 0 1
10310 1 6.04196693708527 74.01935200884894 -7.140210568592366 0 0 1
10311 1 4.280842401085273 72.77467060784896 6.545432464167636 0 0 0
10312 1 6.041811963085269 69.04112338284894 -2.163612559232366 0 0 0
10313 1 6.041811963085269 69.04112338284894 0.3246924173676335 0 0 0
10314 1 6.041889450085272 71.53023769584895 0.3246924173676335 0 0 0
10315 1 4.280764914085271 70.28555629484894 1.568837440767634 0 0 0
10316 1 4.280764914085271 70.28555629484894 -0.9194675358323661 0 0 0
10317 1 6.041889450085272 71.53023769584895 2.812982464167636 0 0 0
10318 1 6.04196693708527 74.01935200884894 2.812982464167636 0 0 0
10319 1 4.280842401085273 72.77467060784896 4.057142417367634 0 0 0
10320 1 4.280842401085273 72.77467060784896 1.568837440767634 0 0 0
10321 1 6.04196693708527 74.01935200884894 5.301287440767634 0 0 0
10322 1 6.04200568058527 76.50846632184896 5.301287440767634 0 0 0
10323 1 4.280919888085268 75.26378492084895 6.545432464167636 0 0 0
10324 1 4.280919888085268 75.26378492084895 4.057142417367634 0 0 0
10325 1 6.04200568058527 76.50846632184896 -7.140210568592366 0 0 1
10326 1 6.042083167585268 78.99733214584897 -7.140210568592366 0 0 1
10327 1 4.280997375085271 77.75289923384896 6.545432464167636 0 0 0
10328 1 6.041811963085269 69.04112338284894 -4.651917535832366 0 0 0
10329 1 6.041889450085272 71.53023769584895 -4.651917535832366 0 0 0
10330 1 4.280764914085271 70.28555629484894 -3.407757582632366 0 0 0
10331 1 4.280764914085271 70.28555629484894 -5.896062559232366 0 0 0
10332 1 6.041889450085272 71.53023769584895 -2.163612559232366 0 0 0
10333 1 6.04196693708527 74.01935200884894 -2.163612559232366 0 0 0
10334 1 4.280842401085273 72.77467060784896 -0.9194675358323661 0 0 0
10335 1 4.280842401085273 72.77467060784896 -3.407757582632366 0 0 0
10336 1 6.04196693708527 74.01935200884894 0.3246924173676335 0 0 0
10337 1 6.04200568058527 76.50846632184896 0.3246924173676335 0 0 0
10338 1 4.280919888085268 75.26378492084895 1.568837440767634 0 0 0
10339 1 4.280919888085268 75.26378492084895 -0.9194675358323661 0 0 0
10340 1 6.04200568058527 76.50846632184896 2.812982464167636 0 0 0
10341 1 6.042083167585268 78.99733214584897 2.812982464167636 0 0 0
10342 1 4.280997375085271 77.75289923384896 4.057142417367634 0 0 0
10343 1 4.280997375085271 77.75289923384896 1.568837440767634 0 0 0
10344 1 6.042083167585268 78.99733214584897 5.301287440767634 0 0 0
10345 1 6.04216065458527 81.48644645884896 5.301287440767634 0 0 0
10346 1 4.281074862085269 80.24201354684895 6.545432464167636 0 0 0
10347 1 4.281074862085269 80.24201354684895 4.057142417367634 0 0 0
10348 1 6.04216065458527 81.48644645884896 -7.140210568592366 0 0 1
10349 1 4.280842401085273 72.77467060784896 -5.896062559232366 0 0 0
10350 1 6.04196693708527 74.01935200884894 -4.651917535832366 0 0 0
10351 1 6.04200568058527 76.50846632184896 -4.651917535832366 0 0 0
10352 1 4.280919888085268 75.26378492084895 -3.407757582632366 0 0 0
10353 1 4.280919888085268 75.26378492084895 -5.896062559232366 0 0 0
10354 1 6.04200568058527 76.50846632184896 -2.163612559232366 0 0 0
10355 1 6.042083167585268 78.99733214584897 -2.163612559232366 0 0 0
10356 1 4.280997375085271 77.75289923384896 -0.9194675358323661 0 0 0
10357 1 4.280997375085271 77.75289923384896 -3.407757582632366 0 0 0
10358 1 6.042083167585268 78.99733214584897 0.3246924173676335 0 0 0
10359 1 6.04216065458527 81.48644645884896 0.3246924173676335 0 0 0
10360 1 4.281074862085269 80.24201354684895 1.568837440767634 0 0 0
10361 1 4.281074862085269 80.24201354684895 -0.9194675358323661 0 0 0
10362 1 6.04216065458527 81.48644645884896 2.812982464167636 0 0 0
10363 1 4.280997375085271 77.75289923384896 -5.896062559232366 0 0 0
10364 1 6.042083167585268 78.99733214584897 -4.651917535832366 0 0 0
10365 1 6.04216065458527 81.48644645884896 -4.651917535832366 0 0 0
10366 1 4.281074862085269 80.24201354684895 -3.407757582632366 0 0 0
10367 1 4.281074862085269 80.24201354684895 -5.896062559232366 0 0 0
10368 1 6.04216065458527 81.48644645884896 -2.163612559232366 0 0 0
10369 1 2.51967912158527 69.04112338284894 -7.140210568592366 0 0 1
10370 1 2.51967912158527 69.04112338284894 2.812982464167636 0 0 0
10371 1 2.51967912158527 69.04112338284894 5.301287440767634 0 0 0
10372 1 2.519756608585272 71.53023769584895 5.301287440767634 0 0 0
10373 1 2.519756608585272 71.53023769584895 -7.140210568592366 0 0 1
10374 1 2.519795352085271 74.01935200884894 -7.140210568592366 0 0 1
10375 1 2.51967912158527 69.04112338284894 -2.163612559232366 0 0 0
10376 1 2.51967912158527 69.04112338284894 0.3246924173676335 0 0 0
10377 1 2.519756608585272 71.53023769584895 0.3246924173676335 0 0 0
10378 1 2.519756608585272 71.53023769584895 2.812982464167636 0 0 0
10379 1 2.519795352085271 74.01935200884894 2.812982464167636 0 0 0
10380 1 2.519795352085271 74.01935200884894 5.301287440767634 0 0 0
10381 1 2.51987283908527 76.50846632184896 5.301287440767634 0 0 0
10382 1 2.51987283908527 76.50846632184896 -7.140210568592366 0 0 1
10383 1 2.519950326085272 78.99733214584897 -7.140210568592366 0 0 1
10384 1 2.51967912158527 69.04112338284894 -4.651917535832366 0 0 0
10385 1 2.519756608585272 71.53023769584895 -4.651917535832366 0 0 0
10386 1 2.519756608585272 71.53023769584895 -2.163612559232366 0 0 0
10387 1 2.519795352085271 74.01935200884894 -2.163612559232366 0 0 0
10388 1 2.519795352085271 74.01935200884894 0.3246924173676335 0 0 0
10389 1 2.51987283908527 76.50846632184896 0.3246924173676335 0 0 0
10390 1 2.51987283908527 76.50846632184896 2.812982464167636 0 0 0
10391 1 2.519950326085272 78.99733214584897 2.812982464167636 0 0 0
10392 1 2.519950326085272 78.99733214584897 5.301287440767634 0 0 0
10393 1 2.520027813085271 81.48644645884896 5.301287440767634 0 0 0
10394 1 2.520027813085271 81.48644645884896 -7.140210568592366 0 0 1
10395 1 2.519795352085271 74.01935200884894 -4.651917535832366 0 0 0
10396 1 2.51987283908527 76.50846632184896 -4.651917535832366 0 0 0
10397 1 2.51987283908527 76.50846632184896 -2.163612559232366 0 0 0
10398 1 2.519950326085272 78.99733214584897 -2.163612559232366 0 0 0
10399 1 2.519950326085272 78.99733214584897 0.3246924173676335 0 0 0
10400 1 2.520027813085271 81.48644645884896 0.3246924173676335 0 0 0
10401 1 2.520027813085271 81.48644645884896 2.812982464167636 0 0 0
10402 1 2.519950326085272 78.99733214584897 -4.651917535832366 0 0 0
10403 1 2.520027813085271 81.48644645884896 -4.651917535832366 0 0 0
10404 1 2.520027813085271 81.48644645884896 -2.163612559232366 0 0 0
10405 1 -16.85167956906473 82.73112785984897 6.545432464167636 1 0 0
10406 1 -16.85167956906473 82.73112785984897 4.057142417367634 1 0 0
10407 1 -16.85167956906473 82.73112785984897 1.568837440767634 1 0 0
10408 1 -16.85160595641473 85.21999368384895 6.545432464167636 1 0 0
10409 1 -16.85160595641473 85.21999368384895 4.057142417367634 1 0 0
10410 1 -16.85153234376473 87.70910799684894 6.545432464167636 1 0 0
10411 1 -16.85167956906473 82.73112785984897 -0.9194675358323661 1 0 0
10412 1 -16.85167956906473 82.73112785984897 -3.407757582632366 1 0 0
10413 1 -16.85160595641473 85.21999368384895 1.568837440767634 1 0 0
10414 1 -16.85160595641473 85.21999368384895 -0.9194675358323661 1 0 0
10415 1 -16.85153234376473 87.70910799684894 4.057142417367634 1 0 0
10416 1 -16.85153234376473 87.70910799684894 1.568837440767634 1 0 0
10417 1 -16.85145873111473 90.19822230984896 6.545432464167636 1 0 0
10418 1 -16.85145873111473 90.19822230984896 4.057142417367634 1 0 0
10419 1 -16.85138511846473 92.68733662284895 6.545432464167636 1 0 0
10420 1 -16.85167956906473 82.73112785984897 -5.896062559232366 1 0 0
10421 1 -16.85160595641473 85.21999368384895 -3.407757582632366 1 0 0
10422 1 -16.85160595641473 85.21999368384895 -5.896062559232366 1 0 0
10423 1 -16.85153234376473 87.70910799684894 -0.9194675358323661 1 0 0
10424 1 -16.85153234376473 87.70910799684894 -3.407757582632366 1 0 0
10425 1 -16.85145873111473 90.19822230984896 1.568837440767634 1 0 0
10426 1 -16.85145873111473 90.19822230984896 -0.9194675358323661 1 0 0
10427 1 -16.85138511846473 92.68733662284895 4.057142417367634 1 0 0
10428 1 -16.85138511846473 92.68733662284895 1.568837440767634 1 0 0
10429 1 -16.85131150581473 95.17645093584896 6.545432464167636 1 0 0
10430 1 -16.85131150581473 95.17645093584896 4.057142417367634 1 0 0
10431 1 -16.85153234376473 87.70910799684894 -5.896062559232366 1 0 0
10432 1 -16.85145873111473 90.19822230984896 -3.407757582632366 1 0 0
10433 1 -16.85145873111473 90.19822230984896 -5.896062559232366 1 0 0
10434 1 -16.85138511846473 92.68733662284895 -0.9194675358323661 1 0 0
10435 1 -16.85138511846473 92.68733662284895 -3.407757582632366 1 0 0
10436 1 -16.85131150581473 95.17645093584896 1.568837440767634 1 0 0
10437 1 -16.85131150581473 95.17645093584896 -0.9194675358323661 1 0 0
10438 1 -16.85138511846473 92.68733662284895 -5.896062559232366 1 0 0
10439 1 -16.85131150581473 95.17645093584896 -3.407757582632366 1 0 0
10440 1 -16.85131150581473 95.17645093584896 -5.896062559232366 1 0 0
10441 1 -18.61271112066473 83.97556077184895 -7.140210568592366 1 0 1
10442 1 18.36968371508527 82.73112785984897 6.545432464167636 0 0 0
10443 1 -18.61271112066473 83.97556077184895 2.812982464167636 1 0 0
10444 1 18.36968371508527 82.73112785984897 4.057142417367634 0 0 0
10445 1 18.36968371508527 82.73112785984897 1.568837440767634 0 0 0
10446 1 -18.61271112066473 83.97556077184895 5.301287440767634 1 0 0
10447 1 -18.61263750801473 86.46467508484893 5.301287440767634 1 0 0
10448 1 18.36976120208527 85.21999368384895 6.545432464167636 0 0 0
10449 1 18.36976120208527 85.21999368384895 4.057142417367634 0 0 0
10450 1 -18.61263750801473 86.46467508484893 -7.140210568592366 1 0 1
10451 1 -18.61256389536473 88.95378939784895 -7.140210568592366 1 0 1
10452 1 18.36983868908527 87.70910799684894 6.545432464167636 0 0 0
10453 1 -18.61271112066473 83.97556077184895 -2.163612559232366 1 0 0
10454 1 18.36968371508527 82.73112785984897 -0.9194675358323661 0 0 0
10455 1 18.36968371508527 82.73112785984897 -3.407757582632366 0 0 0
10456 1 -18.61271112066473 83.97556077184895 0.3246924173676335 1 0 0
10457 1 -18.61263750801473 86.46467508484893 0.3246924173676335 1 0 0
10458 1 18.36976120208527 85.21999368384895 1.568837440767634 0 0 0
10459 1 18.36976120208527 85.21999368384895 -0.9194675358323661 0 0 0
10460 1 -18.61263750801473 86.46467508484893 2.812982464167636 1 0 0
10461 1 -18.61256389536473 88.95378939784895 2.812982464167636 1 0 0
10462 1 18.36983868908527 87.70910799684894 4.057142417367634 0 0 0
10463 1 18.36983868908527 87.70910799684894 1.568837440767634 0 0 0
10464 1 -18.61256389536473 88.95378939784895 5.301287440767634 1 0 0
10465 1 -18.61249028271473 91.44265522184897 5.301287440767634 1 0 0
10466 1 18.36991617608527 90.19822230984896 6.545432464167636 0 0 0
10467 1 18.36991617608527 90.19822230984896 4.057142417367634 0 0 0
10468 1 -18.61249028271473 91.44265522184897 -7.140210568592366 1 0 1
10469 1 -18.61241667006473 93.93176953484895 -7.140210568592366 1 0 1
10470 1 18.36999366308527 92.68733662284895 6.545432464167636 0 0 0
10471 1 18.36968371508527 82.73112785984897 -5.896062559232366 0 0 0
10472 1 -18.61271112066473 83.97556077184895 -4.651917535832366 1 0 0
10473 1 -18.61263750801473 86.46467508484893 -4.651917535832366 1 0 0
10474 1 18.36976120208527 85.21999368384895 -3.407757582632366 0 0 0
10475 1 18.36976120208527 85.21999368384895 -5.896062559232366 0 0 0
10476 1 -18.61263750801473 86.46467508484893 -2.163612559232366 1 0 0
10477 1 -18.61256389536473 88.95378939784895 -2.163612559232366 1 0 0
10478 1 18.36983868908527 87.70910799684894 -0.9194675358323661 0 0 0
10479 1 18.36983868908527 87.70910799684894 -3.407757582632366 0 0 0
10480 1 -18.61256389536473 88.95378939784895 0.3246924173676335 1 0 0
10481 1 -18.61249028271473 91.44265522184897 0.3246924173676335 1 0 0
10482 1 18.36991617608527 90.19822230984896 1.568837440767634 0 0 0
10483 1 18.36991617608527 90.19822230984896 -0.9194675358323661 0 0 0
10484 1 -18.61249028271473 91.44265522184897 2.812982464167636 1 0 0
10485 1 -18.61241667006473 93.93176953484895 2.812982464167636 1 0 0
10486 1 18.36999366308527 92.68733662284895 4.057142417367634 0 0 0
10487 1 18.36999366308527 92.68733662284895 1.568837440767634 0 0 0
10488 1 -18.61241667006473 93.93176953484895 5.301287440767634 1 0 0
10489 1 18.37007115008527 95.17645093584896 6.545432464167636 0 0 0
10490 1 18.37007115008527 95.17645093584896 4.057142417367634 0 0 0
10491 1 18.36983868908527 87.70910799684894 -5.896062559232366 0 0 0
10492 1 -18.61256389536473 88.95378939784895 -4.651917535832366 1 0 0
10493 1 -18.61249028271473 91.44265522184897 -4.651917535832366 1 0 0
10494 1 18.36991617608527 90.19822230984896 -3.407757582632366 0 0 0
10495 1 18.36991617608527 90.19822230984896 -5.896062559232366 0 0 0
10496 1 -18.61249028271473 91.44265522184897 -2.163612559232366 1 0 0
10497 1 -18.61241667006473 93.93176953484895 -2.163612559232366 1 0 0
10498 1 18.36999366308527 92.68733662284895 -0.9194675358323661 0 0 0
10499 1 18.36999366308527 92.68733662284895 -3.407757582632366 0 0 0
10500 1 -18.61241667006473 93.93176953484895 0.3246924173676335 1 0 0
10501 1 18.37007115008527 95.17645093584896 1.568837440767634 0 0 0
10502 1 18.37007115008527 95.17645093584896 -0.9194675358323661 0 0 0
10503 1 18.36999366308527 92.68733662284895 -5.896062559232366 0 0 0
10504 1 -18.61241667006473 93.93176953484895 -4.651917535832366 1 0 0
10505 1 18.37007115008527 95.17645093584896 -3.407757582632366 0 0 0
10506 1 18.37007115008527 95.17645093584896 -5.896062559232366 0 0 0
10507 1 16.60863666608527 83.97556077184895 -7.140210568592366 0 0 1
10508 1 14.84755087358527 82.73112785984897 6.545432464167636 0 0 0
10509 1 16.60863666608527 83.97556077184895 2.812982464167636 0 0 0
10510 1 14.84755087358527 82.73112785984897 4.057142417367634 0 0 0
10511 1 14.84755087358527 82.73112785984897 1.568837440767634 0 0 0
10512 1 16.60863666608527 83.97556077184895 5.301287440767634 0 0 0
10513 1 16.60871415308527 86.46467508484893 5.301287440767634 0 0 0
10514 1 14.84762836058527 85.21999368384895 6.545432464167636 0 0 0
10515 1 14.84762836058527 85.21999368384895 4.057142417367634 0 0 0
10516 1 16.60871415308527 86.46467508484893 -7.140210568592366 0 0 1
10517 1 16.60879164008527 88.95378939784895 -7.140210568592366 0 0 1
10518 1 14.84770584758527 87.70910799684894 6.545432464167636 0 0 0
10519 1 16.60863666608527 83.97556077184895 -2.163612559232366 0 0 0
10520 1 14.84755087358527 82.73112785984897 -0.9194675358323661 0 0 0
10521 1 14.84755087358527 82.73112785984897 -3.407757582632366 0 0 0
10522 1 16.60863666608527 83.97556077184895 0.3246924173676335 0 0 0
10523 1 16.60871415308527 86.46467508484893 0.3246924173676335 0 0 0
10524 1 14.84762836058527 85.21999368384895 1.568837440767634 0 0 0
10525 1 14.84762836058527 85.21999368384895 -0.9194675358323661 0 0 0
10526 1 16.60871415308527 86.46467508484893 2.812982464167636 0 0 0
10527 1 16.60879164008527 88.95378939784895 2.812982464167636 0 0 0
10528 1 14.84770584758527 87.70910799684894 4.057142417367634 0 0 0
10529 1 14.84770584758527 87.70910799684894 1.568837440767634 0 0 0
10530 1 16.60879164008527 88.95378939784895 5.301287440767634 0 0 0
10531 1 16.60886912708527 91.44265522184897 5.301287440767634 0 0 0
10532 1 14.84778333458527 90.19822230984896 6.545432464167636 0 0 0
10533 1 14.84778333458527 90.19822230984896 4.057142417367634 0 0 0
10534 1 16.60886912708527 91.44265522184897 -7.140210568592366 0 0 1
10535 1 16.60894661408527 93.93176953484895 -7.140210568592366 0 0 1
10536 1 14.84786082158527 92.68733662284895 6.545432464167636 0 0 0
10537 1 14.84755087358527 82.73112785984897 -5.896062559232366 0 0 0
10538 1 16.60863666608527 83.97556077184895 -4.651917535832366 0 0 0
10539 1 16.60871415308527 86.46467508484893 -4.651917535832366 0 0 0
10540 1 14.84762836058527 85.21999368384895 -3.407757582632366 0 0 0
10541 1 14.84762836058527 85.21999368384895 -5.896062559232366 0 0 0
10542 1 16.60871415308527 86.46467508484893 -2.163612559232366 0 0 0
10543 1 16.60879164008527 88.95378939784895 -2.163612559232366 0 0 0
10544 1 14.84770584758527 87.70910799684894 -0.9194675358323661 0 0 0
10545 1 14.84770584758527 87.70910799684894 -3.407757582632366 0 0 0
10546 1 16.60879164008527 88.95378939784895 0.3246924173676335 0 0 0
10547 1 16.60886912708527 91.44265522184897 0.3246924173676335 0 0 0
10548 1 14.84778333458527 90.19822230984896 1.568837440767634 0 0 0
10549 1 14.84778333458527 90.19822230984896 -0.9194675358323661 0 0 0
10550 1 16.60886912708527 91.44265522184897 2.812982464167636 0 0 0
10551 1 16.60894661408527 93.93176953484895 2.812982464167636 0 0 0
10552 1 14.84786082158527 92.68733662284895 4.057142417367634 0 0 0
10553 1 14.84786082158527 92.68733662284895 1.568837440767634 0 0 0
10554 1 16.60894661408527 93.93176953484895 5.301287440767634 0 0 0
10555 1 14.84789956508527 95.17645093584896 6.545432464167636 0 0 0
10556 1 14.84789956508527 95.17645093584896 4.057142417367634 0 0 0
10557 1 14.84770584758527 87.70910799684894 -5.896062559232366 0 0 0
10558 1 16.60879164008527 88.95378939784895 -4.651917535832366 0 0 0
10559 1 16.60886912708527 91.44265522184897 -4.651917535832366 0 0 0
10560 1 14.84778333458527 90.19822230984896 -3.407757582632366 0 0 0
10561 1 14.84778333458527 90.19822230984896 -5.896062559232366 0 0 0
10562 1 16.60886912708527 91.44265522184897 -2.163612559232366 0 0 0
10563 1 16.60894661408527 93.93176953484895 -2.163612559232366 0 0 0
10564 1 14.84786082158527 92.68733662284895 -0.9194675358323661 0 0 0
10565 1 14.84786082158527 92.68733662284895 -3.407757582632366 0 0 0
10566 1 16.60894661408527 93.93176953484895 0.3246924173676335 0 0 0
10567 1 14.84789956508527 95.17645093584896 1.568837440767634 0 0 0
10568 1 14.84789956508527 95.17645093584896 -0.9194675358323661 0 0 0
10569 1 14.84786082158527 92.68733662284895 -5.896062559232366 0 0 0
10570 1 16.60894661408527 93.93176953484895 -4.651917535832366 0 0 0
10571 1 14.84789956508527 95.17645093584896 -3.407757582632366 0 0 0
10572 1 14.84789956508527 95.17645093584896 -5.896062559232366 0 0 0
10573 1 13.08650382458527 83.97556077184895 -7.140210568592366 0 0 1
10574 1 11.32541803208527 82.73112785984897 6.545432464167636 0 0 0
10575 1 13.08650382458527 83.97556077184895 2.812982464167636 0 0 0
10576 1 11.32541803208527 82.73112785984897 4.057142417367634 0 0 0
10577 1 11.32541803208527 82.73112785984897 1.568837440767634 0 0 0
10578 1 13.08650382458527 83.97556077184895 5.301287440767634 0 0 0
10579 1 13.08658131158527 86.46467508484893 5.301287440767634 0 0 0
10580 1 11.32549551908527 85.21999368384895 6.545432464167636 0 0 0
10581 1 11.32549551908527 85.21999368384895 4.057142417367634 0 0 0
10582 1 13.08658131158527 86.46467508484893 -7.140210568592366 0 0 1
10583 1 13.08665879858527 88.95378939784895 -7.140210568592366 0 0 1
10584 1 11.32557300608527 87.70910799684894 6.545432464167636 0 0 0
10585 1 13.08650382458527 83.97556077184895 -2.163612559232366 0 0 0
10586 1 11.32541803208527 82.73112785984897 -0.9194675358323661 0 0 0
10587 1 11.32541803208527 82.73112785984897 -3.407757582632366 0 0 0
10588 1 13.08650382458527 83.97556077184895 0.3246924173676335 0 0 0
10589 1 13.08658131158527 86.46467508484893 0.3246924173676335 0 0 0
10590 1 11.32549551908527 85.21999368384895 1.568837440767634 0 0 0
10591 1 11.32549551908527 85.21999368384895 -0.9194675358323661 0 0 0
10592 1 13.08658131158527 86.46467508484893 2.812982464167636 0 0 0
10593 1 13.08665879858527 88.95378939784895 2.812982464167636 0 0 0
10594 1 11.32557300608527 87.70910799684894 4.057142417367634 0 0 0
10595 1 11.32557300608527 87.70910799684894 1.568837440767634 0 0 0
10596 1 13.08665879858527 88.95378939784895 5.301287440767634 0 0 0
10597 1 13.08673628558527 91.44265522184897 5.301287440767634 0 0 0
10598 1 11.32565049308527 90.19822230984896 6.545432464167636 0 0 0
10599 1 11.32565049308527 90.19822230984896 4.057142417367634 0 0 0
10600 1 13.08673628558527 91.44265522184897 -7.140210568592366 0 0 1
10601 1 13.08681377258527 93.93176953484895 -7.140210568592366 0 0 1
10602 1 11.32568923658527 92.68733662284895 6.545432464167636 0 0 0
10603 1 11.32541803208527 82.73112785984897 -5.896062559232366 0 0 0
10604 1 13.08650382458527 83.97556077184895 -4.651917535832366 0 0 0
10605 1 13.08658131158527 86.46467508484893 -4.651917535832366 0 0 0
10606 1 11.32549551908527 85.21999368384895 -3.407757582632366 0 0 0
10607 1 11.32549551908527 85.21999368384895 -5.896062559232366 0 0 0
10608 1 13.08658131158527 86.46467508484893 -2.163612559232366 0 0 0
10609 1 13.08665879858527 88.95378939784895 -2.163612559232366 0 0 0
10610 1 11.32557300608527 87.70910799684894 -0.9194675358323661 0 0 0
10611 1 11.32557300608527 87.70910799684894 -3.407757582632366 0 0 0
10612 1 13.08665879858527 88.95378939784895 0.3246924173676335 0 0 0
10613 1 13.08673628558527 91.44265522184897 0.3246924173676335 0 0 0
10614 1 11.32565049308527 90.19822230984896 1.568837440767634 0 0 0
10615 1 11.32565049308527 90.19822230984896 -0.9194675358323661 0 0 0
10616 1 13.08673628558527 91.44265522184897 2.812982464167636 0 0 0
10617 1 13.08681377258527 93.93176953484895 2.812982464167636 0 0 0
10618 1 11.32568923658527 92.68733662284895 4.057142417367634 0 0 0
10619 1 11.32568923658527 92.68733662284895 1.568837440767634 0 0 0
10620 1 13.08681377258527 93.93176953484895 5.301287440767634 0 0 0
10621 1 11.32576672358527 95.17645093584896 6.545432464167636 0 0 0
10622 1 11.32576672358527 95.17645093584896 4.057142417367634 0 0 0
10623 1 11.32557300608527 87.70910799684894 -5.896062559232366 0 0 0
10624 1 13.08665879858527 88.95378939784895 -4.651917535832366 0 0 0
10625 1 13.08673628558527 91.44265522184897 -4.651917535832366 0 0 0
10626 1 11.32565049308527 90.19822230984896 -3.407757582632366 0 0 0
10627 1 11.32565049308527 90.19822230984896 -5.896062559232366 0 0 0
10628 1 13.08673628558527 91.44265522184897 -2.163612559232366 0 0 0
10629 1 13.08681377258527 93.93176953484895 -2.163612559232366 0 0 0
10630 1 11.32568923658527 92.68733662284895 -0.9194675358323661 0 0 0
10631 1 11.32568923658527 92.68733662284895 -3.407757582632366 0 0 0
10632 1 13.08681377258527 93.93176953484895 0.3246924173676335 0 0 0
10633 1 11.32576672358527 95.17645093584896 1.568837440767634 0 0 0
10634 1 11.32576672358527 95.17645093584896 -0.9194675358323661 0 0 0
10635 1 11.32568923658527 92.68733662284895 -5.896062559232366 0 0 0
10636 1 13.08681377258527 93.93176953484895 -4.651917535832366 0 0 0
10637 1 11.32576672358527 95.17645093584896 -3.407757582632366 0 0 0
10638 1 11.32576672358527 95.17645093584896 -5.896062559232366 0 0 0
10639 1 9.564370983085269 83.97556077184895 -7.140210568592366 0 0 1
10640 1 7.803285190585267 82.73112785984897 6.545432464167636 0 0 0
10641 1 9.564370983085269 83.97556077184895 2.812982464167636 0 0 0
10642 1 7.803285190585267 82.73112785984897 4.057142417367634 0 0 0
10643 1 7.803285190585267 82.73112785984897 1.568837440767634 0 0 0
10644 1 9.564370983085269 83.97556077184895 5.301287440767634 0 0 0
10645 1 9.564448470085271 86.46467508484893 5.301287440767634 0 0 0
10646 1 7.80336267758527 85.21999368384895 6.545432464167636 0 0 0
10647 1 7.80336267758527 85.21999368384895 4.057142417367634 0 0 0
10648 1 9.564448470085271 86.46467508484893 -7.140210568592366 0 0 1
10649 1 9.564525957085269 88.95378939784895 -7.140210568592366 0 0 1
10650 1 7.803440164585268 87.70910799684894 6.545432464167636 0 0 0
10651 1 9.564370983085269 83.97556077184895 -2.163612559232366 0 0 0
10652 1 7.803285190585267 82.73112785984897 -0.9194675358323661 0 0 0
10653 1 7.803285190585267 82.73112785984897 -3.407757582632366 0 0 0
10654 1 9.564370983085269 83.97556077184895 0.3246924173676335 0 0 0
10655 1 9.564448470085271 86.46467508484893 0.3246924173676335 0 0 0
10656 1 7.80336267758527 85.21999368384895 1.568837440767634 0 0 0
10657 1 7.80336267758527 85.21999368384895 -0.9194675358323661 0 0 0
10658 1 9.564448470085271 86.46467508484893 2.812982464167636 0 0 0
10659 1 9.564525957085269 88.95378939784895 2.812982464167636 0 0 0
10660 1 7.803440164585268 87.70910799684894 4.057142417367634 0 0 0
10661 1 7.803440164585268 87.70910799684894 1.568837440767634 0 0 0
10662 1 9.564525957085269 88.95378939784895 5.301287440767634 0 0 0
10663 1 9.564603444085272 91.44265522184897 5.301287440767634 0 0 0
10664 1 7.803478908085268 90.19822230984896 6.545432464167636 0 0 0
10665 1 7.803478908085268 90.19822230984896 4.057142417367634 0 0 0
10666 1 9.564603444085272 91.44265522184897 -7.140210568592366 0 0 1
10667 1 9.56468093108527 93.93176953484895 -7.140210568592366 0 0 1
10668 1 7.80355639508527 92.68733662284895 6.545432464167636 0 0 0
10669 1 7.803285190585267 82.73112785984897 -5.896062559232366 0 0 0
10670 1 9.564370983085269 83.97556077184895 -4.651917535832366 0 0 0
10671 1 9.564448470085271 86.46467508484893 -4.651917535832366 0 0 0
10672 1 7.80336267758527 85.21999368384895 -3.407757582632366 0 0 0
10673 1 7.80336267758527 85.21999368384895 -5.896062559232366 0 0 0
10674 1 9.564448470085271 86.46467508484893 -2.163612559232366 0 0 0
10675 1 9.564525957085269 88.95378939784895 -2.163612559232366 0 0 0
10676 1 7.803440164585268 87.70910799684894 -0.9194675358323661 0 0 0
10677 1 7.803440164585268 87.70910799684894 -3.407757582632366 0 0 0
10678 1 9.564525957085269 88.95378939784895 0.3246924173676335 0 0 0
10679 1 9.564603444085272 91.44265522184897 0.3246924173676335 0 0 0
10680 1 7.803478908085268 90.19822230984896 1.568837440767634 0 0 0
10681 1 7.803478908085268 90.19822230984896 -0.9194675358323661 0 0 0
10682 1 9.564603444085272 91.44265522184897 2.812982464167636 0 0 0
10683 1 9.56468093108527 93.93176953484895 2.812982464167636 0 0 0
10684 1 7.80355639508527 92.68733662284895 4.057142417367634 0 0 0
10685 1 7.80355639508527 92.68733662284895 1.568837440767634 0 0 0
10686 1 9.56468093108527 93.93176953484895 5.301287440767634 0 0 0
10687 1 7.803633882085268 95.17645093584896 6.545432464167636 0 0 0
10688 1 7.803633882085268 95.17645093584896 4.057142417367634 0 0 0
10689 1 7.803440164585268 87.70910799684894 -5.896062559232366 0 0 0
10690 1 9.564525957085269 88.95378939784895 -4.651917535832366 0 0 0
10691 1 9.564603444085272 91.44265522184897 -4.651917535832366 0 0 0
10692 1 7.803478908085268 90.19822230984896 -3.407757582632366 0 0 0
10693 1 7.803478908085268 90.19822230984896 -5.896062559232366 0 0 0
10694 1 9.564603444085272 91.44265522184897 -2.163612559232366 0 0 0
10695 1 9.56468093108527 93.93176953484895 -2.163612559232366 0 0 0
10696 1 7.80355639508527 92.68733662284895 -0.9194675358323661 0 0 0
10697 1 7.80355639508527 92.68733662284895 -3.407757582632366 0 0 0
10698 1 9.56468093108527 93.93176953484895 0.3246924173676335 0 0 0
10699 1 7.803633882085268 95.17645093584896 1.568837440767634 0 0 0
10700 1 7.803633882085268 95.17645093584896 -0.9194675358323661 0 0 0
10701 1 7.80355639508527 92.68733662284895 -5.896062559232366 0 0 0
10702 1 9.56468093108527 93.93176953484895 -4.651917535832366 0 0 0
10703 1 7.803633882085268 95.17645093584896 -3.407757582632366 0 0 0
10704 1 7.803633882085268 95.17645093584896 -5.896062559232366 0 0 0
10705 1 6.042238141585269 83.97556077184895 -7.140210568592366 0 0 1
10706 1 4.281152349085271 82.73112785984897 6.545432464167636 0 0 0
10707 1 6.042238141585269 83.97556077184895 2.812982464167636 0 0 0
10708 1 4.281152349085271 82.73112785984897 4.057142417367634 0 0 0
10709 1 4.281152349085271 82.73112785984897 1.568837440767634 0 0 0
10710 1 6.042238141585269 83.97556077184895 5.301287440767634 0 0 0
10711 1 6.042315628585271 86.46467508484893 5.301287440767634 0 0 0
10712 1 4.28122983608527 85.21999368384895 6.545432464167636 0 0 0
10713 1 4.28122983608527 85.21999368384895 4.057142417367634 0 0 0
10714 1 6.042315628585271 86.46467508484893 -7.140210568592366 0 0 1
10715 1 6.04239311558527 88.95378939784895 -7.140210568592366 0 0 1
10716 1 4.281268579585269 87.70910799684894 6.545432464167636 0 0 0
10717 1 6.042238141585269 83.97556077184895 -2.163612559232366 0 0 0
10718 1 4.281152349085271 82.73112785984897 -0.9194675358323661 0 0 0
10719 1 4.281152349085271 82.73112785984897 -3.407757582632366 0 0 0
10720 1 6.042238141585269 83.97556077184895 0.3246924173676335 0 0 0
10721 1 6.042315628585271 86.46467508484893 0.3246924173676335 0 0 0
10722 1 4.28122983608527 85.21999368384895 1.568837440767634 0 0 0
10723 1 4.28122983608527 85.21999368384895 -0.9194675358323661 0 0 0
10724 1 6.042315628585271 86.46467508484893 2.812982464167636 0 0 0
10725 1 6.04239311558527 88.95378939784895 2.812982464167636 0 0 0
10726 1 4.281268579585269 87.70910799684894 4.057142417367634 0 0 0
10727 1 4.281268579585269 87.70910799684894 1.568837440767634 0 0 0
10728 1 6.04239311558527 88.95378939784895 5.301287440767634 0 0 0
10729 1 6.042470602585272 91.44265522184897 5.301287440767634 0 0 0
10730 1 4.281346066585268 90.19822230984896 6.545432464167636 0 0 0
10731 1 4.281346066585268 90.19822230984896 4.057142417367634 0 0 0
10732 1 6.042470602585272 91.44265522184897 -7.140210568592366 0 0 1
10733 1 6.042548089585267 93.93176953484895 -7.140210568592366 0 0 1
10734 1 4.28142355358527 92.68733662284895 6.545432464167636 0 0 0
10735 1 4.281152349085271 82.73112785984897 -5.896062559232366 0 0 0
10736 1 6.042238141585269 83.97556077184895 -4.651917535832366 0 0 0
10737 1 6.042315628585271 86.46467508484893 -4.651917535832366 0 0 0
10738 1 4.28122983608527 85.21999368384895 -3.407757582632366 0 0 0
10739 1 4.28122983608527 85.21999368384895 -5.896062559232366 0 0 0
10740 1 6.042315628585271 86.46467508484893 -2.163612559232366 0 0 0
10741 1 6.04239311558527 88.95378939784895 -2.163612559232366 0 0 0
10742 1 4.281268579585269 87.70910799684894 -0.9194675358323661 0 0 0
10743 1 4.281268579585269 87.70910799684894 -3.407757582632366 0 0 0
10744 1 6.04239311558527 88.95378939784895 0.3246924173676335 0 0 0
10745 1 6.042470602585272 91.44265522184897 0.3246924173676335 0 0 0
10746 1 4.281346066585268 90.19822230984896 1.568837440767634 0 0 0
10747 1 4.281346066585268 90.19822230984896 -0.9194675358323661 0 0 0
10748 1 6.042470602585272 91.44265522184897 2.812982464167636 0 0 0
10749 1 6.042548089585267 93.93176953484895 2.812982464167636 0 0 0
10750 1 4.28142355358527 92.68733662284895 4.057142417367634 0 0 0
10751 1 4.28142355358527 92.68733662284895 1.568837440767634 0 0 0
10752 1 6.042548089585267 93.93176953484895 5.301287440767634 0 0 0
10753 1 4.281501040585269 95.17645093584896 6.545432464167636 0 0 0
10754 1 4.281501040585269 95.17645093584896 4.057142417367634 0 0 0
10755 1 4.281268579585269 87.70910799684894 -5.896062559232366 0 0 0
10756 1 6.04239311558527 88.95378939784895 -4.651917535832366 0 0 0
10757 1 6.042470602585272 91.44265522184897 -4.651917535832366 0 0 0
10758 1 4.281346066585268 90.19822230984896 -3.407757582632366 0 0 0
10759 1 4.281346066585268 90.19822230984896 -5.896062559232366 0 0 0
10760 1 6.042470602585272 91.44265522184897 -2.163612559232366 0 0 0
10761 1 6.042548089585267 93.93176953484895 -2.163612559232366 0 0 0
10762 1 4.28142355358527 92.68733662284895 -0.9194675358323661 0 0 0
10763 1 4.28142355358527 92.68733662284895 -3.407757582632366 0 0 0
10764 1 6.042548089585267 93.93176953484895 0.3246924173676335 0 0 0
10765 1 4.281501040585269 95.17645093584896 1.568837440767634 0 0 0
10766 1 4.281501040585269 95.17645093584896 -0.9194675358323661 0 0 0
10767 1 4.28142355358527 92.68733662284895 -5.896062559232366 0 0 0
10768 1 6.042548089585267 93.93176953484895 -4.651917535832366 0 0 0
10769 1 4.281501040585269 95.17645093584896 -3.407757582632366 0 0 0
10770 1 4.281501040585269 95.17645093584896 -5.896062559232366 0 0 0
10771 1 2.520105300085273 83.97556077184895 -7.140210568592366 0 0 1
10772 1 2.520105300085273 83.97556077184895 2.812982464167636 0 0 0
10773 1 2.520105300085273 83.97556077184895 5.301287440767634 0 0 0
10774 1 2.520182787085272 86.46467508484893 5.301287440767634 0 0 0
10775 1 2.520182787085272 86.46467508484893 -7.140210568592366 0 0 1
10776 1 2.520260274085274 88.95378939784895 -7.140210568592366 0 0 1
10777 1 2.520105300085273 83.97556077184895 -2.163612559232366 0 0 0
10778 1 2.520105300085273 83.97556077184895 0.3246924173676335 0 0 0
10779 1 2.520182787085272 86.46467508484893 0.3246924173676335 0 0 0
10780 1 2.520182787085272 86.46467508484893 2.812982464167636 0 0 0
10781 1 2.520260274085274 88.95378939784895 2.812982464167636 0 0 0
10782 1 2.520260274085274 88.95378939784895 5.301287440767634 0 0 0
10783 1 2.520337761085269 91.44265522184897 5.301287440767634 0 0 0
10784 1 2.520337761085269 91.44265522184897 -7.140210568592366 0 0 1
10785 1 2.520415248085268 93.93176953484895 -7.140210568592366 0 0 1
10786 1 2.520105300085273 83.97556077184895 -4.651917535832366 0 0 0
10787 1 2.520182787085272 86.46467508484893 -4.651917535832366 0 0 0
10788 1 2.520182787085272 86.46467508484893 -2.163612559232366 0 0 0
10789 1 2.520260274085274 88.95378939784895 -2.163612559232366 0 0 0
10790 1 2.520260274085274 88.95378939784895 0.3246924173676335 0 0 0
10791 1 2.520337761085269 91.44265522184897 0.3246924173676335 0 0 0
10792 1 2.520337761085269 91.44265522184897 2.812982464167636 0 0 0
10793 1 2.520415248085268 93.93176953484895 2.812982464167636 0 0 0
10794 1 2.520415248085268 93.93176953484895 5.301287440767634 0 0 0
10795 1 2.520260274085274 88.95378939784895 -4.651917535832366 0 0 0
10796 1 2.520337761085269 91.44265522184897 -4.651917535832366 0 0 0
10797 1 2.520337761085269 91.44265522184897 -2.163612559232366 0 0 0
10798 1 2.520415248085268 93.93176953484895 -2.163612559232366 0 0 0
10799 1 2.520415248085268 93.93176953484895 0.3246924173676335 0 0 0
10800 1 2.520415248085268 93.93176953484895 -4.651917535832366 0 0 0
10801 1 -16.85123789316473 97.66606222684895 6.545432464167636 1 0 0
10802 1 -16.85123789316473 97.66606222684895 4.057142417367634 1 0 0
10803 1 -16.85123789316473 97.66606222684895 1.568837440767634 1 0 0
10804 1 -16.85116428051473 100.1569159628489 6.545432464167636 1 0 0
10805 1 -16.85116428051473 100.1569159628489 4.057142417367634 1 0 0
10806 1 -16.85112941136473 102.6505030778489 6.545432464167636 1 0 0
10807 1 -16.85123789316473 97.66606222684895 -0.9194675358323661 1 0 0
10808 1 -16.85123789316473 97.66606222684895 -3.407757582632366 1 0 0
10809 1 -16.85116428051473 100.1569159628489 1.568837440767634 1 0 0
10810 1 -16.85116428051473 100.1569159628489 -0.9194675358323661 1 0 0
10811 1 -16.85112941136473 102.6505030778489 4.057142417367634 1 0 0
10812 1 -16.85112941136473 102.6505030778489 1.568837440767634 1 0 0
10813 1 -16.85123789316473 97.66606222684895 -5.896062559232366 1 0 0
10814 1 -16.85116428051473 100.1569159628489 -3.407757582632366 1 0 0
10815 1 -16.85116428051473 100.1569159628489 -5.896062559232366 1 0 0
10816 1 -16.85112941136473 102.6505030778489 -0.9194675358323661 1 0 0
10817 1 -16.85112941136473 102.6505030778489 -3.407757582632366 1 0 0
10818 1 -16.85112941136473 102.6505030778489 -5.896062559232366 1 0 0
10819 1 -18.61234305741473 96.42063535884897 5.301287440767634 1 0 0
10820 1 -18.61234305741473 96.42063535884897 -7.140210568592366 1 0 1
10821 1 -18.61226944476473 98.90825873784895 -7.140210568592366 1 0 1
10822 1 18.37010989358527 97.66606222684895 6.545432464167636 0 0 0
10823 1 -18.61234305741473 96.42063535884897 0.3246924173676335 1 0 0
10824 1 -18.61234305741473 96.42063535884897 2.812982464167636 1 0 0
10825 1 -18.61226944476473 98.90825873784895 2.812982464167636 1 0 0
10826 1 18.37010989358527 97.66606222684895 4.057142417367634 0 0 0
10827 1 18.37010989358527 97.66606222684895 1.568837440767634 0 0 0
10828 1 -18.61226944476473 98.90825873784895 5.301287440767634 1 0 0
10829 1 -18.61219583211473 101.390912336849 5.301287440767634 1 0 0
10830 1 18.37018738058527 100.1569159628489 6.545432464167636 0 0 0
10831 1 18.37018738058527 100.1569159628489 4.057142417367634 0 0 0
10832 1 -18.61219583211473 101.390912336849 -7.140210568592366 1 0 1
10833 1 -18.61219583211473 103.874311402849 -7.140210568592366 1 0 1
10834 1 18.37022612408527 102.6505030778489 6.545432464167636 0 0 0
10835 1 -18.61234305741473 96.42063535884897 -4.651917535832366 1 0 0
10836 1 -18.61234305741473 96.42063535884897 -2.163612559232366 1 0 0
10837 1 -18.61226944476473 98.90825873784895 -2.163612559232366 1 0 0
10838 1 18.37010989358527 97.66606222684895 -0.9194675358323661 0 0 0
10839 1 18.37010989358527 97.66606222684895 -3.407757582632366 0 0 0
10840 1 -18.61226944476473 98.90825873784895 0.3246924173676335 1 0 0
10841 1 -18.61219583211473 101.390912336849 0.3246924173676335 1 0 0
10842 1 18.37018738058527 100.1569159628489 1.568837440767634 0 0 0
10843 1 18.37018738058527 100.1569159628489 -0.9194675358323661 0 0 0
10844 1 -18.61219583211473 101.390912336849 2.812982464167636 1 0 0
10845 1 -18.61219583211473 103.874311402849 2.812982464167636 1 0 0
10846 1 18.37022612408527 102.6505030778489 4.057142417367634 0 0 0
10847 1 18.37022612408527 102.6505030778489 1.568837440767634 0 0 0
10848 1 -18.61219583211473 103.874311402849 5.301287440767634 1 0 0
10849 1 18.37010989358527 97.66606222684895 -5.896062559232366 0 0 0
10850 1 -18.61226944476473 98.90825873784895 -4.651917535832366 1 0 0
10851 1 -18.61219583211473 101.390912336849 -4.651917535832366 1 0 0
10852 1 18.37018738058527 100.1569159628489 -3.407757582632366 0 0 0
10853 1 18.37018738058527 100.1569159628489 -5.896062559232366 0 0 0
10854 1 -18.61219583211473 101.390912336849 -2.163612559232366 1 0 0
10855 1 -18.61219583211473 103.874311402849 -2.163612559232366 1 0 0
10856 1 18.37022612408527 102.6505030778489 -0.9194675358323661 0 0 0
10857 1 18.37022612408527 102.6505030778489 -3.407757582632366 0 0 0
10858 1 -18.61219583211473 103.874311402849 0.3246924173676335 1 0 0
10859 1 18.37022612408527 102.6505030778489 -5.896062559232366 0 0 0
10860 1 -18.61219583211473 103.874311402849 -4.651917535832366 1 0 0
10861 1 16.60902410108526 96.42063535884897 5.301287440767634 0 0 0
10862 1 16.60902410108526 96.42063535884897 -7.140210568592366 0 0 1
10863 1 16.60910158808527 98.90825873784895 -7.140210568592366 0 0 1
10864 1 14.84797705208527 97.66606222684895 6.545432464167636 0 0 0
10865 1 16.60902410108526 96.42063535884897 0.3246924173676335 0 0 0
10866 1 16.60902410108526 96.42063535884897 2.812982464167636 0 0 0
10867 1 16.60910158808527 98.90825873784895 2.812982464167636 0 0 0
10868 1 14.84797705208527 97.66606222684895 4.057142417367634 0 0 0
10869 1 14.84797705208527 97.66606222684895 1.568837440767634 0 0 0
10870 1 16.60910158808527 98.90825873784895 5.301287440767634 0 0 0
10871 1 16.60917907508527 101.390912336849 5.301287440767634 0 0 0
10872 1 14.84805453908527 100.1569159628489 6.545432464167636 0 0 0
10873 1 14.84805453908527 100.1569159628489 4.057142417367634 0 0 0
10874 1 16.60917907508527 101.390912336849 -7.140210568592366 0 0 1
10875 1 16.60917907508527 103.874311402849 -7.140210568592366 0 0 1
10876 1 14.84809328258527 102.6505030778489 6.545432464167636 0 0 0
10877 1 16.60902410108526 96.42063535884897 -4.651917535832366 0 0 0
10878 1 16.60902410108526 96.42063535884897 -2.163612559232366 0 0 0
10879 1 16.60910158808527 98.90825873784895 -2.163612559232366 0 0 0
10880 1 14.84797705208527 97.66606222684895 -0.9194675358323661 0 0 0
10881 1 14.84797705208527 97.66606222684895 -3.407757582632366 0 0 0
10882 1 16.60910158808527 98.90825873784895 0.3246924173676335 0 0 0
10883 1 16.60917907508527 101.390912336849 0.3246924173676335 0 0 0
10884 1 14.84805453908527 100.1569159628489 1.568837440767634 0 0 0
10885 1 14.84805453908527 100.1569159628489 -0.9194675358323661 0 0 0
10886 1 16.60917907508527 101.390912336849 2.812982464167636 0 0 0
10887 1 16.60917907508527 103.874311402849 2.812982464167636 0 0 0
10888 1 14.84809328258527 102.6505030778489 4.057142417367634 0 0 0
10889 1 14.84809328258527 102.6505030778489 1.568837440767634 0 0 0
10890 1 16.60917907508527 103.874311402849 5.301287440767634 0 0 0
10891 1 14.84797705208527 97.66606222684895 -5.896062559232366 0 0 0
10892 1 16.60910158808527 98.90825873784895 -4.651917535832366 0 0 0
10893 1 16.60917907508527 101.390912336849 -4.651917535832366 0 0 0
10894 1 14.84805453908527 100.1569159628489 -3.407757582632366 0 0 0
10895 1 14.84805453908527 100.1569159628489 -5.896062559232366 0 0 0
10896 1 16.60917907508527 101.390912336849 -2.163612559232366 0 0 0
10897 1 16.60917907508527 103.874311402849 -2.163612559232366 0 0 0
10898 1 14.84809328258527 102.6505030778489 -0.9194675358323661 0 0 0
10899 1 14.84809328258527 102.6505030778489 -3.407757582632366 0 0 0
10900 1 16.60917907508527 103.874311402849 0.3246924173676335 0 0 0
10901 1 14.84809328258527 102.6505030778489 -5.896062559232366 0 0 0
10902 1 16.60917907508527 103.874311402849 -4.651917535832366 0 0 0
10903 1 13.08689125958527 96.42063535884897 5.301287440767634 0 0 0
10904 1 13.08689125958527 96.42063535884897 -7.140210568592366 0 0 1
10905 1 13.08696874658527 98.90825873784895 -7.140210568592366 0 0 1
10906 1 11.32584421058527 97.66606222684895 6.545432464167636 0 0 0
10907 1 13.08689125958527 96.42063535884897 0.3246924173676335 0 0 0
10908 1 13.08689125958527 96.42063535884897 2.812982464167636 0 0 0
10909 1 13.08696874658527 98.90825873784895 2.812982464167636 0 0 0
10910 1 11.32584421058527 97.66606222684895 4.057142417367634 0 0 0
10911 1 11.32584421058527 97.66606222684895 1.568837440767634 0 0 0
10912 1 13.08696874658527 98.90825873784895 5.301287440767634 0 0 0
10913 1 13.08704623358527 101.390912336849 5.301287440767634 0 0 0
10914 1 11.32592169758527 100.1569159628489 6.545432464167636 0 0 0
10915 1 11.32592169758527 100.1569159628489 4.057142417367634 0 0 0
10916 1 13.08704623358527 101.390912336849 -7.140210568592366 0 0 1
10917 1 13.08704623358527 103.874311402849 -7.140210568592366 0 0 1
10918 1 11.32596044108527 102.6505030778489 6.545432464167636 0 0 0
10919 1 13.08689125958527 96.42063535884897 -4.651917535832366 0 0 0
10920 1 13.08689125958527 96.42063535884897 -2.163612559232366 0 0 0
10921 1 13.08696874658527 98.90825873784895 -2.163612559232366 0 0 0
10922 1 11.32584421058527 97.66606222684895 -0.9194675358323661 0 0 0
10923 1 11.32584421058527 97.66606222684895 -3.407757582632366 0 0 0
10924 1 13.08696874658527 98.90825873784895 0.3246924173676335 0 0 0
10925 1 13.08704623358527 101.390912336849 0.3246924173676335 0 0 0
10926 1 11.32592169758527 100.1569159628489 1.568837440767634 0 0 0
10927 1 11.32592169758527 100.1569159628489 -0.9194675358323661 0 0 0
10928 1 13.08704623358527 101.390912336849 2.812982464167636 0 0 0
10929 1 13.08704623358527 103.874311402849 2.812982464167636 0 0 0
10930 1 11.32596044108527 102.6505030778489 4.057142417367634 0 0 0
10931 1 11.32596044108527 102.6505030778489 1.568837440767634 0 0 0
10932 1 13.08704623358527 103.874311402849 5.301287440767634 0 0 0
10933 1 11.32584421058527 97.66606222684895 -5.896062559232366 0 0 0
10934 1 13.08696874658527 98.90825873784895 -4.651917535832366 0 0 0
10935 1 13.08704623358527 101.390912336849 -4.651917535832366 0 0 0
10936 1 11.32592169758527 100.1569159628489 -3.407757582632366 0 0 0
10937 1 11.32592169758527 100.1569159628489 -5.896062559232366 0 0 0
10938 1 13.08704623358527 101.390912336849 -2.163612559232366 0 0 0
10939 1 13.08704623358527 103.874311402849 -2.163612559232366 0 0 0
10940 1 11.32596044108527 102.6505030778489 -0.9194675358323661 0 0 0
10941 1 11.32596044108527 102.6505030778489 -3.407757582632366 0 0 0
10942 1 13.08704623358527 103.874311402849 0.3246924173676335 0 0 0
10943 1 11.32596044108527 102.6505030778489 -5.896062559232366 0 0 0
10944 1 13.08704623358527 103.874311402849 -4.651917535832366 0 0 0
10945 1 9.564758418085272 96.42063535884897 5.301287440767634 0 0 0
10946 1 9.564758418085272 96.42063535884897 -7.140210568592366 0 0 1
10947 1 9.564835905085268 98.90825873784895 -7.140210568592366 0 0 1
10948 1 7.803711369085271 97.66606222684895 6.545432464167636 0 0 0
10949 1 9.564758418085272 96.42063535884897 0.3246924173676335 0 0 0
10950 1 9.564758418085272 96.42063535884897 2.812982464167636 0 0 0
10951 1 9.564835905085268 98.90825873784895 2.812982464167636 0 0 0
10952 1 7.803711369085271 97.66606222684895 4.057142417367634 0 0 0
10953 1 7.803711369085271 97.66606222684895 1.568837440767634 0 0 0
10954 1 9.564835905085268 98.90825873784895 5.301287440767634 0 0 0
10955 1 9.56487464858527 101.390912336849 5.301287440767634 0 0 0
10956 1 7.803788856085269 100.1569159628489 6.545432464167636 0 0 0
10957 1 7.803788856085269 100.1569159628489 4.057142417367634 0 0 0
10958 1 9.56487464858527 101.390912336849 -7.140210568592366 0 0 1
10959 1 9.56487464858527 103.874311402849 -7.140210568592366 0 0 1
10960 1 7.803827599585272 102.6505030778489 6.545432464167636 0 0 0
10961 1 9.564758418085272 96.42063535884897 -4.651917535832366 0 0 0
10962 1 9.564758418085272 96.42063535884897 -2.163612559232366 0 0 0
10963 1 9.564835905085268 98.90825873784895 -2.163612559232366 0 0 0
10964 1 7.803711369085271 97.66606222684895 -0.9194675358323661 0 0 0
10965 1 7.803711369085271 97.66606222684895 -3.407757582632366 0 0 0
10966 1 9.564835905085268 98.90825873784895 0.3246924173676335 0 0 0
10967 1 9.56487464858527 101.390912336849 0.3246924173676335 0 0 0
10968 1 7.803788856085269 100.1569159628489 1.568837440767634 0 0 0
10969 1 7.803788856085269 100.1569159628489 -0.9194675358323661 0 0 0
10970 1 9.56487464858527 101.390912336849 2.812982464167636 0 0 0
10971 1 9.56487464858527 103.874311402849 2.812982464167636 0 0 0
10972 1 7.803827599585272 102.6505030778489 4.057142417367634 0 0 0
10973 1 7.803827599585272 102.6505030778489 1.568837440767634 0 0 0
10974 1 9.56487464858527 103.874311402849 5.301287440767634 0 0 0
10975 1 7.803711369085271 97.66606222684895 -5.896062559232366 0 0 0
10976 1 9.564835905085268 98.90825873784895 -4.651917535832366 0 0 0
10977 1 9.56487464858527 101.390912336849 -4.651917535832366 0 0 0
10978 1 7.803788856085269 100.1569159628489 -3.407757582632366 0 0 0
10979 1 7.803788856085269 100.1569159628489 -5.896062559232366 0 0 0
10980 1 9.56487464858527 101.390912336849 -2.163612559232366 0 0 0
10981 1 9.56487464858527 103.874311402849 -2.163612559232366 0 0 0
10982 1 7.803827599585272 102.6505030778489 -0.9194675358323661 0 0 0
10983 1 7.803827599585272 102.6505030778489 -3.407757582632366 0 0 0
10984 1 9.56487464858527 103.874311402849 0.3246924173676335 0 0 0
10985 1 7.803827599585272 102.6505030778489 -5.896062559232366 0 0 0
10986 1 9.56487464858527 103.874311402849 -4.651917535832366 0 0 0
10987 1 6.042625576585269 96.42063535884897 5.301287440767634 0 0 0
10988 1 6.042625576585269 96.42063535884897 -7.140210568592366 0 0 1
10989 1 6.042703063585268 98.90825873784895 -7.140210568592366 0 0 1
10990 1 4.281578527585271 97.66606222684895 6.545432464167636 0 0 0
10991 1 6.042625576585269 96.42063535884897 0.3246924173676335 0 0 0
10992 1 6.042625576585269 96.42063535884897 2.812982464167636 0 0 0
10993 1 6.042703063585268 98.90825873784895 2.812982464167636 0 0 0
10994 1 4.281578527585271 97.66606222684895 4.057142417367634 0 0 0
10995 1 4.281578527585271 97.66606222684895 1.568837440767634 0 0 0
10996 1 6.042703063585268 98.90825873784895 5.301287440767634 0 0 0
10997 1 6.042741807085271 101.390912336849 5.301287440767634 0 0 0
10998 1 4.28165601458527 100.1569159628489 6.545432464167636 0 0 0
10999 1 4.28165601458527 100.1569159628489 4.057142417367634 0 0 0
11000 1 6.042741807085271 101.390912336849 -7.140210568592366 0 0 1
11001 1 6.042741807085271 103.874311402849 -7.140210568592366 0 0 1
11002 1 4.281694758085269 102.6505030778489 6.545432464167636 0 0 0
11003 1 6.042625576585269 96.42063535884897 -4.651917535832366 0 0 0
11004 1 6.042625576585269 96.42063535884897 -2.163612559232366 0 0 0
11005 1 6.042703063585268 98.90825873784895 -2.163612559232366 0 0 0
11006 1 4.281578527585271 97.66606222684895 -0.9194675358323661 0 0 0
11007 1 4.281578527585271 97.66606222684895 -3.407757582632366 0 0 0
11008 1 6.042703063585268 98.90825873784895 0.3246924173676335 0 0 0
11009 1 6.042741807085271 101.390912336849 0.3246924173676335 0 0 0
11010 1 4.28165601458527 100.1569159628489 1.568837440767634 0 0 0
11011 1 4.28165601458527 100.1569159628489 -0.9194675358323661 0 0 0
11012 1 6.042741807085271 101.390912336849 2.812982464167636 0 0 0
11013 1 6.042741807085271 103.874311402849 2.812982464167636 0 0 0
11014 1 4.281694758085269 102.6505030778489 4.057142417367634 0 0 0
11015 1 4.281694758085269 102.6505030778489 1.568837440767634 0 0 0
11016 1 6.042741807085271 103.874311402849 5.301287440767634 0 0 0
11017 1 4.281578527585271 97.66606222684895 -5.896062559232366 0 0 0
11018 1 6.042703063585268 98.90825873784895 -4.651917535832366 0 0 0
11019 1 6.042741807085271 101.390912336849 -4.651917535832366 0 0 0
11020 1 4.28165601458527 100.1569159628489 -3.407757582632366 0 0 0
11021 1 4.28165601458527 100.1569159628489 -5.896062559232366 0 0 0
11022 1 6.042741807085271 101.390912336849 -2.163612559232366 0 0 0
11023 1 6.042741807085271 103.874311402849 -2.163612559232366 0 0 0
11024 1 4.281694758085269 102.6505030778489 -0.9194675358323661 0 0 0
11025 1 4.281694758085269 102.6505030778489 -3.407757582632366 0 0 0
11026 1 6.042741807085271 103.874311402849 0.3246924173676335 0 0 0
11027 1 4.281694758085269 102.6505030778489 -5.896062559232366 0 0 0
11028 1 6.042741807085271 103.874311402849 -4.651917535832366 0 0 0
11029 1 2.52049273508527 96.42063535884897 5.301287440767634 0 0 0
11030 1 2.52049273508527 96.42063535884897 -7.140210568592366 0 0 1
11031 1 2.520531478585273 98.90825873784895 -7.140210568592366 0 0 1
11032 1 2.52049273508527 96.42063535884897 0.3246924173676335 0 0 0
11033 1 2.52049273508527 96.42063535884897 2.812982464167636 0 0 0
11034 1 2.520531478585273 98.90825873784895 2.812982464167636 0 0 0
11035 1 2.520531478585273 98.90825873784895 5.301287440767634 0 0 0
11036 1 2.520608965585268 101.390912336849 5.301287440767634 0 0 0
11037 1 2.520608965585268 101.390912336849 -7.140210568592366 0 0 1
11038 1 2.520608965585268 103.874311402849 -7.140210568592366 0 0 1
11039 1 2.52049273508527 96.42063535884897 -4.651917535832366 0 0 0
11040 1 2.52049273508527 96.42063535884897 -2.163612559232366 0 0 0
11041 1 2.520531478585273 98.90825873784895 -2.163612559232366 0 0 0
11042 1 2.520531478585273 98.90825873784895 0.3246924173676335 0 0 0
11043 1 2.520608965585268 101.390912336849 0.3246924173676335 0 0 0
11044 1 2.520608965585268 101.390912336849 2.812982464167636 0 0 0
11045 1 2.520608965585268 103.874311402849 2.812982464167636 0 0 0
11046 1 2.520608965585268 103.874311402849 5.301287440767634 0 0 0
11047 1 2.520531478585273 98.90825873784895 -4.651917535832366 0 0 0
11048 1 2.520608965585268 101.390912336849 -4.651917535832366 0 0 0
11049 1 2.520608965585268 101.390912336849 -2.163612559232366 0 0 0
11050 1 2.520608965585268 103.874311402849 -2.163612559232366 0 0 0
11051 1 2.520608965585268 103.874311402849 0.3246924173676335 0 0 0
11052 1 2.520608965585268 103.874311402849 -4.651917535832366 0 0 0
