LAMMPS (30 Mar 2026)
Processor partition = 7
OMP_NUM_THREADS environment is not set. Defaulting to 1 thread.
  using 1 OpenMP thread(s) per MPI task
clear
OMP_NUM_THREADS environment is not set. Defaulting to 1 thread.
  using 1 OpenMP thread(s) per MPI task
units metal
dimension 3
atom_style atomic
boundary p p p
atom_modify map array
read_data "/data/home/yazhuo/Project/GBclaw/projects/proj-20260927-164bf2/artifacts/lammps/neb/neb-20260927-045814-1d9965/inputs/initial.lmp"
Reading data file ...
  orthogonal box = (-19.37175 -124.2445 -7.4649) to (19.37175 124.2445 7.4649)
  1 by 2 by 1 MPI processor grid
  reading atoms ...
  11052 atoms
  read_data CPU = 0.045 seconds
neighbor 1.0 bin
neigh_modify delay 0 every 1 check yes
pair_style adp
pair_coeff * * "/data/home/yazhuo/Project/GBclaw/src/tools/potentials/NiCr.adp" Ni
group top_boundary empty
0 atoms in group top_boundary
group top_boundary id 5180 5151 5159 5109 5117 5067 5075 5025 5033 4992 5184 5160 5118 5076 5034 5181 5154 5156 5157 5112 5114 5115 5070 5072 5073 5028 5030 5031 4990 4991 5182 5155 5113 5071 5029 5175 5176 5141 5144 5146 5147 5099 5102 5104 5105 5057 5060 5062 5063 5015 5018 5020 5021 4985 4986 5177 5183 5145 5158 5103 5116 5061 5074 5019 5032 5168 5169 5129 5132 5134 5087 5090 5092 5045 5048 5050 5003 5006 5008 4980 5170 5178 5133 5148 5091 5106 5049 5064 5007 5022 11027 11048 10985 11019 10943 10977 10901 10935 10859 10893
100 atoms in group top_boundary
group top_boundary id 10818 10851 11052 11028 10986 10944 10902 10860 11024 11025 11049 10982 10983 11022 10940 10941 10980 10898 10899 10938 10856 10857 10896 10816 10817 10854 11050 11023 10981 10939 10897 10855 11014 11015 11043 11044 10972 10973 11009 11012 10930 10931 10967 10970 10888 10889 10925 10928 10846 10847 10883 10886 10811 10812 10841 10844 11045 11051 11013 11026 10971 10984 10929 10942 10887 10900 10845 10858 11002 11036 11037 10960 10997 11000 10918 10955 10958 10876 10913 10916 10834 10871 10874 10806 10829 10832 11038 11046 11001 11016 10959 10974 10917 10932 10875 10890 10833 10848
198 atoms in group top_boundary
group bottom_boundary empty
0 atoms in group bottom_boundary
group bottom_boundary id 174 125 83 123 84 32 34 10 177 139 175 140 85 87 46 12 47 160 111 124 68 69 126 67 21 33 35 6 7 164 176 128 129 178 127 73 86 88 37 38 9 11 36 152 161 105 110 58 59 109 112 57 70 15 19 20 22 2 3 156 163 114 115 162 165 113 130 63 71 72 74 24 25 5 8 23 39 151 153 104 56 103 106 55 60 13 14 16 1 155 108 154 157 107 116 61 62 64 18 4
100 atoms in group bottom_boundary
group bottom_boundary id 17 26 5345 5390 5303 5343 5304 5247 5249 5214 5190 5215 5391 5359 5360 5307 5263 5305 5264 5216 5218 5331 5344 5378 5288 5289 5346 5287 5235 5248 5250 5203 5204 5188 5189 5202 5392 5347 5348 5349 5293 5306 5252 5253 5308 5251 5208 5217 5219 5325 5330 5372 5379 5278 5279 5329 5332 5277 5290 5229 5233 5234 5236 5194 5195 5186 5187 5193 5205 5380 5381 5333 5334 5335 5350 5283 5292 5238 5239 5291 5294 5237 5254 5199 5206 5207 5209 5324 5371 5373 5276 5323 5326 5275 5280 5227 5228 5230 5192 5185
200 atoms in group bottom_boundary
group bottom_boundary id 5191 5196 5374 5375 5327 5328 5336 5282 5232 5281 5284 5231 5240 5197 5198 5200
216 atoms in group bottom_boundary
group fixed_xy union top_boundary bottom_boundary
414 atoms in group fixed_xy
variable __gb_neb_count_top_boundary equal count(top_boundary)
variable __gb_neb_count_top_boundary delete
variable __gb_neb_count_bottom_boundary equal count(bottom_boundary)
variable __gb_neb_count_bottom_boundary delete
min_style fire
timestep 0.01
fix neb_path all neb 1
fix hold_boundary_xy fixed_xy setforce 0.0 0.0 NULL
thermo 100
thermo_style custom step part pe fmax fnorm lx ly lz pxx pyy pzz pxy pxz pyz
thermo_modify flush yes
variable i equal part
dump neb_dump all custom 1000 /data/home/yazhuo/Project/GBclaw/projects/proj-20260927-164bf2/artifacts/lammps/neb/neb-20260927-045814-1d9965/neb.replica.$i.lammpstrj id type x y z ix iy iz fx fy fz
dump neb_dump all custom 1000 /data/home/yazhuo/Project/GBclaw/projects/proj-20260927-164bf2/artifacts/lammps/neb/neb-20260927-045814-1d9965/neb.replica.7.lammpstrj id type x y z ix iy iz fx fy fz
dump_modify neb_dump sort id
run 0
WARNING: No fixes with time integration, atoms won't move
For more information see https://docs.lammps.org/err0028 (src/verlet.cpp:60)
Neighbor list info ...
  update: every = 1 steps, delay = 0 steps, check = yes
  max neighbors/atom: 2000, page size: 100000
  master list distance cutoff = 6.168302
  ghost atom cutoff = 6.168302
  binsize = 3.084151, bins = 13 81 5
  1 neighbor lists, perpetual/occasional/extra = 1 0 0
  (1) pair adp, perpetual
      attributes: half, newton on
      pair build: half/bin/atomonly/newton
      stencil: half/bin/3d
      bin: standard
Per MPI rank memory allocation (min/avg/max) = 7.422 | 7.43 | 7.438 Mbytes
   Step        Part         PotEng          Fmax          Fnorm            Lx             Ly             Lz            Pxx            Pyy            Pzz            Pxy            Pxz            Pyz      
         0           7  -48992.796      0.0024845783   0.10363051     38.7435        248.489        14.9298        0.19007438     2.918104      -3.7172695      0.3830234      3.2510357e-05 -0.0010155383 
Loop time of 2.2145e-06 on 2 procs for 0 steps with 11052 atoms

135.5% CPU use with 2 MPI tasks x 1 OpenMP threads

MPI task timing breakdown:
Section |  min time  |  avg time  |  max time  |%varavg| %total
---------------------------------------------------------------
Pair    | 0          | 0          | 0          |   0.0 |  0.00
Neigh   | 0          | 0          | 0          |   0.0 |  0.00
Comm    | 0          | 0          | 0          |   0.0 |  0.00
Output  | 0          | 0          | 0          |   0.0 |  0.00
Modify  | 0          | 0          | 0          |   0.0 |  0.00
Other   |            | 2.215e-06  |            |       |100.00

Nlocal:           5526 ave        5544 max        5508 min
Histogram: 1 0 0 0 0 0 0 0 0 1
Nghost:           7959 ave        8011 max        7907 min
Histogram: 1 0 0 0 0 0 0 0 0 1
Neighs:         234603 ave      234962 max      234244 min
Histogram: 1 0 0 0 0 0 0 0 0 1

Total # of neighbors = 469206
Ave neighs/atom = 42.454397
Neighbor list builds = 0
Dangerous builds = 0
neb 0 0.0001 10000 10000 100 final "/data/home/yazhuo/Project/GBclaw/projects/proj-20260927-164bf2/artifacts/lammps/neb/neb-20260927-045814-1d9965/inputs/final.neb.coords" verbosity default
  Parameters for fire:
    dmax  delaystep dtgrow dtshrink alpha0 alphashrink tmax tmin   integrator   halfstepback   abcfire  
     0.1     20      1.1     0.5     0.25     0.99      10  0.02 eulerimplicit      yes          no     
Per MPI rank memory allocation (min/avg/max) = 9.901 | 9.909 | 9.917 Mbytes
   Step        Part         PotEng          Fmax          Fnorm            Lx             Ly             Lz            Pxx            Pyy            Pzz            Pxy            Pxz            Pyz      
         0           7  -48992.059      0.29653344     2.4162742      38.7435        248.489        14.9298        63.578302     -213.5449      -123.21619     -36.993416     -4.333865       23.804898    
       100           7  -48992.759      0.00065824232  0.01223881     38.7435        248.489        14.9298        61.687701     -245.84815     -90.943844      31.889665     -41.878145     -38.63589     
       200           7  -48992.76       0.00024718818  0.011336622    38.7435        248.489        14.9298        61.10823      -240.49522     -91.432372      40.834548     -36.962526     -58.397079    
       300           7  -48992.76       0.00012619232  0.0099724141   38.7435        248.489        14.9298        61.01739      -238.17219     -91.963837      45.829323     -32.898168     -73.73708     
       400           7  -48992.76       9.9717738e-05  0.0084065262   38.7435        248.489        14.9298        61.021065     -236.71755     -92.398926      49.295329     -29.115109     -87.582187    
       500           7  -48992.76       0.00065846719  0.0079338566   38.7435        248.489        14.9298        60.991397     -235.51298     -92.678741      51.851345     -25.592875     -100.25149    
       600           7  -48992.76       7.5588065e-05  0.0058218369   38.7435        248.489        14.9298        60.90992      -234.61963     -92.766591      53.27911      -23.220369     -108.70818    
       700           7  -48992.76       6.8120317e-05  0.0050430922   38.7435        248.489        14.9298        60.787976     -233.70198     -92.779926      54.438055     -21.062127     -116.40335    
       800           7  -48992.76       0.00027655095  0.004805023    38.7435        248.489        14.9298        60.628104     -232.61976     -92.761473      55.664479     -18.487284     -125.63117    
       900           7  -48992.76       6.5012984e-05  0.0044788716   38.7435        248.489        14.9298        60.588557     -232.13612     -92.813159      56.447128     -16.679684     -132.1809     
      1000           7  -48992.76       5.6259053e-05  0.003704023    38.7435        248.489        14.9298        60.549373     -231.68152     -92.860103      57.159588     -14.917637     -138.64928    
      1100           7  -48992.76       0.00013357248  0.0038569013   38.7435        248.489        14.9298        60.525813     -231.28668     -92.915873      57.817184     -13.149776     -145.24358    
      1200           7  -48992.76       5.3678754e-05  0.0034089983   38.7435        248.489        14.9298        60.568049     -231.20022     -93.016748      58.277578     -11.861181     -150.1459     
      1300           7  -48992.76       4.8449894e-05  0.0029818447   38.7435        248.489        14.9298        60.588725     -231.06323     -93.087514      58.66498      -10.732205     -154.51646    
      1400           7  -48992.76       4.2910273e-05  0.0025512005   38.7435        248.489        14.9298        60.581931     -230.80713     -93.131394      59.055062     -9.5265488     -159.2762     
      1500           7  -48992.759      3.8239995e-05  0.0022075964   38.7435        248.489        14.9298        60.548922     -230.47585     -93.137818      59.367694     -8.4773549     -163.51039    
      1600           7  -48992.759      3.489425e-05   0.0019728867   38.7435        248.489        14.9298        60.508443     -230.16493     -93.124223      59.576667     -7.7112078     -166.66524    
      1700           7  -48992.759      3.1107112e-05  0.0017192902   38.7435        248.489        14.9298        60.444773     -229.73385     -93.087242      59.789225     -6.8443774     -170.30841    
      1800           7  -48992.759      2.796611e-05   0.001519433    38.7435        248.489        14.9298        60.376685     -229.30891     -93.037412      59.9394       -6.1392092     -173.34035    
      1900           7  -48992.759      2.5304127e-05  0.0013584324   38.7435        248.489        14.9298        60.30738      -228.89817     -92.980748      60.045193     -5.5576341     -175.89402    
      2000           7  -48992.759      2.3451309e-05  0.001217742    38.7435        248.489        14.9298        60.232498     -228.47223     -92.914885      60.122723     -5.0381145     -178.22441    
      2100           7  -48992.759      2.3608016e-05  0.0010714411   38.7435        248.489        14.9298        60.133771     -227.93193     -92.822313      60.184243     -4.4776665     -180.80149    
      2200           7  -48992.759      2.3613535e-05  0.000983438    38.7435        248.489        14.9298        60.058301     -227.53134     -92.748464      60.208924     -4.1192087     -182.49126    
      2300           7  -48992.759      2.3335381e-05  0.00088731769  38.7435        248.489        14.9298        59.954425     -226.99182     -92.643752      60.220286     -3.6951442     -184.54061    
      2400           7  -48992.759      2.2227569e-05  0.0008015792   38.7435        248.489        14.9298        59.837747     -226.39295     -92.522724      60.208831     -3.2817596     -186.60307    
      2500           7  -48992.759      2.0662404e-05  0.00075174602  38.7435        248.489        14.9298        59.763702     -226.0086      -92.444606      60.189907     -3.0339571     -187.87641    
      2600           7  -48992.759      1.8222043e-05  0.00070913883  38.7435        248.489        14.9298        59.69839      -225.65583     -92.374762      60.164879     -2.8046757     -189.08154    
      2700           7  -48992.759      1.3687046e-05  0.00068486733  38.7435        248.489        14.9298        59.634526     -225.26282     -92.305457      60.125816     -2.5143888     -190.6464     
      2800           7  -48992.759      1.4350451e-05  0.00071483358  38.7435        248.489        14.9298        59.614506     -225.07101     -92.283046      60.098378     -2.3188017     -191.72478    
      2900           7  -48992.759      1.5224283e-05  0.00079648866  38.7435        248.489        14.9298        59.624818     -224.96273     -92.29317       60.070737     -2.0967375     -192.9697     
      3000           7  -48992.759      1.5694315e-05  0.00087712644  38.7435        248.489        14.9298        59.676396     -224.98804     -92.34808       60.049936     -1.8678747     -194.2764     
      3100           7  -48992.759      1.5620126e-05  0.00090393286  38.7435        248.489        14.9298        59.731007     -225.07288     -92.406835      60.041419     -1.7167903     -195.15411    
      3200           7  -48992.759      1.5250768e-05  0.00090263149  38.7435        248.489        14.9298        59.793403     -225.18976     -92.4743        60.037442     -1.5769335     -195.97918    
      3300           7  -48992.759      1.443518e-05   0.000866223    38.7435        248.489        14.9298        59.879365     -225.36357     -92.567693      60.0374       -1.4078054     -196.99475    
      3400           7  -48992.759      1.3604868e-05  0.00081827838  38.7435        248.489        14.9298        59.949918     -225.5095      -92.644604      60.040661     -1.2776447     -197.79034    
      3500           7  -48992.759      1.2657383e-05  0.00075749519  38.7435        248.489        14.9298        60.019205     -225.65134     -92.720507      60.046179     -1.1510034     -198.5759     
      3600           7  -48992.759      1.1564397e-05  0.00068318226  38.7435        248.489        14.9298        60.088862     -225.78847     -92.79711       60.053929     -1.0194111     -199.40397    
      3700           7  -48992.759      1.0755364e-05  0.00062668716  38.7435        248.489        14.9298        60.134483     -225.87249     -92.847501      60.060247     -0.92717313    -199.99135    
      3800           7  -48992.759      9.9712191e-06  0.00057126955  38.7435        248.489        14.9298        60.173798     -225.93868     -92.891125      60.066573     -0.84055668    -200.54799    
      3900           7  -48992.759      8.7551361e-06  0.0004850426   38.7435        248.489        14.9298        60.224301     -226.00793     -92.947565      60.076221     -0.71029113    -201.39472    
      4000           7  -48992.759      7.9856241e-06  0.00043117986  38.7435        248.489        14.9298        60.248961     -226.02763     -92.97549       60.081859     -0.62933187    -201.92758    
      4100           7  -48992.759      7.279845e-06   0.00038302683  38.7435        248.489        14.9298        60.265926     -226.02635     -92.994989      60.08641      -0.55521911    -202.4208     
      4200           7  -48992.759      6.5459633e-06  0.00033490817  38.7435        248.489        14.9298        60.277067     -226.00331     -93.008239      60.090133     -0.47901222    -202.93449    
      4300           7  -48992.759      5.7916377e-06  0.00028884499  38.7435        248.489        14.9298        60.280875     -225.95295     -93.013562      60.092497     -0.40028155    -203.4741     
      4400           7  -48992.759      5.2548597e-06  0.00025901487  38.7435        248.489        14.9298        60.278056     -225.89772     -93.011324      60.092909     -0.34397021    -203.86738    
      4500           7  -48992.759      4.7277875e-06  0.00022901657  38.7435        248.489        14.9298        60.268568     -225.81305     -93.001905      60.091687     -0.28003443    -204.32351    
      4600           7  -48992.759      5.0227242e-06  0.00021065445  38.7435        248.489        14.9298        60.256811     -225.73451     -92.989714      60.089324     -0.23370767    -204.6625     
      4700           7  -48992.759      5.2756556e-06  0.00019576636  38.7435        248.489        14.9298        60.240412     -225.64004     -92.972388      60.085372     -0.18812956    -205.00555    
      4800           7  -48992.759      5.4722124e-06  0.0001851084   38.7435        248.489        14.9298        60.220481     -225.53572     -92.951092      60.079945     -0.146219      -205.33172    
      4900           7  -48992.759      5.6214099e-06  0.00017709435  38.7435        248.489        14.9298        60.193593     -225.40473     -92.922103      60.071824     -0.10253239    -205.68683    
      5000           7  -48992.759      5.6832062e-06  0.0001729518   38.7435        248.489        14.9298        60.168918     -225.29051     -92.895315      60.063702     -0.070609192   -205.96012    
      5100           7  -48992.759      5.6973051e-06  0.00017003129  38.7435        248.489        14.9298        60.140119     -225.16184     -92.863886      60.053529     -0.039991863   -206.23771    
      5200           7  -48992.759      5.6558918e-06  0.00016780877  38.7435        248.489        14.9298        60.109083     -225.02724     -92.829847      60.041781     -0.013122339   -206.50015    
      5300           7  -48992.759      5.5823301e-06  0.00016600541  38.7435        248.489        14.9298        60.082812     -224.91577     -92.800909      60.031226      0.0056575659  -206.69961    
      5400           7  -48992.759      5.4604821e-06  0.00016364023  38.7435        248.489        14.9298        60.051822     -224.78648     -92.766647      60.018082      0.023985399   -206.91407    
      5500           7  -48992.759      5.2857442e-06  0.00016035534  38.7435        248.489        14.9298        60.017545     -224.64579     -92.728591      60.002649      0.039977728   -207.12927    
      5600           7  -48992.759      5.125551e-06   0.00015720842  38.7435        248.489        14.9298        59.99113      -224.53875     -92.699151      59.990094      0.049497079   -207.28156    
      5700           7  -48992.759      4.9324795e-06  0.00015320072  38.7435        248.489        14.9298        59.962927     -224.42559     -92.667618      59.976047      0.057190934   -207.43299    
      5800           7  -48992.759      4.6885912e-06  0.00014778673  38.7435        248.489        14.9298        59.931202     -224.29954     -92.632014      59.959414      0.062884556   -207.59084    
      5900           7  -48992.759      4.4618324e-06  0.00014243769  38.7435        248.489        14.9298        59.904404     -224.19399     -92.601825      59.94464       0.065268258   -207.71466    
      6000           7  -48992.759      4.2307183e-06  0.00013674287  38.7435        248.489        14.9298        59.878945     -224.09445     -92.573049      59.929953      0.065468216   -207.82474    
      6100           7  -48992.759      3.9749924e-06  0.00013015992  38.7435        248.489        14.9298        59.852667     -223.99244     -92.543239      59.914082      0.063492954   -207.93089    
      6200           7  -48992.759      3.7514959e-06  0.00012418771  38.7435        248.489        14.9298        59.831077     -223.90919     -92.518661      59.90046       0.060133702   -208.01252    
      6300           7  -48992.759      3.4630993e-06  0.00011623061  38.7435        248.489        14.9298        59.804743     -223.80833     -92.488569      59.883091      0.053828984   -208.10542    
      6400           7  -48992.759      3.2052753e-06  0.00010889361  38.7435        248.489        14.9298        59.782479     -223.72371     -92.463024      59.867687      0.046382309   -208.17796    
      6500           7  -48992.759      2.9986632e-06  0.00010288118  38.7435        248.489        14.9298        59.765426     -223.65934     -92.443384      59.855407      0.039249059   -208.22965    
      6600           7  -48992.759      2.7652119e-06  9.5960617e-05  38.7435        248.489        14.9298        59.7469       -223.5899      -92.421976      59.841566      0.029989184   -208.28188    
      6700           7  -48992.759      2.4893187e-06  8.7618423e-05  38.7435        248.489        14.9298        59.725958     -223.51212     -92.39767       59.825234      0.017401832   -208.3356     
      6800           7  -48992.759      2.2907099e-06  8.1508432e-05  38.7435        248.489        14.9298        59.711492     -223.45896     -92.380809      59.813479      0.0071921577  -208.369      
      6900           7  -48992.759      2.1009636e-06  7.5598495e-05  38.7435        248.489        14.9298        59.698088     -223.41018     -92.365128      59.802224     -0.0034825588  -208.39702    
      7000           7  -48992.759      1.8905831e-06  6.8966676e-05  38.7435        248.489        14.9298        59.683712     -223.3585      -92.348243      59.789739     -0.016396203   -208.42358    
      7100           7  -48992.759      1.7238256e-06  6.3650794e-05  38.7435        248.489        14.9298        59.67266      -223.31934     -92.33521       59.779829     -0.027494887   -208.4412     
      7200           7  -48992.759      1.5236154e-06  5.7206011e-05  38.7435        248.489        14.9298        59.659755     -223.27438     -92.31993       59.76791      -0.041878873   -208.45839    
      7300           7  -48992.759      1.3600886e-06  5.1894744e-05  38.7435        248.489        14.9298        59.64949      -223.23939     -92.307724      59.758153     -0.054603318   -208.46895    
      7400           7  -48992.759      1.2209216e-06  4.7342263e-05  38.7435        248.489        14.9298        59.640943     -223.21092     -92.297522      59.749852     -0.066167501   -208.47535    
      7500           7  -48992.759      1.0879034e-06  4.2892692e-05  38.7435        248.489        14.9298        59.632789     -223.18446     -92.287756      59.741796     -0.078107692   -208.47916    
      7600           7  -48992.759      9.4454616e-07  3.7697567e-05  38.7435        248.489        14.9298        59.623484     -223.15531     -92.27657       59.732475     -0.092942277   -208.48036    
      7700           7  -48992.759      8.4707867e-07  3.4174979e-05  38.7435        248.489        14.9298        59.617274     -223.13668     -92.269081      59.726212     -0.10365515    -208.47895    
      7800           7  -48992.759      7.5314584e-07  3.079377e-05   38.7435        248.489        14.9298        59.611359     -223.11966     -92.261929      59.720253     -0.11449791    -208.47578    
      7900           7  -48992.759      6.5562864e-07  2.7304203e-05  38.7435        248.489        14.9298        59.605273     -223.1031      -92.254557      59.714182     -0.12635275    -208.4704     
      8000           7  -48992.759      5.7311071e-07  2.4377065e-05  38.7435        248.489        14.9298        59.600142     -223.09005     -92.248332      59.70917      -0.13692094    -208.46399    
      8100           7  -48992.759      5.0060607e-07  2.1834939e-05  38.7435        248.489        14.9298        59.59562      -223.07937     -92.242843      59.70489      -0.14667168    -208.45679    
      8200           7  -48992.759      4.2793076e-07  1.9326463e-05  38.7435        248.489        14.9298        59.591045     -223.06952     -92.237291      59.700763     -0.15694057    -208.44789    
      8300           7  -48992.759      3.698888e-07   1.736347e-05   38.7435        248.489        14.9298        59.587328     -223.06234     -92.232787      59.697624     -0.16555173    -208.43939    
      8400           7  -48992.759      3.1204707e-07  1.5458826e-05  38.7435        248.489        14.9298        59.583533     -223.05588     -92.2282        59.69468      -0.17454797    -208.42952    
      8500           7  -48992.759      2.7000604e-07  1.4118103e-05  38.7435        248.489        14.9298        59.580689     -223.05168     -92.224773      59.692696     -0.1813865     -208.42133    
      8600           7  -48992.759      2.3028899e-07  1.2896804e-05  38.7435        248.489        14.9298        59.577906     -223.04817     -92.221432      59.690978     -0.18811927    -208.41266    
      8700           7  -48992.759      1.8248153e-07  1.1504211e-05  38.7435        248.489        14.9298        59.574373     -223.04461     -92.217217      59.689184     -0.19664327    -208.40081    
      8800           7  -48992.759      1.5080937e-07  1.0435938e-05  38.7435        248.489        14.9298        59.571225     -223.04235     -92.213491      59.688013     -0.20412466    -208.38954    
      8900           7  -48992.759      1.376271e-07   9.8131602e-06  38.7435        248.489        14.9298        59.569092     -223.04132     -92.210986      59.68748      -0.20907917    -208.38162    
      9000           7  -48992.759      1.221234e-07   9.14343e-06    38.7435        248.489        14.9298        59.566381     -223.04057     -92.207828      59.687127     -0.21518552    -208.37131    
      9100           7  -48992.759      1.2160577e-07  8.5964581e-06  38.7435        248.489        14.9298        59.563611     -223.04044     -92.204635      59.687168     -0.22113542    -208.36063    
      9200           7  -48992.759      1.2091353e-07  8.2727226e-06  38.7435        248.489        14.9298        59.56155      -223.04073     -92.202282      59.687468     -0.22533462    -208.35269    
      9300           7  -48992.759      1.1996001e-07  8.0078727e-06  38.7435        248.489        14.9298        59.559458     -223.04134     -92.199915      59.68801      -0.22936878    -208.3447     
      9400           7  -48992.759      1.1847855e-07  7.7578603e-06  38.7435        248.489        14.9298        59.556914     -223.04246     -92.197066      59.688993     -0.23392954    -208.3352     
      9453           7  -48992.759      1.1788151e-07  7.685302e-06   38.7435        248.489        14.9298        59.55602      -223.04294     -92.196072      59.68942      -0.2354378     -208.33194    
Loop time of 275.698 on 2 procs for 9453 steps with 11052 atoms

98.6% CPU use with 2 MPI tasks x 1 OpenMP threads

Minimization stats:
  Stopping criterion = force tolerance
  Energy initial, next-to-last, final = 
     -48992.0588613753  -48992.7589219679  -48992.7589219685
  Force two-norm initial, final = 2.4162742 7.685302e-06
  Force max component initial, final = 0.29653344 1.1788151e-07
  Final line search alpha, max atom move = 0 0
  Iterations, force evaluations = 9453 9970

MPI task timing breakdown:
Section |  min time  |  avg time  |  max time  |%varavg| %total
---------------------------------------------------------------
Pair    | 231.49     | 234.01     | 236.53     |  16.5 | 84.88
Neigh   | 0          | 0          | 0          |   0.0 |  0.00
Comm    | 5.555      | 8.0685     | 10.582     |  88.5 |  2.93
Output  | 0.14995    | 0.15658    | 0.16321    |   1.7 |  0.06
Modify  | 22.593     | 22.614     | 22.635     |   0.4 |  8.20
Other   |            | 10.85      |            |       |  3.93

Nlocal:           5526 ave        5544 max        5508 min
Histogram: 1 0 0 0 0 0 0 0 0 1
Nghost:           8594 ave        8631 max        8557 min
Histogram: 1 0 0 0 0 0 0 0 0 1
Neighs:         234672 ave      235534 max      233810 min
Histogram: 1 0 0 0 0 0 0 0 0 1

Total # of neighbors = 469344
Ave neighs/atom = 42.466884
Neighbor list builds = 0
Dangerous builds = 0
  Parameters for fire:
    dmax  delaystep dtgrow dtshrink alpha0 alphashrink tmax tmin   integrator   halfstepback   abcfire  
     0.1     20      1.1     0.5     0.25     0.99      10  0.02 eulerimplicit      yes          no     
Per MPI rank memory allocation (min/avg/max) = 9.901 | 9.909 | 9.917 Mbytes
   Step        Part         PotEng          Fmax          Fnorm            Lx             Ly             Lz            Pxx            Pyy            Pzz            Pxy            Pxz            Pyz      
      9453           7  -48992.759      1.1788151e-07  7.685302e-06   38.7435        248.489        14.9298        59.55602      -223.04294     -92.196072      59.68942      -0.2354378     -208.33194    
      9500           7  -48992.759      0.000341304    0.016132354    38.7435        248.489        14.9298        60.289689     -225.77007     -92.973087      59.848147      0.015551911   -209.08517    
      9600           7  -48992.757      0.00039569014  0.017130091    38.7435        248.489        14.9298        63.258326     -236.92637     -96.037712      59.84561       0.43021344    -209.73544    
      9700           7  -48992.756      0.00035303066  0.015222572    38.7435        248.489        14.9298        65.481209     -245.06736     -98.228365      59.654701      0.51241225    -209.12707    
      9800           7  -48992.755      0.00026829477  0.011998624    38.7435        248.489        14.9298        67.817171     -253.36966     -100.49771      59.521439      0.61570215    -208.29008    
      9900           7  -48992.754      0.00015917473  0.0080028273   38.7435        248.489        14.9298        69.642876     -259.63384     -102.26559      59.712666      0.87160861    -208.09744    
     10000           7  -48992.753      5.9849456e-05  0.0043235238   38.7435        248.489        14.9298        70.640313     -262.91821     -103.28023      60.279352      1.2843963     -208.91712    
     10100           7  -48992.753      1.8095532e-05  0.0015593165   38.7435        248.489        14.9298        70.968052     -263.88855     -103.70274      61.103957      1.8087124     -210.57281    
     10200           7  -48992.753      6.5886869e-05  0.0015289384   38.7435        248.489        14.9298        70.793559     -263.15754     -103.67222      62.052156      2.4073556     -212.83014    
     10300           7  -48992.753      8.2108421e-05  0.002294458    38.7435        248.489        14.9298        70.431604     -261.83786     -103.42473      62.722799      2.8555967     -214.6635     
     10400           7  -48992.753      8.2623404e-05  0.0025531417   38.7435        248.489        14.9298        69.988185     -260.25654     -103.07999      63.273474      3.2582807     -216.37326    
     10500           7  -48992.753      6.7043695e-05  0.002198236    38.7435        248.489        14.9298        69.393497     -258.15813     -102.58567      63.825034      3.7276814     -218.39374    
     10600           7  -48992.753      4.8887745e-05  0.0016123993   38.7435        248.489        14.9298        69.009013     -256.80885     -102.25428      64.13172       4.0454316     -219.74026    
     10700           7  -48992.754      3.1901255e-05  0.0010400489   38.7435        248.489        14.9298        68.744399     -255.88408     -102.02445      64.351475      4.3127628     -220.83899    
     10800           7  -48992.754      1.6772349e-05  0.00058429143  38.7435        248.489        14.9298        68.565194     -255.26082     -101.8714       64.545369      4.5745114     -221.88251    
     10900           7  -48992.754      7.9690502e-06  0.00043397926  38.7435        248.489        14.9298        68.487501     -254.99163     -101.81083      64.694909      4.7766189     -222.67663    
     11000           7  -48992.754      6.5776382e-06  0.00041953708  38.7435        248.489        14.9298        68.458379     -254.88926     -101.79694      64.839581      4.9548409     -223.3846     
     11100           7  -48992.754      6.3821424e-06  0.00039720503  38.7435        248.489        14.9298        68.454969     -254.87209     -101.80737      64.971253      5.0944773     -223.96041    
     11200           7  -48992.754      5.1866956e-06  0.00032329415  38.7435        248.489        14.9298        68.456106     -254.85954     -101.82836      65.147115      5.2471881     -224.63979    
     11300           7  -48992.754      4.8010953e-06  0.00028432071  38.7435        248.489        14.9298        68.449876     -254.82178     -101.83488      65.250434      5.3216947     -225.00535    
     11400           7  -48992.754      6.6925825e-06  0.00026914184  38.7435        248.489        14.9298        68.429268     -254.72104     -101.83174      65.381497      5.4034432     -225.44881    
     11500           7  -48992.754      7.6931141e-06  0.00027879471  38.7435        248.489        14.9298        68.404587     -254.60667     -101.82035      65.474199      5.453349      -225.75461    
     11600           7  -48992.754      8.1478588e-06  0.00028920928  38.7435        248.489        14.9298        68.375427     -254.47194     -101.80372      65.556823      5.4922405     -226.02449    
     11700           7  -48992.754      7.9719758e-06  0.00028846088  38.7435        248.489        14.9298        68.335786     -254.28356     -101.77894      65.648836      5.5279659     -226.32287    
     11800           7  -48992.754      7.2395932e-06  0.00027150902  38.7435        248.489        14.9298        68.302019     -254.11161     -101.7574       65.71956       5.5476245     -226.54875    
     11900           7  -48992.754      6.4783228e-06  0.00025153888  38.7435        248.489        14.9298        68.28031      -253.98897     -101.74409      65.765159      5.5546317     -226.69012    
     12000           7  -48992.754      5.5043358e-06  0.00022478834  38.7435        248.489        14.9298        68.260109     -253.85522     -101.7331       65.811484      5.5545109     -226.82619    
     12100           7  -48992.754      4.641814e-06   0.00020084589  38.7435        248.489        14.9298        68.247239     -253.74097     -101.72833      65.848118      5.5455819     -226.92285    
     12200           7  -48992.754      4.1080563e-06  0.00018639975  38.7435        248.489        14.9298        68.241641     -253.66379     -101.72839      65.870678      5.5333944     -226.97342    
     12300           7  -48992.754      3.6564684e-06  0.00017508376  38.7435        248.489        14.9298        68.238962     -253.58462     -101.73162      65.890811      5.5145258     -227.00773    
     12400           7  -48992.754      3.3887603e-06  0.00016956695  38.7435        248.489        14.9298        68.239044     -253.52128     -101.73641      65.90363       5.4944178     -227.01887    
     12500           7  -48992.754      0.00015199639  0.0010529404   38.7435        248.489        14.9298        68.241822     -253.42683     -101.74494      65.913307      5.4578922     -227.00693    
     12600           7  -48992.754      1.3956187e-05  0.00019931734  38.7435        248.489        14.9298        68.244563     -253.37428     -101.75207      65.918605      5.4334639     -226.98431    
     12700           7  -48992.754      2.9204438e-06  0.00016818965  38.7435        248.489        14.9298        68.248114     -253.31211     -101.75925      65.917654      5.4035738     -226.94633    
     12800           7  -48992.754      6.3551371e-06  0.00017762414  38.7435        248.489        14.9298        68.253046     -253.23847     -101.76813      65.91198       5.3656485     -226.88531    
     12900           7  -48992.754      2.6834654e-06  0.00016877747  38.7435        248.489        14.9298        68.257126     -253.18441     -101.77476      65.904167      5.3363634     -226.8302     
     13000           7  -48992.754      2.5303901e-06  0.00016795204  38.7435        248.489        14.9298        68.261648     -253.13154     -101.78157      65.893949      5.3063702     -226.76774    
     13100           7  -48992.754      2.3817122e-06  0.00016627729  38.7435        248.489        14.9298        68.267793     -253.06926     -101.79013      65.878372      5.2691922     -226.6827     
     13200           7  -48992.754      2.2242329e-06  0.00016433896  38.7435        248.489        14.9298        68.27393      -253.0153      -101.79811      65.861688      5.2352786     -226.5986     
     13300           7  -48992.754      2.0817285e-06  0.00016224586  38.7435        248.489        14.9298        68.280666     -252.96285     -101.80645      65.842647      5.2007783     -226.50744    
     13400           7  -48992.754      1.9703039e-06  0.00016051795  38.7435        248.489        14.9298        68.286639     -252.92069     -101.81355      65.825273      5.1719604     -226.42724    
     13500           7  -48992.754      3.5333567e-06  0.00016182859  38.7435        248.489        14.9298        68.296295     -252.85828     -101.82464      65.796108      5.1277142     -226.29743    
     13600           7  -48992.754      1.7371572e-06  0.00015659019  38.7435        248.489        14.9298        68.302595     -252.82066     -101.83165      65.776813      5.100172      -226.21291    
     13700           7  -48992.754      1.7461887e-06  0.00015478413  38.7435        248.489        14.9298        68.311116     -252.77169     -101.84094      65.749609      5.0636596     -226.09665    
     13800           7  -48992.754      1.7749057e-06  0.00015296265  38.7435        248.489        14.9298        68.320115     -252.72174     -101.85054      65.719743      5.0257925     -225.97133    
     13900           7  -48992.754      1.7912242e-06  0.0001516652   38.7435        248.489        14.9298        68.326497     -252.68697     -101.85723      65.697786      4.9991745     -225.88046    
     14000           7  -48992.754      1.8043566e-06  0.00015032424  38.7435        248.489        14.9298        68.332903     -252.65239     -101.86384      65.675077      4.9725429     -225.78737    
     14100           7  -48992.754      1.8181052e-06  0.00014817987  38.7435        248.489        14.9298        68.342549     -252.60056     -101.87365      65.639527      4.9324371     -225.64316    
     14200           7  -48992.754      1.8231684e-06  0.00014668771  38.7435        248.489        14.9298        68.348791     -252.56701     -101.87989      65.615586      4.9063844     -225.54693    
     14300           7  -48992.754      1.8255069e-06  0.00014477064  38.7435        248.489        14.9298        68.356318     -252.52637     -101.88731      65.585721      4.8747708     -225.42763    
     14400           7  -48992.754      1.823711e-06   0.00014265727  38.7435        248.489        14.9298        68.364067     -252.48413     -101.89484      65.553743      4.8418821     -225.30061    
     14500           7  -48992.754      1.8198756e-06  0.00014105021  38.7435        248.489        14.9298        68.36964      -252.45339     -101.90018      65.529915      4.8179358     -225.20634    
     14600           7  -48992.754      1.8141819e-06  0.00013942379  38.7435        248.489        14.9298        68.375034     -252.42322     -101.90528      65.506134      4.7944543     -225.11248    
     14700           7  -48992.754      1.8034378e-06  0.0001371246   38.7435        248.489        14.9298        68.382276     -252.38189     -101.91205      65.472957      4.7623206     -224.9818     
     14800           7  -48992.754      1.7930675e-06  0.00013531876  38.7435        248.489        14.9298        68.38767      -252.35029     -101.917        65.447187      4.7378084     -224.88043    
     14900           7  -48992.754      1.779959e-06   0.00013332788  38.7435        248.489        14.9298        68.393331     -252.31618     -101.92213      65.419048      4.7114211     -224.76976    
     15000           7  -48992.754      1.7636234e-06  0.00013112524  38.7435        248.489        14.9298        68.399246     -252.27922     -101.9274       65.388237      4.6829291     -224.64851    
     15100           7  -48992.754      1.7476193e-06  0.00012916136  38.7435        248.489        14.9298        68.404213     -252.24686     -101.93175      65.361051      4.6580915     -224.5414     
     15200           7  -48992.754      1.7313625e-06  0.00012730198  38.7435        248.489        14.9298        68.408646     -252.2167      -101.93556      65.335586      4.6350467     -224.44089    
     15300           7  -48992.754      1.711134e-06   0.00012512719  38.7435        248.489        14.9298        68.413502     -252.18197     -101.93965      65.306148      4.608632      -224.3244     
     15400           7  -48992.754      1.6933768e-06  0.00012331526  38.7435        248.489        14.9298        68.417275     -252.15343     -101.94276      65.281901      4.5870293     -224.22815    
     15500           7  -48992.754      1.6718255e-06  0.00012120826  38.7435        248.489        14.9298        68.421359     -252.12066     -101.94603      65.254033      4.5623388     -224.11713    
     15600           7  -48992.754      1.6502553e-06  0.00011918179  38.7435        248.489        14.9298        68.424974     -252.08949     -101.94884      65.22755       4.5389876     -224.01118    
     15700           7  -48992.754      1.630679e-06   0.00011740025  38.7435        248.489        14.9298        68.427904     -252.06234     -101.95103      65.204515      4.518741      -223.91861    
     15800           7  -48992.754      1.6089089e-06  0.00011547173  38.7435        248.489        14.9298        68.430816     -252.03318     -101.95313      65.179838      4.4970954     -223.81895    
     15900           7  -48992.754      1.5834217e-06  0.00011327363  38.7435        248.489        14.9298        68.433807     -252.00018     -101.95516      65.152022      4.4727263     -223.70596    
     16000           7  -48992.754      1.5636843e-06  0.00011160974  38.7435        248.489        14.9298        68.435835     -251.97534     -101.95644      65.131178      4.4544674     -223.62077    
     16100           7  -48992.754      1.5413746e-06  0.00010976247  38.7435        248.489        14.9298        68.437851     -251.94788     -101.95762      65.108255      4.434371      -223.52652    
     16200           7  -48992.754      1.5167463e-06  0.00010775976  38.7435        248.489        14.9298        68.439754     -251.91823     -101.95858      65.083654      4.4127671     -223.42468    
     16300           7  -48992.754      1.4966964e-06  0.00010615447  38.7435        248.489        14.9298        68.441064     -251.89452     -101.95913      65.064119      4.3955697     -223.34325    
     16400           7  -48992.754      1.4722566e-06  0.00010422368  38.7435        248.489        14.9298        68.442389     -251.86607     -101.95951      65.040844      4.3750163     -223.24553    
     16500           7  -48992.754      1.448066e-06   0.00010233805  38.7435        248.489        14.9298        68.44341      -251.83834     -101.9596       65.018347      4.3550662     -223.1503     
     16600           7  -48992.754      1.4277246e-06  0.00010077008  38.7435        248.489        14.9298        68.444052     -251.8153      -101.95945      64.999812      4.338554      -223.07122    
     16700           7  -48992.754      1.4052696e-06  9.9055427e-05  38.7435        248.489        14.9298        68.44454      -251.79012     -101.95906      64.979727      4.3205747     -222.98487    
     16800           7  -48992.754      1.3778871e-06  9.6985403e-05  38.7435        248.489        14.9298        68.444828     -251.75972     -101.95827      64.955731      4.2989578     -222.88074    
     16900           7  -48992.754      1.35885e-06    9.5558856e-05  38.7435        248.489        14.9298        68.444826     -251.73877     -101.95751      64.939356      4.2841079     -222.80903    
     17000           7  -48992.754      1.3373868e-06  9.3961166e-05  38.7435        248.489        14.9298        68.444635     -251.71529     -101.95647      64.921177      4.2675193     -222.72876    
     17100           7  -48992.754      1.3141374e-06  9.2242366e-05  38.7435        248.489        14.9298        68.4442       -251.69001     -101.9551       64.901809      4.2497152     -222.64245    
     17200           7  -48992.754      1.29146e-06    9.057669e-05   38.7435        248.489        14.9298        68.443551     -251.66548     -101.95353      64.883225      4.2324924     -222.55881    
     17300           7  -48992.754      1.2709249e-06  8.907671e-05   38.7435        248.489        14.9298        68.44277      -251.64335     -101.95191      64.866652      4.2170075     -222.48349    
     17400           7  -48992.754      1.2488705e-06  8.7473826e-05  38.7435        248.489        14.9298        68.441729     -251.61968     -101.94997      64.849111      4.2004789     -222.403      
     17500           7  -48992.754      1.2301335e-06  8.6118256e-05  38.7435        248.489        14.9298        68.440679     -251.59962     -101.94814      64.834413      4.1865087     -222.3349     
     17600           7  -48992.754      1.2070248e-06  8.4453186e-05  38.7435        248.489        14.9298        68.439179     -251.57493     -101.94568      64.816533      4.16936       -222.25122    
     17700           7  -48992.754      1.1859052e-06  8.2937725e-05  38.7435        248.489        14.9298        68.437604     -251.55241     -101.94322      64.800431      4.1537563     -222.17502    
     17800           7  -48992.754      1.168706e-06   8.1707697e-05  38.7435        248.489        14.9298        68.436178     -251.53409     -101.94107      64.787482      4.1410903     -222.11313    
     17900           7  -48992.754      1.1489226e-06  8.0296878e-05  38.7435        248.489        14.9298        68.434381     -251.51304     -101.93844      64.772763      4.1265616     -222.04209    
     18000           7  -48992.754      1.1257794e-06  7.8651556e-05  38.7435        248.489        14.9298        68.432063     -251.48843     -101.93513      64.755781      4.1096126     -221.95918    
     18100           7  -48992.754      1.1100259e-06  7.7534581e-05  38.7435        248.489        14.9298        68.43035      -251.47167     -101.93274      64.744365      4.0980993     -221.90284    
     18200           7  -48992.754      1.0942981e-06  7.6421642e-05  38.7435        248.489        14.9298        68.428532     -251.45495     -101.93024      64.733083      4.0866209     -221.84666    
     18300           7  -48992.754      1.0726613e-06  7.4893916e-05  38.7435        248.489        14.9298        68.425852     -251.43193     -101.92662      64.717749      4.0708522     -221.76947    
     18400           7  -48992.754      1.058062e-06   7.3865271e-05  38.7435        248.489        14.9298        68.423923     -251.41639     -101.92405      64.707525      4.0602235     -221.71743    
     18500           7  -48992.754      1.0397665e-06  7.2578161e-05  38.7435        248.489        14.9298        68.421372     -251.39691     -101.9207       64.694849      4.0469158     -221.65227    
     18600           7  -48992.754      1.0208448e-06  7.1249208e-05  38.7435        248.489        14.9298        68.418576     -251.37675     -101.91706      64.681899      4.0331629     -221.58493    
     18700           7  -48992.754      1.0066921e-06  7.0256746e-05  38.7435        248.489        14.9298        68.416377     -251.36165     -101.91423      64.672318      4.0228795     -221.53458    
     18782           7  -48992.754      9.9121899e-07  6.9172886e-05  38.7435        248.489        14.9298        68.41387      -251.34512     -101.91103      64.661946      4.0116399     -221.47955    
Loop time of 270.99 on 2 procs for 9329 steps with 11052 atoms

98.6% CPU use with 2 MPI tasks x 1 OpenMP threads

Minimization stats:
  Stopping criterion = force tolerance
  Energy initial, next-to-last, final = 
     -48992.7589219685  -48992.7544210874   -48992.754421207
  Force two-norm initial, final = 7.685302e-06 6.9172886e-05
  Force max component initial, final = 1.1788151e-07 9.9121899e-07
  Final line search alpha, max atom move = 0 0
  Iterations, force evaluations = 9329 9840

MPI task timing breakdown:
Section |  min time  |  avg time  |  max time  |%varavg| %total
---------------------------------------------------------------
Pair    | 228.64     | 230.96     | 233.27     |  15.2 | 85.23
Neigh   | 0          | 0          | 0          |   0.0 |  0.00
Comm    | 5.5583     | 7.8621     | 10.166     |  82.2 |  2.90
Output  | 0.14961    | 0.15853    | 0.16746    |   2.2 |  0.06
Modify  | 21.735     | 21.755     | 21.775     |   0.4 |  8.03
Other   |            | 10.26      |            |       |  3.78

Nlocal:           5526 ave        5544 max        5508 min
Histogram: 1 0 0 0 0 0 0 0 0 1
Nghost:           8590 ave        8627 max        8553 min
Histogram: 1 0 0 0 0 0 0 0 0 1
Neighs:         234636 ave      235430 max      233842 min
Histogram: 1 0 0 0 0 0 0 0 0 1

Total # of neighbors = 469272
Ave neighs/atom = 42.460369
Neighbor list builds = 0
Dangerous builds = 0
write_data /data/home/yazhuo/Project/GBclaw/projects/proj-20260927-164bf2/artifacts/lammps/neb/neb-20260927-045814-1d9965/neb.replica.$i.final.lmp nocoeff
write_data /data/home/yazhuo/Project/GBclaw/projects/proj-20260927-164bf2/artifacts/lammps/neb/neb-20260927-045814-1d9965/neb.replica.7.final.lmp nocoeff
System init for write_data ...
Total wall time: 0:09:07
