LAMMPS (30 Mar 2026)
Processor partition = 17
OMP_NUM_THREADS environment is not set. Defaulting to 1 thread.
  using 1 OpenMP thread(s) per MPI task
clear
OMP_NUM_THREADS environment is not set. Defaulting to 1 thread.
  using 1 OpenMP thread(s) per MPI task
units metal
dimension 3
atom_style atomic
boundary p p p
atom_modify map array
read_data "/data/home/yazhuo/Project/GBclaw/projects/proj-20260927-164bf2/artifacts/lammps/neb/neb-20260927-045814-1d9965/inputs/initial.lmp"
Reading data file ...
  orthogonal box = (-19.37175 -124.2445 -7.4649) to (19.37175 124.2445 7.4649)
  1 by 2 by 1 MPI processor grid
  reading atoms ...
  11052 atoms
  read_data CPU = 0.045 seconds
neighbor 1.0 bin
neigh_modify delay 0 every 1 check yes
pair_style adp
pair_coeff * * "/data/home/yazhuo/Project/GBclaw/src/tools/potentials/NiCr.adp" Ni
group top_boundary empty
0 atoms in group top_boundary
group top_boundary id 5180 5151 5159 5109 5117 5067 5075 5025 5033 4992 5184 5160 5118 5076 5034 5181 5154 5156 5157 5112 5114 5115 5070 5072 5073 5028 5030 5031 4990 4991 5182 5155 5113 5071 5029 5175 5176 5141 5144 5146 5147 5099 5102 5104 5105 5057 5060 5062 5063 5015 5018 5020 5021 4985 4986 5177 5183 5145 5158 5103 5116 5061 5074 5019 5032 5168 5169 5129 5132 5134 5087 5090 5092 5045 5048 5050 5003 5006 5008 4980 5170 5178 5133 5148 5091 5106 5049 5064 5007 5022 11027 11048 10985 11019 10943 10977 10901 10935 10859 10893
100 atoms in group top_boundary
group top_boundary id 10818 10851 11052 11028 10986 10944 10902 10860 11024 11025 11049 10982 10983 11022 10940 10941 10980 10898 10899 10938 10856 10857 10896 10816 10817 10854 11050 11023 10981 10939 10897 10855 11014 11015 11043 11044 10972 10973 11009 11012 10930 10931 10967 10970 10888 10889 10925 10928 10846 10847 10883 10886 10811 10812 10841 10844 11045 11051 11013 11026 10971 10984 10929 10942 10887 10900 10845 10858 11002 11036 11037 10960 10997 11000 10918 10955 10958 10876 10913 10916 10834 10871 10874 10806 10829 10832 11038 11046 11001 11016 10959 10974 10917 10932 10875 10890 10833 10848
198 atoms in group top_boundary
group bottom_boundary empty
0 atoms in group bottom_boundary
group bottom_boundary id 174 125 83 123 84 32 34 10 177 139 175 140 85 87 46 12 47 160 111 124 68 69 126 67 21 33 35 6 7 164 176 128 129 178 127 73 86 88 37 38 9 11 36 152 161 105 110 58 59 109 112 57 70 15 19 20 22 2 3 156 163 114 115 162 165 113 130 63 71 72 74 24 25 5 8 23 39 151 153 104 56 103 106 55 60 13 14 16 1 155 108 154 157 107 116 61 62 64 18 4
100 atoms in group bottom_boundary
group bottom_boundary id 17 26 5345 5390 5303 5343 5304 5247 5249 5214 5190 5215 5391 5359 5360 5307 5263 5305 5264 5216 5218 5331 5344 5378 5288 5289 5346 5287 5235 5248 5250 5203 5204 5188 5189 5202 5392 5347 5348 5349 5293 5306 5252 5253 5308 5251 5208 5217 5219 5325 5330 5372 5379 5278 5279 5329 5332 5277 5290 5229 5233 5234 5236 5194 5195 5186 5187 5193 5205 5380 5381 5333 5334 5335 5350 5283 5292 5238 5239 5291 5294 5237 5254 5199 5206 5207 5209 5324 5371 5373 5276 5323 5326 5275 5280 5227 5228 5230 5192 5185
200 atoms in group bottom_boundary
group bottom_boundary id 5191 5196 5374 5375 5327 5328 5336 5282 5232 5281 5284 5231 5240 5197 5198 5200
216 atoms in group bottom_boundary
group fixed_xy union top_boundary bottom_boundary
414 atoms in group fixed_xy
variable __gb_neb_count_top_boundary equal count(top_boundary)
variable __gb_neb_count_top_boundary delete
variable __gb_neb_count_bottom_boundary equal count(bottom_boundary)
variable __gb_neb_count_bottom_boundary delete
min_style fire
timestep 0.01
fix neb_path all neb 1
fix hold_boundary_xy fixed_xy setforce 0.0 0.0 NULL
thermo 100
thermo_style custom step part pe fmax fnorm lx ly lz pxx pyy pzz pxy pxz pyz
thermo_modify flush yes
variable i equal part
dump neb_dump all custom 1000 /data/home/yazhuo/Project/GBclaw/projects/proj-20260927-164bf2/artifacts/lammps/neb/neb-20260927-045814-1d9965/neb.replica.$i.lammpstrj id type x y z ix iy iz fx fy fz
dump neb_dump all custom 1000 /data/home/yazhuo/Project/GBclaw/projects/proj-20260927-164bf2/artifacts/lammps/neb/neb-20260927-045814-1d9965/neb.replica.17.lammpstrj id type x y z ix iy iz fx fy fz
dump_modify neb_dump sort id
run 0
WARNING: No fixes with time integration, atoms won't move
For more information see https://docs.lammps.org/err0028 (src/verlet.cpp:60)
Neighbor list info ...
  update: every = 1 steps, delay = 0 steps, check = yes
  max neighbors/atom: 2000, page size: 100000
  master list distance cutoff = 6.168302
  ghost atom cutoff = 6.168302
  binsize = 3.084151, bins = 13 81 5
  1 neighbor lists, perpetual/occasional/extra = 1 0 0
  (1) pair adp, perpetual
      attributes: half, newton on
      pair build: half/bin/atomonly/newton
      stencil: half/bin/3d
      bin: standard
Per MPI rank memory allocation (min/avg/max) = 7.422 | 7.43 | 7.438 Mbytes
   Step        Part         PotEng          Fmax          Fnorm            Lx             Ly             Lz            Pxx            Pyy            Pzz            Pxy            Pxz            Pyz      
         0          17  -48992.796      0.0024845783   0.10363051     38.7435        248.489        14.9298        0.19007438     2.918104      -3.7172695      0.3830234      3.2510357e-05 -0.0010155383 
Loop time of 2.7655e-06 on 2 procs for 0 steps with 11052 atoms

108.5% CPU use with 2 MPI tasks x 1 OpenMP threads

MPI task timing breakdown:
Section |  min time  |  avg time  |  max time  |%varavg| %total
---------------------------------------------------------------
Pair    | 0          | 0          | 0          |   0.0 |  0.00
Neigh   | 0          | 0          | 0          |   0.0 |  0.00
Comm    | 0          | 0          | 0          |   0.0 |  0.00
Output  | 0          | 0          | 0          |   0.0 |  0.00
Modify  | 0          | 0          | 0          |   0.0 |  0.00
Other   |            | 2.765e-06  |            |       |100.00

Nlocal:           5526 ave        5544 max        5508 min
Histogram: 1 0 0 0 0 0 0 0 0 1
Nghost:           7959 ave        8011 max        7907 min
Histogram: 1 0 0 0 0 0 0 0 0 1
Neighs:         234603 ave      234962 max      234244 min
Histogram: 1 0 0 0 0 0 0 0 0 1

Total # of neighbors = 469206
Ave neighs/atom = 42.454397
Neighbor list builds = 0
Dangerous builds = 0
neb 0 0.0001 10000 10000 100 final "/data/home/yazhuo/Project/GBclaw/projects/proj-20260927-164bf2/artifacts/lammps/neb/neb-20260927-045814-1d9965/inputs/final.neb.coords" verbosity default
  Parameters for fire:
    dmax  delaystep dtgrow dtshrink alpha0 alphashrink tmax tmin   integrator   halfstepback   abcfire  
     0.1     20      1.1     0.5     0.25     0.99      10  0.02 eulerimplicit      yes          no     
Per MPI rank memory allocation (min/avg/max) = 9.901 | 9.909 | 9.917 Mbytes
   Step        Part         PotEng          Fmax          Fnorm            Lx             Ly             Lz            Pxx            Pyy            Pzz            Pxy            Pxz            Pyz      
         0          17  -48992.812      0.0022022898   0.094185231    38.7435        248.489        14.9298        203.35545     -655.14117     -158.49942     -97.962751     -6.2262094     -0.03450868   
       100          17  -48992.812      6.9482706e-07  2.9100714e-05  38.7435        248.489        14.9298        203.32646     -655.30808     -158.50344     -98.053169     -6.2057266     -0.005895194  
       200          17  -48992.812      1.0591296e-06  4.4776323e-05  38.7435        248.489        14.9298        203.32297     -655.30371     -158.4971      -98.061385     -6.2054573     -0.006348595  
       300          17  -48992.812      2.9066923e-07  9.8032461e-06  38.7435        248.489        14.9298        203.321       -655.29873     -158.49209     -98.067832     -6.2051409     -0.0069474785 
       400          17  -48992.812      1.8113609e-07  6.1183407e-06  38.7435        248.489        14.9298        203.31945     -655.29501     -158.48777     -98.07336      -6.2048027     -0.0075914291 
       500          17  -48992.812      4.4716337e-07  8.3570116e-06  38.7435        248.489        14.9298        203.31795     -655.29257     -158.48397     -98.078082     -6.204466      -0.0082458914 
       600          17  -48992.812      1.0044965e-07  4.7185752e-06  38.7435        248.489        14.9298        203.31685     -655.2914      -158.48147     -98.081049     -6.2042344     -0.0086701867 
       700          17  -48992.812      9.3303081e-08  4.4294943e-06  38.7435        248.489        14.9298        203.31573     -655.2906      -158.47919     -98.083641     -6.2040215     -0.0090629727 
       800          17  -48992.812      1.1751398e-07  4.1792949e-06  38.7435        248.489        14.9298        203.31425     -655.28992     -158.47642     -98.086613     -6.2037678     -0.009523648  
       900          17  -48992.812      8.0260061e-08  3.9321732e-06  38.7435        248.489        14.9298        203.31309     -655.28957     -158.47443     -98.088624     -6.2035923     -0.0098346498 
      1000          17  -48992.812      7.4731479e-08  3.7468014e-06  38.7435        248.489        14.9298        203.31184     -655.2893      -158.47238     -98.090576     -6.2034211     -0.010133611  
      1100          17  -48992.812      7.0027873e-08  3.5618787e-06  38.7435        248.489        14.9298        203.31042     -655.28908     -158.47019     -98.092549     -6.2032495     -0.010427258  
      1200          17  -48992.812      6.6684248e-08  3.4256152e-06  38.7435        248.489        14.9298        203.30927     -655.28894     -158.46848     -98.094006     -6.2031253     -0.010635019  
      1300          17  -48992.812      6.379022e-08   3.3024824e-06  38.7435        248.489        14.9298        203.30814     -655.28881     -158.46687     -98.09532      -6.2030163     -0.010813727  
      1400          17  -48992.812      6.0708179e-08  3.165323e-06   38.7435        248.489        14.9298        203.3068      -655.28867     -158.465       -98.096777     -6.2028999     -0.010999517  
      1500          17  -48992.812      5.7958056e-08  3.0394737e-06  38.7435        248.489        14.9298        203.30548     -655.28854     -158.46321     -98.098105     -6.2027993     -0.011154847  
      1600          17  -48992.812      5.5893963e-08  2.9427287e-06  38.7435        248.489        14.9298        203.30442     -655.28842     -158.46179     -98.099119     -6.2027265     -0.011263205  
      1700          17  -48992.812      5.3476301e-08  2.8270316e-06  38.7435        248.489        14.9298        203.30308     -655.28828     -158.46005     -98.100323     -6.2026453     -0.011378882  
      1800          17  -48992.812      5.1419743e-08  2.7266659e-06  38.7435        248.489        14.9298        203.30186     -655.28814     -158.4585      -98.10136      -6.2025807     -0.011465825  
      1900          17  -48992.812      4.9643804e-08  2.6386994e-06  38.7435        248.489        14.9298        203.30075     -655.28801     -158.45711     -98.102262     -6.2025286     -0.011531422  
      2000          17  -48992.812      4.7974472e-08  2.5550057e-06  38.7435        248.489        14.9298        203.29967     -655.28788     -158.45576     -98.103115     -6.2024833     -0.011583934  
      2100          17  -48992.812      4.6057598e-08  2.4577697e-06  38.7435        248.489        14.9298        203.29837     -655.28771     -158.45417     -98.104096     -6.2024361     -0.011632219  
      2200          17  -48992.812      4.4749021e-08  2.3907971e-06  38.7435        248.489        14.9298        203.29745     -655.28759     -158.45305     -98.104767     -6.2024072     -0.011657279  
      2300          17  -48992.812      4.3094611e-08  2.3055371e-06  38.7435        248.489        14.9298        203.29625     -655.28742     -158.45161     -98.105615     -6.2023746     -0.011679417  
      2400          17  -48992.812      4.1356572e-08  2.2144315e-06  38.7435        248.489        14.9298        203.29494     -655.28724     -158.45006     -98.106513     -6.2023452     -0.011690579  
      2500          17  -48992.812      4.0201234e-08  2.1551058e-06  38.7435        248.489        14.9298        203.29407     -655.28712     -158.44903     -98.107092     -6.202329      -0.011690659  
      2600          17  -48992.812      3.9086501e-08  2.0967844e-06  38.7435        248.489        14.9298        203.2932      -655.28699     -158.44801     -98.107658     -6.2023155     -0.011685211  
      2700          17  -48992.812      3.7585094e-08  2.0179545e-06  38.7435        248.489        14.9298        203.29201     -655.28681     -158.44663     -98.108416     -6.202301      -0.011668795  
      2800          17  -48992.812      3.6517423e-08  1.9617685e-06  38.7435        248.489        14.9298        203.29115     -655.28668     -158.44563     -98.108951     -6.2022934     -0.011650562  
      2900          17  -48992.812      3.5257444e-08  1.8953042e-06  38.7435        248.489        14.9298        203.29012     -655.28653     -158.44445     -98.10958      -6.2022872     -0.011621996  
      3000          17  -48992.812      3.390091e-08   1.823546e-06   38.7435        248.489        14.9298        203.289       -655.28635     -158.44316     -98.110252     -6.2022841     -0.011582362  
      3100          17  -48992.812      3.2962561e-08  1.7739242e-06  38.7435        248.489        14.9298        203.28821     -655.28623     -158.44227     -98.110713     -6.2022842     -0.011549506  
      3200          17  -48992.812      3.2057686e-08  1.7259685e-06  38.7435        248.489        14.9298        203.28744     -655.28611     -158.4414      -98.111155     -6.202286      -0.01151334   
      3300          17  -48992.812      3.0906846e-08  1.6649092e-06  38.7435        248.489        14.9298        203.28646     -655.28595     -158.44029     -98.111713     -6.2022908     -0.011460923  
      3400          17  -48992.812      2.9972772e-08  1.6152995e-06  38.7435        248.489        14.9298        203.28566     -655.28582     -158.43939     -98.112163     -6.2022968     -0.011412894  
      3500          17  -48992.812      2.9020428e-08  1.5646808e-06  38.7435        248.489        14.9298        203.28483     -655.28569     -158.43846     -98.112619     -6.2023048     -0.011358824  
      3600          17  -48992.812      2.7981465e-08  1.509415e-06   38.7435        248.489        14.9298        203.28393     -655.28554     -158.43745     -98.113112     -6.2023159     -0.011293684  
      3700          17  -48992.812      2.7221345e-08  1.4689534e-06  38.7435        248.489        14.9298        203.28326     -655.28543     -158.4367      -98.11347      -6.2023256     -0.01124183   
      3800          17  -48992.812      2.6482412e-08  1.4296007e-06  38.7435        248.489        14.9298        203.28261     -655.28532     -158.43598     -98.113816     -6.2023362     -0.011187946  
      3900          17  -48992.812      2.5369285e-08  1.3678544e-06  38.7435        248.489        14.9298        203.28158     -655.28515     -158.43484     -98.114356     -6.2023555     -0.011096096  
      4000          17  -48992.812      2.4597195e-08  1.3274685e-06  38.7435        248.489        14.9298        203.28091     -655.28504     -158.43409     -98.114705     -6.2023699     -0.011031318  
      4100          17  -48992.812      2.3845718e-08  1.2890109e-06  38.7435        248.489        14.9298        203.28026     -655.28494     -158.43338     -98.115035     -6.2023849     -0.010965757  
      4200          17  -48992.812      2.307378e-08   1.2478356e-06  38.7435        248.489        14.9298        203.27957     -655.28482     -158.43261     -98.115386     -6.2024025     -0.010891251  
      4300          17  -48992.812      2.2235952e-08  1.2031041e-06  38.7435        248.489        14.9298        203.27881     -655.28469     -158.43178     -98.115765     -6.2024234     -0.010805156  
      4400          17  -48992.812      2.1604796e-08  1.1693985e-06  38.7435        248.489        14.9298        203.27824     -655.2846      -158.43115     -98.116048     -6.2024404     -0.010736547  
      4500          17  -48992.812      2.0848973e-08  1.1289899e-06  38.7435        248.489        14.9298        203.27756     -655.28448     -158.4304      -98.116386     -6.2024622     -0.010649992  
      4600          17  -48992.812      2.0266316e-08  1.0978856e-06  38.7435        248.489        14.9298        203.27703     -655.2844      -158.42982     -98.116644     -6.2024801     -0.010579983  
      4700          17  -48992.812      1.9656701e-08  1.0652871e-06  38.7435        248.489        14.9298        203.27647     -655.2843      -158.42921     -98.116913     -6.2025        -0.010503234  
      4800          17  -48992.812      1.9055021e-08  1.0331137e-06  38.7435        248.489        14.9298        203.27592     -655.28421     -158.42861     -98.117177     -6.2025208     -0.010424063  
      4900          17  -48992.812      1.8370868e-08  9.9652485e-07  38.7435        248.489        14.9298        203.2753      -655.28411     -158.42793     -98.117476     -6.2025458     -0.010329675  
      5000          17  -48992.812      1.7819685e-08  9.6703092e-07  38.7435        248.489        14.9298        203.27479     -655.28402     -158.42737     -98.117715     -6.2025671     -0.01025002   
      5100          17  -48992.812      1.7233647e-08  9.356712e-07   38.7435        248.489        14.9298        203.27425     -655.28393     -158.42679     -98.117968     -6.2025909     -0.010161739  
      5200          17  -48992.812      1.6650001e-08  9.0442894e-07  38.7435        248.489        14.9298        203.27371     -655.28384     -158.4262      -98.118219     -6.2026159     -0.010069862  
      5300          17  -48992.812      1.6182923e-08  8.7942787e-07  38.7435        248.489        14.9298        203.27328     -655.28377     -158.42573     -98.118419     -6.2026368     -0.009993373  
      5400          17  -48992.812      1.5654069e-08  8.5111361e-07  38.7435        248.489        14.9298        203.27279     -655.28369     -158.4252      -98.118644     -6.2026615     -0.0099034857 
      5500          17  -48992.812      1.5088789e-08  8.2085047e-07  38.7435        248.489        14.9298        203.27227     -655.2836      -158.42463     -98.118883     -6.2026891     -0.0098033309 
      5600          17  -48992.812      1.4662825e-08  7.9803234e-07  38.7435        248.489        14.9298        203.27188     -655.28353     -158.4242      -98.119062     -6.2027109     -0.0097248532 
      5700          17  -48992.812      1.4213153e-08  7.7394852e-07  38.7435        248.489        14.9298        203.27146     -655.28346     -158.42375     -98.119251     -6.2027347     -0.0096391825 
      5800          17  -48992.812      1.3709769e-08  7.4698684e-07  38.7435        248.489        14.9298        203.27099     -655.28338     -158.42324     -98.119462     -6.2027625     -0.009539617  
      5900          17  -48992.812      1.328362e-08   7.2414961e-07  38.7435        248.489        14.9298        203.27059     -655.28332     -158.42281     -98.119639     -6.202787      -0.0094520866 
      6000          17  -48992.812      1.287482e-08   7.0226425e-07  38.7435        248.489        14.9298        203.27021     -655.28325     -158.4224      -98.119809     -6.2028113     -0.0093653275 
      6100          17  -48992.812      1.2446865e-08  6.7934028e-07  38.7435        248.489        14.9298        203.26981     -655.28319     -158.42197     -98.119986     -6.2028377     -0.0092712653 
      6200          17  -48992.812      1.2088332e-08  6.6013597e-07  38.7435        248.489        14.9298        203.26948     -655.28313     -158.42161     -98.120133     -6.2028607     -0.0091898253 
      6300          17  -48992.812      1.1640309e-08  6.3610903e-07  38.7435        248.489        14.9298        203.26906     -655.28306     -158.42115     -98.120318     -6.2028904     -0.0090844419 
      6400          17  -48992.812      1.1247431e-08  6.1509758e-07  38.7435        248.489        14.9298        203.26869     -655.283       -158.42076     -98.120478     -6.2029174     -0.0089888259 
      6500          17  -48992.812      1.0936703e-08  5.9845618e-07  38.7435        248.489        14.9298        203.2684      -655.28295     -158.42044     -98.120605     -6.2029396     -0.0089106929 
      6600          17  -48992.812      1.0586988e-08  5.7973041e-07  38.7435        248.489        14.9298        203.26807     -655.2829      -158.42009     -98.120747     -6.2029652     -0.0088201583 
      6700          17  -48992.812      1.0172675e-08  5.5755547e-07  38.7435        248.489        14.9298        203.26768     -655.28283     -158.41967     -98.120915     -6.2029967     -0.0087091544 
      6800          17  -48992.812      9.8719236e-09  5.4144755e-07  38.7435        248.489        14.9298        203.2674      -655.28278     -158.41936     -98.121037     -6.2030204     -0.0086257327 
      6900          17  -48992.812      9.5802369e-09  5.258363e-07   38.7435        248.489        14.9298        203.26713     -655.28274     -158.41907     -98.121155     -6.203044      -0.0085425745 
      7000          17  -48992.812      9.2507861e-09  5.0820802e-07  38.7435        248.489        14.9298        203.26682     -655.28269     -158.41874     -98.121288     -6.2030715     -0.0084457854 
      7100          17  -48992.812      8.9833817e-09  4.9390018e-07  38.7435        248.489        14.9298        203.26656     -655.28264     -158.41846     -98.121395     -6.2030945     -0.0083648393 
      7200          17  -48992.812      8.652856e-09   4.762112e-07   38.7435        248.489        14.9298        203.26625     -655.28259     -158.41813     -98.121528     -6.2031238     -0.0082617228 
      7300          17  -48992.812      8.371975e-09   4.6120142e-07  38.7435        248.489        14.9298        203.26599     -655.28255     -158.41784     -98.12164      -6.2031496     -0.0081713482 
      7400          17  -48992.812      8.1240568e-09  4.4794798e-07  38.7435        248.489        14.9298        203.26575     -655.28251     -158.41759     -98.12174      -6.2031729     -0.0080892563 
      7500          17  -48992.812      7.8734119e-09  4.3455299e-07  38.7435        248.489        14.9298        203.26552     -655.28247     -158.41734     -98.12184      -6.2031972     -0.0080040161 
      7600          17  -48992.812      7.5675059e-09  4.1820139e-07  38.7435        248.489        14.9298        203.26523     -655.28242     -158.41703     -98.121962     -6.2032278     -0.007896692  
      7700          17  -48992.812      7.3486475e-09  4.0652167e-07  38.7435        248.489        14.9298        203.26502     -655.28239     -158.41681     -98.122049     -6.2032503     -0.0078176494 
      7800          17  -48992.812      7.1281269e-09  3.9474856e-07  38.7435        248.489        14.9298        203.26481     -655.28235     -158.41658     -98.122137     -6.2032736     -0.0077359125 
      7900          17  -48992.812      6.8868224e-09  3.8187064e-07  38.7435        248.489        14.9298        203.26458     -655.28232     -158.41634     -98.122233     -6.2032997     -0.0076439816 
      8000          17  -48992.812      6.6704297e-09  3.7032756e-07  38.7435        248.489        14.9298        203.26438     -655.28228     -158.41612     -98.122319     -6.2033239     -0.0075592159 
      8100          17  -48992.812      6.4687988e-09  3.5957482e-07  38.7435        248.489        14.9298        203.26419     -655.28225     -158.41591     -98.122399     -6.203347      -0.0074781446 
      8200          17  -48992.812      6.2532804e-09  3.4808737e-07  38.7435        248.489        14.9298        203.26398     -655.28222     -158.4157      -98.122485     -6.2033723     -0.0073891563 
      8300          17  -48992.812      6.0690557e-09  3.3827515e-07  38.7435        248.489        14.9298        203.26381     -655.28219     -158.41551     -98.122558     -6.2033945     -0.007311087  
      8400          17  -48992.812      5.8723397e-09  3.2779867e-07  38.7435        248.489        14.9298        203.26362     -655.28216     -158.41531     -98.122636     -6.2034189     -0.0072255654 
      8500          17  -48992.812      5.7190161e-09  3.1963989e-07  38.7435        248.489        14.9298        203.26347     -655.28213     -158.41515     -98.122697     -6.2034383     -0.0071573237 
      8600          17  -48992.812      5.5642188e-09  3.1140429e-07  38.7435        248.489        14.9298        203.26333     -655.28211     -158.415       -98.122759     -6.2034583     -0.0070869096 
      8700          17  -48992.812      5.3613399e-09  3.0061878e-07  38.7435        248.489        14.9298        203.26313     -655.28208     -158.41479     -98.122839     -6.2034853     -0.006992234  
      8800          17  -48992.812      5.1760271e-09  2.9073918e-07  38.7435        248.489        14.9298        203.26295     -655.28205     -158.4146      -98.122913     -6.2035107     -0.0069029146 
      8900          17  -48992.812      5.0472522e-09  2.839298e-07   38.7435        248.489        14.9298        203.26283     -655.28203     -158.41447     -98.122964     -6.2035286     -0.0068398366 
      9000          17  -48992.812      4.8825773e-09  2.7518837e-07  38.7435        248.489        14.9298        203.26268     -655.282       -158.4143      -98.12303      -6.2035522     -0.0067569676 
      9100          17  -48992.812      4.7135973e-09  2.6620964e-07  38.7435        248.489        14.9298        203.26251     -655.28198     -158.41413     -98.123098     -6.2035771     -0.006669501  
      9200          17  -48992.812      4.5875484e-09  2.5953634e-07  38.7435        248.489        14.9298        203.26239     -655.28196     -158.414       -98.123148     -6.203596      -0.0066028888 
      9300          17  -48992.812      4.4604555e-09  2.5280184e-07  38.7435        248.489        14.9298        203.26227     -655.28194     -158.41387     -98.123198     -6.2036155     -0.0065341942 
      9400          17  -48992.812      4.3077211e-09  2.4470798e-07  38.7435        248.489        14.9298        203.26213     -655.28191     -158.41372     -98.12326      -6.2036396     -0.0064495517 
      9453          17  -48992.812      4.2544187e-09  2.4189635e-07  38.7435        248.489        14.9298        203.26207     -655.28191     -158.41366     -98.123281     -6.2036481     -0.0064195931 
Loop time of 275.698 on 2 procs for 9453 steps with 11052 atoms

99.4% CPU use with 2 MPI tasks x 1 OpenMP threads

Minimization stats:
  Stopping criterion = force tolerance
  Energy initial, next-to-last, final = 
     -48992.8120774467  -48992.8123853692  -48992.8123853694
  Force two-norm initial, final = 0.094185231 2.4189635e-07
  Force max component initial, final = 0.0022022898 4.2544187e-09
  Final line search alpha, max atom move = 0 0
  Iterations, force evaluations = 9453 9970

MPI task timing breakdown:
Section |  min time  |  avg time  |  max time  |%varavg| %total
---------------------------------------------------------------
Pair    | 212.47     | 215.08     | 217.69     |  17.8 | 78.01
Neigh   | 0          | 0          | 0          |   0.0 |  0.00
Comm    | 2.3768     | 4.9855     | 7.5942     | 116.8 |  1.81
Output  | 0.14468    | 0.15159    | 0.1585     |   1.8 |  0.05
Modify  | 12.529     | 12.532     | 12.534     |   0.1 |  4.55
Other   |            | 42.95      |            |       | 15.58

Nlocal:           5526 ave        5544 max        5508 min
Histogram: 1 0 0 0 0 0 0 0 0 1
Nghost:           8594 ave        8631 max        8557 min
Histogram: 1 0 0 0 0 0 0 0 0 1
Neighs:         234633 ave      235288 max      233978 min
Histogram: 1 0 0 0 0 0 0 0 0 1

Total # of neighbors = 469266
Ave neighs/atom = 42.459826
Neighbor list builds = 0
Dangerous builds = 0
  Parameters for fire:
    dmax  delaystep dtgrow dtshrink alpha0 alphashrink tmax tmin   integrator   halfstepback   abcfire  
     0.1     20      1.1     0.5     0.25     0.99      10  0.02 eulerimplicit      yes          no     
Per MPI rank memory allocation (min/avg/max) = 9.901 | 9.909 | 9.917 Mbytes
   Step        Part         PotEng          Fmax          Fnorm            Lx             Ly             Lz            Pxx            Pyy            Pzz            Pxy            Pxz            Pyz      
      9453          17  -48992.812      4.2544187e-09  2.4189635e-07  38.7435        248.489        14.9298        203.26207     -655.28191     -158.41366     -98.123281     -6.2036481     -0.0064195931 
      9500          17  -48992.812      4.1708579e-09  2.3743764e-07  38.7435        248.489        14.9298        203.26199     -655.28189     -158.41358     -98.123315     -6.2036617     -0.0063714756 
      9600          17  -48992.812      4.0247691e-09  2.2973725e-07  38.7435        248.489        14.9298        203.26185     -655.28187     -158.41343     -98.123373     -6.2036858     -0.0062866448 
      9700          17  -48992.812      3.9205211e-09  2.2423919e-07  38.7435        248.489        14.9298        203.26176     -655.28185     -158.41332     -98.123415     -6.2037035     -0.0062245722 
      9800          17  -48992.812      3.7975259e-09  2.1774269e-07  38.7435        248.489        14.9298        203.26164     -655.28183     -158.4132      -98.123464     -6.2037247     -0.0061495893 
      9900          17  -48992.812      3.6696046e-09  2.1099063e-07  38.7435        248.489        14.9298        203.26151     -655.28181     -158.41307     -98.123516     -6.2037474     -0.0060696588 
     10000          17  -48992.812      3.5523646e-09  2.0480828e-07  38.7435        248.489        14.9298        203.2614      -655.2818      -158.41295     -98.123563     -6.2037687     -0.0059946022 
     10100          17  -48992.812      3.4415444e-09  1.9896821e-07  38.7435        248.489        14.9298        203.2613      -655.28178     -158.41284     -98.123608     -6.2037893     -0.0059219437 
     10200          17  -48992.812      3.32868e-09    1.9301193e-07  38.7435        248.489        14.9298        203.26119     -655.28176     -158.41272     -98.123654     -6.2038109     -0.005845992  
     10300          17  -48992.812      3.2422278e-09  1.8847512e-07  38.7435        248.489        14.9298        203.2611      -655.28175     -158.41263     -98.123689     -6.2038276     -0.0057868332 
     10400          17  -48992.812      3.1579318e-09  1.8404136e-07  38.7435        248.489        14.9298        203.26102     -655.28173     -158.41255     -98.123723     -6.2038443     -0.0057278784 
     10500          17  -48992.812      3.0446482e-09  1.7808482e-07  38.7435        248.489        14.9298        203.26091     -655.28172     -158.41243     -98.12377      -6.2038673     -0.0056467879 
     10600          17  -48992.812      2.9550242e-09  1.73381e-07    38.7435        248.489        14.9298        203.26083     -655.2817      -158.41234     -98.123806     -6.2038859     -0.005581131  
     10700          17  -48992.812      2.8703873e-09  1.6893865e-07  38.7435        248.489        14.9298        203.26075     -655.28169     -158.41226     -98.123841     -6.2039038     -0.005517766  
     10800          17  -48992.812      2.7773855e-09  1.6405392e-07  38.7435        248.489        14.9298        203.26066     -655.28167     -158.41216     -98.123879     -6.203924      -0.0054464767 
     10900          17  -48992.812      2.6956014e-09  1.5977377e-07  38.7435        248.489        14.9298        203.26058     -655.28166     -158.41208     -98.123913     -6.2039421     -0.0053825427 
     11000          17  -48992.812      2.613171e-09   1.5545306e-07  38.7435        248.489        14.9298        203.2605      -655.28165     -158.41199     -98.123947     -6.2039608     -0.0053165728 
     11100          17  -48992.812      2.539311e-09   1.5151537e-07  38.7435        248.489        14.9298        203.26042     -655.28164     -158.41192     -98.123978     -6.2039782     -0.0052550729 
     11200          17  -48992.812      2.5349303e-09  1.5693189e-07  38.7435        248.489        14.9298        203.26033     -655.28162     -158.41182     -98.12402      -6.2040019     -0.0051712874 
     11300          17  -48992.812      2.3782944e-09  1.4315699e-07  38.7435        248.489        14.9298        203.26027     -655.28161     -158.41175     -98.124045     -6.2040164     -0.0051201212 
     11400          17  -48992.812      2.2988886e-09  1.3902271e-07  38.7435        248.489        14.9298        203.26019     -655.2816      -158.41167     -98.124078     -6.2040359     -0.0050509083 
     11500          17  -48992.812      2.2384623e-09  1.3587042e-07  38.7435        248.489        14.9298        203.26013     -655.28159     -158.41161     -98.124104     -6.2040512     -0.0049969753 
     11600          17  -48992.812      2.1795065e-09  1.3279455e-07  38.7435        248.489        14.9298        203.26008     -655.28158     -158.41155     -98.124129     -6.2040663     -0.0049433457 
     11700          17  -48992.812      2.1045861e-09  1.2888623e-07  38.7435        248.489        14.9298        203.26        -655.28157     -158.41148     -98.12416      -6.204086      -0.0048736852 
     11800          17  -48992.812      2.03595e-09    1.2531308e-07  38.7435        248.489        14.9298        203.25994     -655.28156     -158.41141     -98.12419      -6.2041044     -0.0048084308 
     11900          17  -48992.812      1.9835705e-09  1.2258242e-07  38.7435        248.489        14.9298        203.25989     -655.28155     -158.41135     -98.124212     -6.2041188     -0.0047574994 
     12000          17  -48992.812      1.9199608e-09  1.1926993e-07  38.7435        248.489        14.9298        203.25982     -655.28154     -158.41129     -98.124239     -6.2041366     -0.0046944441 
     12100          17  -48992.812      1.8571912e-09  1.1600415e-07  38.7435        248.489        14.9298        203.25976     -655.28153     -158.41122     -98.124266     -6.2041546     -0.0046308233 
     12200          17  -48992.812      1.8091807e-09  1.1350451e-07  38.7435        248.489        14.9298        203.25972     -655.28152     -158.41118     -98.124287     -6.2041686     -0.0045811171 
     12300          17  -48992.812      1.7545143e-09  1.1068165e-07  38.7435        248.489        14.9298        203.25966     -655.28151     -158.41112     -98.124311     -6.2041848     -0.0045238524 
     12400          17  -48992.812      1.7083644e-09  1.0826472e-07  38.7435        248.489        14.9298        203.25962     -655.28151     -158.41107     -98.124331     -6.2041989     -0.0044738837 
     12500          17  -48992.812      4.1325834e-07  1.668738e-05   38.7435        248.489        14.9298        203.25955     -655.2815      -158.411       -98.124363     -6.2042209     -0.004403354  
     12600          17  -48992.812      4.5178391e-08  8.8075043e-07  38.7435        248.489        14.9298        203.25951     -655.28149     -158.41096     -98.12438      -6.2042337     -0.0043497945 
     12700          17  -48992.812      2.3152514e-09  1.0729398e-07  38.7435        248.489        14.9298        203.25946     -655.28148     -158.41091     -98.124401     -6.2042487     -0.0042971614 
     12800          17  -48992.812      2.5176792e-08  2.8258899e-07  38.7435        248.489        14.9298        203.25941     -655.28147     -158.41086     -98.124425     -6.2042666     -0.0042336703 
     12900          17  -48992.812      2.339415e-09   9.7407495e-08  38.7435        248.489        14.9298        203.25937     -655.28147     -158.41082     -98.124442     -6.2042798     -0.0041868865 
     13000          17  -48992.812      1.566253e-09   9.3458482e-08  38.7435        248.489        14.9298        203.25933     -655.28146     -158.41078     -98.124459     -6.204293      -0.0041402021 
     13100          17  -48992.812      1.6853783e-09  9.1249225e-08  38.7435        248.489        14.9298        203.25929     -655.28145     -158.41073     -98.12448      -6.2043088     -0.004083797  
     13200          17  -48992.812      1.3392217e-09  8.8817036e-08  38.7435        248.489        14.9298        203.25925     -655.28145     -158.41069     -98.124498     -6.2043231     -0.0040333181 
     13300          17  -48992.812      1.3127814e-09  8.6783267e-08  38.7435        248.489        14.9298        203.25921     -655.28144     -158.41065     -98.124516     -6.2043374     -0.0039826154 
     13400          17  -48992.812      1.2690582e-09  8.5123419e-08  38.7435        248.489        14.9298        203.25918     -655.28144     -158.41062     -98.12453      -6.2043492     -0.0039406001 
     13500          17  -48992.812      2.0886422e-08  1.655159e-07   38.7435        248.489        14.9298        203.25913     -655.28143     -158.41057     -98.124552     -6.2043673     -0.003876361  
     13600          17  -48992.812      1.1989052e-09  8.1132484e-08  38.7435        248.489        14.9298        203.25911     -655.28142     -158.41054     -98.124566     -6.2043785     -0.0038365029 
     13700          17  -48992.812      1.1622451e-09  7.9162116e-08  38.7435        248.489        14.9298        203.25907     -655.28142     -158.4105      -98.124583     -6.2043934     -0.0037835172 
     13800          17  -48992.812      1.2101754e-09  7.7250924e-08  38.7435        248.489        14.9298        203.25903     -655.28141     -158.41046     -98.124602     -6.2044089     -0.0037283237 
     13900          17  -48992.812      1.0850592e-09  7.5755416e-08  38.7435        248.489        14.9298        203.259       -655.28141     -158.41044     -98.124614     -6.2044199     -0.0036893013 
     14000          17  -48992.812      1.0569998e-09  7.4372572e-08  38.7435        248.489        14.9298        203.25898     -655.2814      -158.41041     -98.124627     -6.204431      -0.0036500312 
     14100          17  -48992.812      1.066902e-09   7.2336443e-08  38.7435        248.489        14.9298        203.25894     -655.2814      -158.41037     -98.124646     -6.2044478     -0.0035903761 
     14200          17  -48992.812      9.9283551e-10  7.098683e-08   38.7435        248.489        14.9298        203.25891     -655.28139     -158.41034     -98.124658     -6.2044588     -0.0035512359 
     14300          17  -48992.812      9.6235648e-10  6.9390821e-08  38.7435        248.489        14.9298        203.25888     -655.28139     -158.41031     -98.124672     -6.2044723     -0.0035032984 
     14400          17  -48992.812      9.3162564e-10  6.7744007e-08  38.7435        248.489        14.9298        203.25885     -655.28138     -158.41028     -98.124688     -6.2044864     -0.0034528604 
     14500          17  -48992.812      9.0785475e-10  6.6552654e-08  38.7435        248.489        14.9298        203.25883     -655.28138     -158.41026     -98.124699     -6.2044969     -0.0034157486 
     14600          17  -48992.812      8.8579449e-10  6.539086e-08   38.7435        248.489        14.9298        203.25881     -655.28137     -158.41024     -98.12471      -6.2045072     -0.0033790244 
     14700          17  -48992.812      8.5632524e-10  6.3810888e-08  38.7435        248.489        14.9298        203.25878     -655.28137     -158.41021     -98.124724     -6.2045215     -0.003328203  
     14800          17  -48992.812      8.3322174e-10  6.2612564e-08  38.7435        248.489        14.9298        203.25875     -655.28137     -158.41018     -98.124736     -6.2045325     -0.003288972  
     14900          17  -48992.812      8.090433e-10   6.1329653e-08  38.7435        248.489        14.9298        203.25873     -655.28136     -158.41016     -98.124748     -6.2045445     -0.0032462877 
     15000          17  -48992.812      7.8329795e-10  5.9952414e-08  38.7435        248.489        14.9298        203.2587      -655.28136     -158.41013     -98.124761     -6.2045576     -0.0031996494 
     15100          17  -48992.812      7.6074655e-10  5.8758433e-08  38.7435        248.489        14.9298        203.25868     -655.28135     -158.41011     -98.124772     -6.2045692     -0.0031585153 
     15200          17  -48992.812      7.4013633e-10  5.7656292e-08  38.7435        248.489        14.9298        203.25866     -655.28135     -158.41009     -98.124783     -6.20458       -0.0031199459 
     15300          17  -48992.812      7.1676536e-10  5.6399773e-08  38.7435        248.489        14.9298        203.25864     -655.28135     -158.41006     -98.124795     -6.2045926     -0.0030752513 
     15400          17  -48992.812      6.9771362e-10  5.5377606e-08  38.7435        248.489        14.9298        203.25862     -655.28134     -158.41005     -98.124805     -6.204603      -0.0030383053 
     15500          17  -48992.812      6.7626451e-10  5.4215569e-08  38.7435        248.489        14.9298        203.2586      -655.28134     -158.41002     -98.124816     -6.2046149     -0.0029956503 
     15600          17  -48992.812      6.5601164e-10  5.3122595e-08  38.7435        248.489        14.9298        203.25858     -655.28134     -158.41        -98.124827     -6.2046264     -0.0029548763 
     15700          17  -48992.812      6.3868162e-10  5.2180018e-08  38.7435        248.489        14.9298        203.25856     -655.28133     -158.40999     -98.124836     -6.2046364     -0.0029191844 
     15800          17  -48992.812      6.2030453e-10  5.1177584e-08  38.7435        248.489        14.9298        203.25854     -655.28133     -158.40997     -98.124846     -6.2046472     -0.0028806823 
     15900          17  -48992.812      6.0028399e-10  5.0056322e-08  38.7435        248.489        14.9298        203.25852     -655.28133     -158.40995     -98.124857     -6.2046595     -0.002836908  
     16000          17  -48992.812      5.84647e-10    4.9219983e-08  38.7435        248.489        14.9298        203.2585      -655.28133     -158.40993     -98.124865     -6.2046688     -0.0028038093 
     16100          17  -48992.812      5.6808924e-10  4.8304951e-08  38.7435        248.489        14.9298        203.25849     -655.28132     -158.40991     -98.124874     -6.2046791     -0.00276709   
     16200          17  -48992.812      5.5047822e-10  4.7327082e-08  38.7435        248.489        14.9298        203.25847     -655.28132     -158.4099      -98.124884     -6.2046903     -0.0027272761 
     16300          17  -48992.812      5.3660597e-10  4.6553059e-08  38.7435        248.489        14.9298        203.25846     -655.28132     -158.40988     -98.124892     -6.2046993     -0.0026953302 
     16400          17  -48992.812      5.2018528e-10  4.563317e-08   38.7435        248.489        14.9298        203.25844     -655.28132     -158.40986     -98.124901     -6.2047101     -0.0026568654 
     16500          17  -48992.812      5.0448878e-10  4.4745791e-08  38.7435        248.489        14.9298        203.25842     -655.28131     -158.40985     -98.12491      -6.2047206     -0.0026192293 
     16600          17  -48992.812      4.9837157e-10  4.4015499e-08  38.7435        248.489        14.9298        203.25841     -655.28131     -158.40984     -98.124917     -6.2047294     -0.0025878562 
     16700          17  -48992.812      4.9184749e-10  4.3224638e-08  38.7435        248.489        14.9298        203.2584      -655.28131     -158.40982     -98.124925     -6.2047391     -0.0025534716 
     16800          17  -48992.812      4.8394605e-10  4.2279851e-08  38.7435        248.489        14.9298        203.25838     -655.28131     -158.4098      -98.124935     -6.2047508     -0.0025118227 
     16900          17  -48992.812      4.7846958e-10  4.1634613e-08  38.7435        248.489        14.9298        203.25837     -655.2813      -158.40979     -98.124941     -6.2047589     -0.0024830139 
     17000          17  -48992.812      4.7231721e-10  4.0917611e-08  38.7435        248.489        14.9298        203.25835     -655.2813      -158.40978     -98.124948     -6.2047679     -0.0024506486 
     17100          17  -48992.812      4.6566802e-10  4.0152479e-08  38.7435        248.489        14.9298        203.25834     -655.2813      -158.40977     -98.124956     -6.2047777     -0.0024156952 
     17200          17  -48992.812      4.5920095e-10  3.9416704e-08  38.7435        248.489        14.9298        203.25833     -655.2813      -158.40976     -98.124964     -6.2047873     -0.0023816725 
     17300          17  -48992.812      4.5334025e-10  3.8758767e-08  38.7435        248.489        14.9298        203.25832     -655.2813      -158.40974     -98.12497      -6.2047959     -0.0023509057 
     17400          17  -48992.812      4.4705423e-10  3.8060345e-08  38.7435        248.489        14.9298        203.2583      -655.28129     -158.40973     -98.124978     -6.2048052     -0.0023178821 
     17500          17  -48992.812      4.4171192e-10  3.747309e-08   38.7435        248.489        14.9298        203.25829     -655.28129     -158.40972     -98.124984     -6.204813      -0.0022898224 
     17600          17  -48992.812      4.3511106e-10  3.6756036e-08  38.7435        248.489        14.9298        203.25828     -655.28129     -158.40971     -98.124991     -6.2048227     -0.0022551998 
     17700          17  -48992.812      4.2907327e-10  3.6107206e-08  38.7435        248.489        14.9298        203.25827     -655.28129     -158.4097      -98.124998     -6.2048316     -0.0022235202 
     17800          17  -48992.812      4.2414609e-10  3.5583044e-08  38.7435        248.489        14.9298        203.25826     -655.28129     -158.40969     -98.125003     -6.2048389     -0.0021976824 
     17900          17  -48992.812      4.1845946e-10  3.4984559e-08  38.7435        248.489        14.9298        203.25825     -655.28128     -158.40968     -98.125009     -6.2048472     -0.0021679135 
     18000          17  -48992.812      4.125772e-10   3.4290409e-08  38.7435        248.489        14.9298        203.25824     -655.28128     -158.40967     -98.125016     -6.204857      -0.0021330059 
     18100          17  -48992.812      4.0724964e-10  3.3820471e-08  38.7435        248.489        14.9298        203.25823     -655.28128     -158.40966     -98.125021     -6.2048637     -0.002109183  
     18200          17  -48992.812      4.0269549e-10  3.3354104e-08  38.7435        248.489        14.9298        203.25822     -655.28128     -158.40965     -98.125026     -6.2048704     -0.0020853436 
     18300          17  -48992.812      4.1383219e-10  3.2733568e-08  38.7435        248.489        14.9298        203.25821     -655.28128     -158.40964     -98.125032     -6.2048796     -0.0020524486 
     18400          17  -48992.812      3.9215298e-10  3.2288115e-08  38.7435        248.489        14.9298        203.25821     -655.28128     -158.40964     -98.125037     -6.2048858     -0.0020301797 
     18500          17  -48992.812      3.8680013e-10  3.1754096e-08  38.7435        248.489        14.9298        203.2582      -655.28128     -158.40963     -98.125042     -6.2048937     -0.0020021905 
     18600          17  -48992.812      3.8947472e-10  3.121114e-08   38.7435        248.489        14.9298        203.25819     -655.28127     -158.40962     -98.125048     -6.2049018     -0.0019731382 
     18700          17  -48992.812      3.7706612e-10  3.0795051e-08  38.7435        248.489        14.9298        203.25818     -655.28127     -158.40961     -98.125052     -6.2049079     -0.0019513302 
     18782          17  -48992.812      3.7249534e-10  3.0348998e-08  38.7435        248.489        14.9298        203.25818     -655.28127     -158.40961     -98.125057     -6.2049146     -0.0019274118 
Loop time of 270.99 on 2 procs for 9329 steps with 11052 atoms

99.4% CPU use with 2 MPI tasks x 1 OpenMP threads

Minimization stats:
  Stopping criterion = force tolerance
  Energy initial, next-to-last, final = 
     -48992.8123853694    -48992.81238537  -48992.8123853697
  Force two-norm initial, final = 2.4189635e-07 3.0348998e-08
  Force max component initial, final = 4.2544187e-09 3.7249534e-10
  Final line search alpha, max atom move = 0 0
  Iterations, force evaluations = 9329 9840

MPI task timing breakdown:
Section |  min time  |  avg time  |  max time  |%varavg| %total
---------------------------------------------------------------
Pair    | 209.62     | 212.23     | 214.85     |  18.0 | 78.32
Neigh   | 0          | 0          | 0          |   0.0 |  0.00
Comm    | 2.3407     | 4.9555     | 7.5704     | 117.5 |  1.83
Output  | 0.14399    | 0.15292    | 0.16185    |   2.3 |  0.06
Modify  | 11.684     | 11.686     | 11.689     |   0.1 |  4.31
Other   |            | 41.96      |            |       | 15.48

Nlocal:           5526 ave        5544 max        5508 min
Histogram: 1 0 0 0 0 0 0 0 0 1
Nghost:           8594 ave        8631 max        8557 min
Histogram: 1 0 0 0 0 0 0 0 0 1
Neighs:         234633 ave      235288 max      233978 min
Histogram: 1 0 0 0 0 0 0 0 0 1

Total # of neighbors = 469266
Ave neighs/atom = 42.459826
Neighbor list builds = 0
Dangerous builds = 0
write_data /data/home/yazhuo/Project/GBclaw/projects/proj-20260927-164bf2/artifacts/lammps/neb/neb-20260927-045814-1d9965/neb.replica.$i.final.lmp nocoeff
write_data /data/home/yazhuo/Project/GBclaw/projects/proj-20260927-164bf2/artifacts/lammps/neb/neb-20260927-045814-1d9965/neb.replica.17.final.lmp nocoeff
System init for write_data ...
Total wall time: 0:09:07
