LAMMPS (30 Mar 2026)
Processor partition = 14
OMP_NUM_THREADS environment is not set. Defaulting to 1 thread.
  using 1 OpenMP thread(s) per MPI task
clear
OMP_NUM_THREADS environment is not set. Defaulting to 1 thread.
  using 1 OpenMP thread(s) per MPI task
units metal
dimension 3
atom_style atomic
boundary p p p
atom_modify map array
read_data "/data/home/yazhuo/Project/GBclaw/projects/proj-20260927-164bf2/artifacts/lammps/neb/neb-20260927-045814-1d9965/inputs/initial.lmp"
Reading data file ...
  orthogonal box = (-19.37175 -124.2445 -7.4649) to (19.37175 124.2445 7.4649)
  1 by 2 by 1 MPI processor grid
  reading atoms ...
  11052 atoms
  read_data CPU = 0.045 seconds
neighbor 1.0 bin
neigh_modify delay 0 every 1 check yes
pair_style adp
pair_coeff * * "/data/home/yazhuo/Project/GBclaw/src/tools/potentials/NiCr.adp" Ni
group top_boundary empty
0 atoms in group top_boundary
group top_boundary id 5180 5151 5159 5109 5117 5067 5075 5025 5033 4992 5184 5160 5118 5076 5034 5181 5154 5156 5157 5112 5114 5115 5070 5072 5073 5028 5030 5031 4990 4991 5182 5155 5113 5071 5029 5175 5176 5141 5144 5146 5147 5099 5102 5104 5105 5057 5060 5062 5063 5015 5018 5020 5021 4985 4986 5177 5183 5145 5158 5103 5116 5061 5074 5019 5032 5168 5169 5129 5132 5134 5087 5090 5092 5045 5048 5050 5003 5006 5008 4980 5170 5178 5133 5148 5091 5106 5049 5064 5007 5022 11027 11048 10985 11019 10943 10977 10901 10935 10859 10893
100 atoms in group top_boundary
group top_boundary id 10818 10851 11052 11028 10986 10944 10902 10860 11024 11025 11049 10982 10983 11022 10940 10941 10980 10898 10899 10938 10856 10857 10896 10816 10817 10854 11050 11023 10981 10939 10897 10855 11014 11015 11043 11044 10972 10973 11009 11012 10930 10931 10967 10970 10888 10889 10925 10928 10846 10847 10883 10886 10811 10812 10841 10844 11045 11051 11013 11026 10971 10984 10929 10942 10887 10900 10845 10858 11002 11036 11037 10960 10997 11000 10918 10955 10958 10876 10913 10916 10834 10871 10874 10806 10829 10832 11038 11046 11001 11016 10959 10974 10917 10932 10875 10890 10833 10848
198 atoms in group top_boundary
group bottom_boundary empty
0 atoms in group bottom_boundary
group bottom_boundary id 174 125 83 123 84 32 34 10 177 139 175 140 85 87 46 12 47 160 111 124 68 69 126 67 21 33 35 6 7 164 176 128 129 178 127 73 86 88 37 38 9 11 36 152 161 105 110 58 59 109 112 57 70 15 19 20 22 2 3 156 163 114 115 162 165 113 130 63 71 72 74 24 25 5 8 23 39 151 153 104 56 103 106 55 60 13 14 16 1 155 108 154 157 107 116 61 62 64 18 4
100 atoms in group bottom_boundary
group bottom_boundary id 17 26 5345 5390 5303 5343 5304 5247 5249 5214 5190 5215 5391 5359 5360 5307 5263 5305 5264 5216 5218 5331 5344 5378 5288 5289 5346 5287 5235 5248 5250 5203 5204 5188 5189 5202 5392 5347 5348 5349 5293 5306 5252 5253 5308 5251 5208 5217 5219 5325 5330 5372 5379 5278 5279 5329 5332 5277 5290 5229 5233 5234 5236 5194 5195 5186 5187 5193 5205 5380 5381 5333 5334 5335 5350 5283 5292 5238 5239 5291 5294 5237 5254 5199 5206 5207 5209 5324 5371 5373 5276 5323 5326 5275 5280 5227 5228 5230 5192 5185
200 atoms in group bottom_boundary
group bottom_boundary id 5191 5196 5374 5375 5327 5328 5336 5282 5232 5281 5284 5231 5240 5197 5198 5200
216 atoms in group bottom_boundary
group fixed_xy union top_boundary bottom_boundary
414 atoms in group fixed_xy
variable __gb_neb_count_top_boundary equal count(top_boundary)
variable __gb_neb_count_top_boundary delete
variable __gb_neb_count_bottom_boundary equal count(bottom_boundary)
variable __gb_neb_count_bottom_boundary delete
min_style fire
timestep 0.01
fix neb_path all neb 1
fix hold_boundary_xy fixed_xy setforce 0.0 0.0 NULL
thermo 100
thermo_style custom step part pe fmax fnorm lx ly lz pxx pyy pzz pxy pxz pyz
thermo_modify flush yes
variable i equal part
dump neb_dump all custom 1000 /data/home/yazhuo/Project/GBclaw/projects/proj-20260927-164bf2/artifacts/lammps/neb/neb-20260927-045814-1d9965/neb.replica.$i.lammpstrj id type x y z ix iy iz fx fy fz
dump neb_dump all custom 1000 /data/home/yazhuo/Project/GBclaw/projects/proj-20260927-164bf2/artifacts/lammps/neb/neb-20260927-045814-1d9965/neb.replica.14.lammpstrj id type x y z ix iy iz fx fy fz
dump_modify neb_dump sort id
run 0
WARNING: No fixes with time integration, atoms won't move
For more information see https://docs.lammps.org/err0028 (src/verlet.cpp:60)
Neighbor list info ...
  update: every = 1 steps, delay = 0 steps, check = yes
  max neighbors/atom: 2000, page size: 100000
  master list distance cutoff = 6.168302
  ghost atom cutoff = 6.168302
  binsize = 3.084151, bins = 13 81 5
  1 neighbor lists, perpetual/occasional/extra = 1 0 0
  (1) pair adp, perpetual
      attributes: half, newton on
      pair build: half/bin/atomonly/newton
      stencil: half/bin/3d
      bin: standard
Per MPI rank memory allocation (min/avg/max) = 7.422 | 7.43 | 7.438 Mbytes
   Step        Part         PotEng          Fmax          Fnorm            Lx             Ly             Lz            Pxx            Pyy            Pzz            Pxy            Pxz            Pyz      
         0          14  -48992.796      0.0024845783   0.10363051     38.7435        248.489        14.9298        0.19007438     2.918104      -3.7172695      0.3830234      3.2510357e-05 -0.0010155383 
Loop time of 2.6055e-06 on 2 procs for 0 steps with 11052 atoms

76.8% CPU use with 2 MPI tasks x 1 OpenMP threads

MPI task timing breakdown:
Section |  min time  |  avg time  |  max time  |%varavg| %total
---------------------------------------------------------------
Pair    | 0          | 0          | 0          |   0.0 |  0.00
Neigh   | 0          | 0          | 0          |   0.0 |  0.00
Comm    | 0          | 0          | 0          |   0.0 |  0.00
Output  | 0          | 0          | 0          |   0.0 |  0.00
Modify  | 0          | 0          | 0          |   0.0 |  0.00
Other   |            | 2.606e-06  |            |       |100.00

Nlocal:           5526 ave        5544 max        5508 min
Histogram: 1 0 0 0 0 0 0 0 0 1
Nghost:           7959 ave        8011 max        7907 min
Histogram: 1 0 0 0 0 0 0 0 0 1
Neighs:         234603 ave      234962 max      234244 min
Histogram: 1 0 0 0 0 0 0 0 0 1

Total # of neighbors = 469206
Ave neighs/atom = 42.454397
Neighbor list builds = 0
Dangerous builds = 0
neb 0 0.0001 10000 10000 100 final "/data/home/yazhuo/Project/GBclaw/projects/proj-20260927-164bf2/artifacts/lammps/neb/neb-20260927-045814-1d9965/inputs/final.neb.coords" verbosity default
  Parameters for fire:
    dmax  delaystep dtgrow dtshrink alpha0 alphashrink tmax tmin   integrator   halfstepback   abcfire  
     0.1     20      1.1     0.5     0.25     0.99      10  0.02 eulerimplicit      yes          no     
Per MPI rank memory allocation (min/avg/max) = 9.901 | 9.909 | 9.917 Mbytes
   Step        Part         PotEng          Fmax          Fnorm            Lx             Ly             Lz            Pxx            Pyy            Pzz            Pxy            Pxz            Pyz      
         0          14  -48992.558      0.21645773     1.4212452      38.7435        248.489        14.9298        158.37993     -524.52189     -162.90336     -79.345586     -7.719727       56.023992    
       100          14  -48992.795      0.00037322784  0.013461708    38.7435        248.489        14.9298        181.86039     -632.07682     -155.15876     -90.52138      -50.58885       105.76509    
       200          14  -48992.796      0.00020836927  0.010334789    38.7435        248.489        14.9298        183.73105     -638.07702     -156.17659     -91.337651     -56.85048       130.60931    
       300          14  -48992.797      0.00015147244  0.0077890346   38.7435        248.489        14.9298        185.06701     -641.22104     -156.61967     -92.446438     -61.69088       149.52827    
       400          14  -48992.798      0.00011578317  0.006261367    38.7435        248.489        14.9298        186.10814     -643.41624     -156.84461     -93.725447     -65.838701      165.65218    
       500          14  -48992.799      9.1372016e-05  0.005169179    38.7435        248.489        14.9298        186.91001     -644.96265     -156.91506     -95.088953     -69.4595        179.70809    
       600          14  -48992.799      7.8517665e-05  0.0045430922   38.7435        248.489        14.9298        187.37344     -645.77599     -156.89248     -96.111006     -71.76365       188.74046    
       700          14  -48992.799      6.825844e-05   0.0040371326   38.7435        248.489        14.9298        187.749       -646.3814      -156.82547     -97.131059     -73.766873      196.72404    
       800          14  -48992.799      5.6140175e-05  0.0035711158   38.7435        248.489        14.9298        188.12586     -646.92982     -156.67644     -98.502111     -76.046352      206.02403    
       900          14  -48992.799      5.8049153e-05  0.0034283063   38.7435        248.489        14.9298        188.30312     -647.16106     -156.49858     -99.646932     -77.640091      212.61008    
      1000          14  -48992.8        5.2635694e-05  0.0030161339   38.7435        248.489        14.9298        188.40964     -647.28106     -156.25885     -100.96786     -79.193164      219.14936    
      1100          14  -48992.8        4.6977406e-05  0.0026262297   38.7435        248.489        14.9298        188.50388     -647.36467     -155.97877     -102.42879     -80.602018      225.44183    
      1200          14  -48992.8        4.3462474e-05  0.0023816074   38.7435        248.489        14.9298        188.54467     -647.3797      -155.73436     -103.62304     -81.560817      229.9415     
      1300          14  -48992.8        3.9841124e-05  0.0021601779   38.7435        248.489        14.9298        188.5615      -647.36472     -155.4884      -104.77868     -82.351044      233.8439     
      1400          14  -48992.8        3.5781426e-05  0.0019292904   38.7435        248.489        14.9298        188.55748     -647.3186      -155.18688     -106.14436     -83.12904       237.9459     
      1500          14  -48992.8        3.2144915e-05  0.0017349868   38.7435        248.489        14.9298        188.53039     -647.24905     -154.88287     -107.46785     -83.739697      241.44353    
      1600          14  -48992.8        2.9415635e-05  0.0015965456   38.7435        248.489        14.9298        188.49303     -647.17853     -154.63178     -108.52845     -84.141327      243.94731    
      1700          14  -48992.8        2.6225034e-05  0.0014429363   38.7435        248.489        14.9298        188.42861     -647.07527     -154.31047     -109.84299     -84.543703      246.71766    
      1800          14  -48992.8        2.3511318e-05  0.0013198097   38.7435        248.489        14.9298        188.35464     -646.96953     -154.01278     -111.02132     -84.823248      248.91182    
      1900          14  -48992.8        2.1967341e-05  0.0012200213   38.7435        248.489        14.9298        188.27598     -646.8654      -153.73779     -112.07994     -85.017014      250.67434    
      2000          14  -48992.8        2.0766959e-05  0.0011322065   38.7435        248.489        14.9298        188.18867     -646.75663     -153.46364     -113.10765     -85.156436      252.20484    
      2100          14  -48992.8        1.9421501e-05  0.0010397428   38.7435        248.489        14.9298        188.0716      -646.61861     -153.12907     -114.32493     -85.264599      253.80023    
      2200          14  -48992.8        1.8525499e-05  0.00098220132  38.7435        248.489        14.9298        187.98055     -646.5158      -152.88793     -115.17848     -85.30735       254.78667    
      2300          14  -48992.8        1.7384387e-05  0.00091735251  38.7435        248.489        14.9298        187.85082     -646.37406     -152.56663     -116.28728     -85.328628      255.91856    
      2400          14  -48992.8        1.6126412e-05  0.00086049955  38.7435        248.489        14.9298        187.69039     -646.20342     -152.19989     -117.51538     -85.318197      256.99159    
      2500          14  -48992.8        1.5285178e-05  0.00083400426  38.7435        248.489        14.9298        187.56892     -646.07575     -151.94273     -118.35574     -85.300172      257.63104    
      2600          14  -48992.8        1.4441166e-05  0.00082193833  38.7435        248.489        14.9298        187.43208     -645.93186     -151.67029     -119.23058     -85.280596      258.23165    
      2700          14  -48992.8        1.3357222e-05  0.00083137582  38.7435        248.489        14.9298        187.21197     -645.69931     -151.26174     -120.51966     -85.259018      259.01669    
      2800          14  -48992.8        1.2711807e-05  0.00084653748  38.7435        248.489        14.9298        187.02657     -645.50233     -150.93672     -121.5311      -85.249093      259.56058    
      2900          14  -48992.8        1.2753264e-05  0.00087004042  38.7435        248.489        14.9298        186.77532     -645.23476     -150.51303     -122.83711     -85.240707      260.17902    
      3000          14  -48992.8        1.3605198e-05  0.000880237    38.7435        248.489        14.9298        186.46805     -644.90867     -150.00909     -124.37628     -85.22446       260.78367    
      3100          14  -48992.8        1.4049674e-05  0.00087889045  38.7435        248.489        14.9298        186.23534     -644.66297     -149.63324     -125.51588     -85.202846      261.14624    
      3200          14  -48992.8        1.4388744e-05  0.00087417219  38.7435        248.489        14.9298        185.9951      -644.41054     -149.24858     -126.6755      -85.170151      261.44199    
      3300          14  -48992.8        1.489587e-05   0.00087707574  38.7435        248.489        14.9298        185.6674      -644.0681      -148.72797     -128.23526     -85.108576      261.7307     
      3400          14  -48992.8        1.5244556e-05  0.00087964544  38.7435        248.489        14.9298        185.38228     -643.77145     -148.278       -129.57484     -85.040258      261.88547    
      3500          14  -48992.8        1.5601835e-05  0.00088596664  38.7435        248.489        14.9298        185.07361     -643.45134     -147.79351     -131.00884     -84.952748      261.9653     
      3600          14  -48992.8        1.5959415e-05  0.0008946323   38.7435        248.489        14.9298        184.7156      -643.08119     -147.23419     -132.65326     -84.835234      261.95494    
      3700          14  -48992.799      1.615772e-05   0.00090031398  38.7435        248.489        14.9298        184.43931     -642.79643     -146.8043      -133.90889     -84.734392      261.87979    
      3800          14  -48992.799      1.6314506e-05  0.00090543627  38.7435        248.489        14.9298        184.15905     -642.50855     -146.36971     -135.17064     -84.624453      261.75069    
      3900          14  -48992.799      1.6526483e-05  0.00091327768  38.7435        248.489        14.9298        183.69566     -642.0348      -145.65389     -137.23101     -84.428451      261.43348    
      4000          14  -48992.799      1.6593004e-05  0.00091615489  38.7435        248.489        14.9298        183.37863     -641.71251     -145.16621     -138.62076     -84.286125      261.15       
      4100          14  -48992.799      1.6537558e-05  0.00091467504  38.7435        248.489        14.9298        183.06578     -641.39588     -144.68618     -139.97635     -84.140559      260.82283    
      4200          14  -48992.799      1.6492047e-05  0.00091297908  38.7435        248.489        14.9298        182.719       -641.047       -144.15578     -141.45949     -83.975153      260.41357    
      4300          14  -48992.799      1.6382001e-05  0.00090787464  38.7435        248.489        14.9298        182.32934     -640.65775     -143.56181     -143.10074     -83.786221      259.90281    
      4400          14  -48992.799      1.6227364e-05  0.00090083157  38.7435        248.489        14.9298        182.02706     -640.35816     -143.1026      -144.35436     -83.638745      259.47434    
      4500          14  -48992.799      1.6017493e-05  0.00089027784  38.7435        248.489        14.9298        181.65549     -639.99295     -142.5401      -145.87127     -83.457901      258.91584    
      4600          14  -48992.799      1.5802701e-05  0.00087953056  38.7435        248.489        14.9298        181.36297     -639.70791     -142.09869     -147.04618     -83.316774      258.45462    
      4700          14  -48992.799      1.553013e-05   0.00086575469  38.7435        248.489        14.9298        181.05061     -639.40624     -141.62879     -148.28076     -83.1682        257.94415    
      4800          14  -48992.799      1.5231883e-05  0.00085021731  38.7435        248.489        14.9298        180.7369      -639.10627     -141.1586      -149.49927     -83.022017      257.41681    
      4900          14  -48992.799      1.4856612e-05  0.00082986243  38.7435        248.489        14.9298        180.37423     -638.76326     -140.61698     -150.88082     -82.857747      256.79235    
      5000          14  -48992.799      1.4516899e-05  0.00081117493  38.7435        248.489        14.9298        180.07769     -638.4858      -140.17568     -151.98814     -82.72796       256.27268    
      5100          14  -48992.799      1.4127043e-05  0.00078950777  38.7435        248.489        14.9298        179.75865     -638.19046     -139.7027      -153.15637     -82.593491      255.7076     
      5200          14  -48992.799      1.3706832e-05  0.00076592488  38.7435        248.489        14.9298        179.43736     -637.89689     -139.22842     -154.30738     -82.464184      255.13478    
      5300          14  -48992.799      1.334439e-05   0.00074559625  38.7435        248.489        14.9298        179.17811     -637.66296     -138.84726     -155.21695     -82.36474       254.6716     
      5400          14  -48992.799      1.2917731e-05  0.00072127327  38.7435        248.489        14.9298        178.88252     -637.39965     -138.41457     -156.23272     -82.256988      254.14441    
      5500          14  -48992.799      1.2438502e-05  0.00069367708  38.7435        248.489        14.9298        178.56478     -637.12057     -137.95155     -157.29889     -82.148339      253.58056    
      5600          14  -48992.799      1.2059198e-05  0.00067187102  38.7435        248.489        14.9298        178.3243      -636.91215     -137.6026      -158.08757     -82.071374      253.15709    
      5700          14  -48992.799      1.1644169e-05  0.00064803971  38.7435        248.489        14.9298        178.06988     -636.69445     -137.23497     -158.90452     -81.995033      252.71336    
      5800          14  -48992.799      1.1161534e-05  0.00062035778  38.7435        248.489        14.9298        177.7848      -636.45399     -136.82485     -159.79822     -81.91597       252.22255    
      5900          14  -48992.799      1.0739986e-05  0.00059616787  38.7435        248.489        14.9298        177.54347     -636.25342     -136.47922     -160.53634     -81.854608      251.81339    
      6000          14  -48992.799      1.0328589e-05  0.00057245849  38.7435        248.489        14.9298        177.31253     -636.06422     -136.14995     -161.22634     -81.800798      251.42824    
      6100          14  -48992.799      9.8902694e-06  0.00054711069  38.7435        248.489        14.9298        177.07133     -635.86948     -135.80757     -161.92968     -81.749872      251.03341    
      6200          14  -48992.799      9.5153478e-06  0.00052553316  38.7435        248.489        14.9298        176.87004     -635.70927     -135.52308     -162.50277     -81.711606      250.71039    
      6300          14  -48992.799      9.0404757e-06  0.00049820742  38.7435        248.489        14.9298        176.61946     -635.51287     -135.17056     -163.19839     -81.669348      250.31715    
      6400          14  -48992.799      8.6172782e-06  0.00047402111  38.7435        248.489        14.9298        176.40183     -635.34523     -134.86598     -163.78556     -81.637746      249.9846     
      6500          14  -48992.799      8.2793001e-06  0.0004547493   38.7435        248.489        14.9298        176.23068     -635.21538     -134.62748     -164.23602     -81.616256      249.72935    
      6600          14  -48992.799      7.8965626e-06  0.00043299192  38.7435        248.489        14.9298        176.03953     -635.07245     -134.36224     -164.72722     -81.595736      249.45112    
      6700          14  -48992.799      7.4410682e-06  0.00040718488  38.7435        248.489        14.9298        175.81546     -634.90784     -134.05286     -165.28653     -81.576453      249.13481    
      6800          14  -48992.799      7.1092053e-06  0.00038845888  38.7435        248.489        14.9298        175.65452     -634.79168     -133.83171     -165.67669     -81.565911      248.91476    
      6900          14  -48992.799      6.7882204e-06  0.000370376    38.7435        248.489        14.9298        175.50008     -634.6819      -133.6204      -166.04187     -81.558357      248.70946    
      7000          14  -48992.799      6.4266555e-06  0.0003500657   38.7435        248.489        14.9298        175.32773     -634.56138     -133.38562     -166.43846     -81.552939      248.48748    
      7100          14  -48992.799      6.1344572e-06  0.00033370192  38.7435        248.489        14.9298        175.18959     -634.46637     -133.19825     -166.74768     -81.550932      248.31531    
      7200          14  -48992.799      5.7755951e-06  0.00031366023  38.7435        248.489        14.9298        175.02105     -634.35239     -132.97066     -167.11444     -81.551245      248.11239    
      7300          14  -48992.799      5.4740132e-06  0.00029685766  38.7435        248.489        14.9298        174.88021     -634.25892     -132.78139     -167.41146     -81.553931      247.94935    
      7400          14  -48992.799      5.2101413e-06  0.00028220299  38.7435        248.489        14.9298        174.75758     -634.1789      -132.6173      -167.66291     -81.558053      247.81242    
      7500          14  -48992.799      4.9461057e-06  0.00026758461  38.7435        248.489        14.9298        174.63535     -634.10045     -132.45443     -167.90674     -81.563798      247.68076    
      7600          14  -48992.799      4.6277262e-06  0.0002500311   38.7435        248.489        14.9298        174.48862     -634.00806     -132.25983     -168.19021     -81.572857      247.52934    
      7700          14  -48992.799      4.4035752e-06  0.00023771563  38.7435        248.489        14.9298        174.38563     -633.94445     -132.12386     -168.3828      -81.580663      247.42768    
      7800          14  -48992.799      4.1806256e-06  0.00022550063  38.7435        248.489        14.9298        174.28335     -633.88231     -131.98936     -168.56879     -81.589555      247.33057    
      7900          14  -48992.799      3.9405818e-06  0.00021238755  38.7435        248.489        14.9298        174.17335     -633.81669     -131.8453      -168.76272     -81.600398      247.2306     
      8000          14  -48992.799      3.72903e-06    0.00020086865  38.7435        248.489        14.9298        174.07649     -633.75996     -131.71898     -168.92808     -81.611036      247.14656    
      8100          14  -48992.799      3.5352439e-06  0.00019034879  38.7435        248.489        14.9298        173.98776     -633.70892     -131.60374     -169.07493     -81.62166       247.07298    
      8200          14  -48992.799      3.3320536e-06  0.00017934736  38.7435        248.489        14.9298        173.89466     -633.65635     -131.48329     -169.22413     -81.633706      246.9994     
      8300          14  -48992.799      3.1617419e-06  0.00017015397  38.7435        248.489        14.9298        173.81655     -633.61305     -131.38264     -169.34527     -81.644512      246.94066    
      8400          14  -48992.799      2.9834266e-06  0.00016054991  38.7435        248.489        14.9298        173.73461     -633.56843     -131.27744     -169.46832     -81.656507      246.88202    
      8500          14  -48992.799      2.847214e-06   0.00015322883  38.7435        248.489        14.9298        173.67187     -633.53486     -131.19719     -169.55964     -81.666141      246.83926    
      8600          14  -48992.799      2.7121834e-06  0.00014598416  38.7435        248.489        14.9298        173.60952     -633.50203     -131.11768     -169.64781     -81.676093      246.79866    
      8700          14  -48992.799      2.5392643e-06  0.00013672472  38.7435        248.489        14.9298        173.5294      -633.46063     -131.0159      -169.7572      -81.689418      246.74937    
      8800          14  -48992.799      2.3851372e-06  0.00012847724  38.7435        248.489        14.9298        173.45756     -633.42431     -130.92501     -169.85139     -81.701858      246.70803    
      8900          14  -48992.799      2.2808777e-06  0.00012292719  38.7435        248.489        14.9298        173.40894     -633.40017     -130.86372     -169.91296     -81.710527      246.68163    
      9000          14  -48992.799      2.1501204e-06  0.00011596242  38.7435        248.489        14.9298        173.34758     -633.37023     -130.78661     -169.98814     -81.721736      246.65014    
      9100          14  -48992.799      2.0192789e-06  0.00010900242  38.7435        248.489        14.9298        173.28582     -633.34071     -130.70929     -170.06082     -81.733301      246.62058    
      9200          14  -48992.799      1.924275e-06   0.00010395721  38.7435        248.489        14.9298        173.24076     -633.31958     -130.65306     -170.11192     -81.741902      246.60039    
      9300          14  -48992.799      1.8304412e-06  9.8978523e-05  38.7435        248.489        14.9298        173.19602     -633.29894     -130.5974      -170.16098     -81.750565      246.58153    
      9400          14  -48992.799      1.7205013e-06  9.3149631e-05  38.7435        248.489        14.9298        173.14327     -633.27508     -130.53198     -170.21658     -81.760926      246.56085    
      9453          14  -48992.799      1.6830268e-06  9.1164455e-05  38.7435        248.489        14.9298        173.1252      -633.26703     -130.50964     -170.23504     -81.764505      246.55417    
Loop time of 275.698 on 2 procs for 9453 steps with 11052 atoms

98.9% CPU use with 2 MPI tasks x 1 OpenMP threads

Minimization stats:
  Stopping criterion = force tolerance
  Energy initial, next-to-last, final = 
     -48992.5581762735  -48992.7988628781  -48992.7988628652
  Force two-norm initial, final = 1.4212452 9.1164455e-05
  Force max component initial, final = 0.21645773 1.6830268e-06
  Final line search alpha, max atom move = 0 0
  Iterations, force evaluations = 9453 9970

MPI task timing breakdown:
Section |  min time  |  avg time  |  max time  |%varavg| %total
---------------------------------------------------------------
Pair    | 215.49     | 217.22     | 218.95     |  11.8 | 78.79
Neigh   | 0          | 0          | 0          |   0.0 |  0.00
Comm    | 2.2926     | 4.0199     | 5.7472     |  86.2 |  1.46
Output  | 0.14302    | 0.14963    | 0.15623    |   1.7 |  0.05
Modify  | 20.213     | 20.221     | 20.229     |   0.2 |  7.33
Other   |            | 34.09      |            |       | 12.36

Nlocal:           5526 ave        5544 max        5508 min
Histogram: 1 0 0 0 0 0 0 0 0 1
Nghost:           8594 ave        8631 max        8557 min
Histogram: 1 0 0 0 0 0 0 0 0 1
Neighs:         234681 ave      235404 max      233958 min
Histogram: 1 0 0 0 0 0 0 0 0 1

Total # of neighbors = 469362
Ave neighs/atom = 42.468512
Neighbor list builds = 0
Dangerous builds = 0
  Parameters for fire:
    dmax  delaystep dtgrow dtshrink alpha0 alphashrink tmax tmin   integrator   halfstepback   abcfire  
     0.1     20      1.1     0.5     0.25     0.99      10  0.02 eulerimplicit      yes          no     
Per MPI rank memory allocation (min/avg/max) = 9.901 | 9.909 | 9.917 Mbytes
   Step        Part         PotEng          Fmax          Fnorm            Lx             Ly             Lz            Pxx            Pyy            Pzz            Pxy            Pxz            Pyz      
      9453          14  -48992.799      1.6830268e-06  9.1164455e-05  38.7435        248.489        14.9298        173.1252      -633.26703     -130.50964     -170.23504     -81.764505      246.55417    
      9500          14  -48992.799      4.3543307e-05  0.0019661484   38.7435        248.489        14.9298        173.1869      -633.47123     -130.61549     -169.83185     -81.731475      246.56061    
      9600          14  -48992.799      2.7882919e-05  0.0019702287   38.7435        248.489        14.9298        173.64618     -634.36185     -131.24777     -167.69263     -81.508909      246.44336    
      9700          14  -48992.799      2.5397383e-05  0.0019904434   38.7435        248.489        14.9298        173.9702      -634.90874     -131.67839     -166.20234     -81.300596      246.17774    
      9800          14  -48992.8        2.2758015e-05  0.0019804743   38.7435        248.489        14.9298        174.33884     -635.49886     -132.16243     -164.50925     -81.005255      245.68692    
      9900          14  -48992.8        2.0655028e-05  0.001978026    38.7435        248.489        14.9298        174.70353     -636.06033     -132.63452     -162.83918     -80.640363      244.97349    
     10000          14  -48992.8        2.0266741e-05  0.0019658318   38.7435        248.489        14.9298        175.01976     -636.53335     -133.037       -161.39775     -80.253856      244.13751    
     10100          14  -48992.8        1.9783258e-05  0.0019235275   38.7435        248.489        14.9298        175.29918     -636.942       -133.38602     -160.13058     -79.843178      243.1838     
     10200          14  -48992.8        1.8799918e-05  0.0018187529   38.7435        248.489        14.9298        175.55232     -637.304       -133.69326     -158.9864      -79.38484       242.05072    
     10300          14  -48992.8        1.8198628e-05  0.0016892666   38.7435        248.489        14.9298        175.71007     -637.52484     -133.87624     -158.2716      -79.015882      241.0849     
     10400          14  -48992.801      1.7330738e-05  0.0015373374   38.7435        248.489        14.9298        175.82383     -637.68176     -133.99793     -157.74932     -78.64507       240.06271    
     10500          14  -48992.801      1.5995872e-05  0.0013418451   38.7435        248.489        14.9298        175.90345     -637.79352     -134.05932     -157.36295     -78.139444      238.58324    
     10600          14  -48992.801      1.5040385e-05  0.00122488     38.7435        248.489        14.9298        175.90898     -637.81027     -134.02797     -157.30385     -77.7393        237.34703    
     10700          14  -48992.801      1.4692047e-05  0.0011467969   38.7435        248.489        14.9298        175.87712     -637.78428     -133.94674     -157.40777     -77.363271      236.14189    
     10800          14  -48992.801      1.4417335e-05  0.0010888061   38.7435        248.489        14.9298        175.81146     -637.7251      -133.81375     -157.65591     -76.953594      234.78998    
     10900          14  -48992.801      1.4193653e-05  0.0010515541   38.7435        248.489        14.9298        175.7357      -637.65751     -133.67039     -157.9548      -76.599125      233.59336    
     11000          14  -48992.801      1.3923078e-05  0.0010168744   38.7435        248.489        14.9298        175.64722     -637.58004     -133.50755     -158.31154     -76.246544      232.38171    
     11100          14  -48992.801      1.3611206e-05  0.00098397961  38.7435        248.489        14.9298        175.55747     -637.50209     -133.34487     -158.67887     -75.930765      231.27791    
     11200          14  -48992.801      1.3073704e-05  0.00093492914  38.7435        248.489        14.9298        175.42429     -637.38533     -133.10733     -159.23046     -75.522371      229.82041    
     11300          14  -48992.801      1.2677677e-05  0.00090191375  38.7435        248.489        14.9298        175.33624     -637.30648     -132.95267     -159.59797     -75.28619       228.95925    
     11400          14  -48992.801      1.2076926e-05  0.00085502918  38.7435        248.489        14.9298        175.20866     -637.18963     -132.73182     -160.13266     -74.983122      227.83168    
     11500          14  -48992.801      1.1570384e-05  0.00081783861  38.7435        248.489        14.9298        175.10247     -637.09026     -132.55055     -160.57891     -74.760674      226.98549    
     11600          14  -48992.801      1.1046137e-05  0.00078108724  38.7435        248.489        14.9298        174.99161     -636.98499     -132.36335     -161.0454      -74.55151       226.17406    
     11700          14  -48992.801      1.0350069e-05  0.00073425969  38.7435        248.489        14.9298        174.84129     -636.84075     -132.11224     -161.67821     -74.298072      225.16847    
     11800          14  -48992.802      9.6988713e-06  0.0006916408   38.7435        248.489        14.9298        174.69633     -636.70096     -131.87225     -162.28821     -74.079275      224.27925    
     11900          14  -48992.802      9.1963631e-06  0.00065906298  38.7435        248.489        14.9298        174.58208     -636.59084     -131.68418     -162.7685      -73.920725      223.62211    
     12000          14  -48992.802      8.5828591e-06  0.00061931444  38.7435        248.489        14.9298        174.44104     -636.45537     -131.453       -163.36045     -73.738434      222.85316    
     12100          14  -48992.802      7.9770435e-06  0.00057981818  38.7435        248.489        14.9298        174.30081     -636.32138     -131.22392     -163.94775     -73.569886      222.12847    
     12200          14  -48992.802      7.5114732e-06  0.00054928017  38.7435        248.489        14.9298        174.19347     -636.21934     -131.049       -164.39616     -73.448333      221.59718    
     12300          14  -48992.802      6.9843551e-06  0.00051449737  38.7435        248.489        14.9298        174.07283     -636.10515     -130.8528      -164.89884     -73.318857      221.02248    
     12400          14  -48992.802      6.5340727e-06  0.00048458833  38.7435        248.489        14.9298        173.97054     -636.00871     -130.68681     -165.32373     -73.214882      220.55352    
     12500          14  -48992.802      1.290223e-05   0.00047761565  38.7435        248.489        14.9298        173.81593     -635.86342     -130.43653     -165.9635      -73.067458      219.87577    
     12600          14  -48992.802      5.4611355e-06  0.00041293437  38.7435        248.489        14.9298        173.73063     -635.78334     -130.29889     -166.31516     -72.991257      219.51778    
     12700          14  -48992.802      5.0225572e-06  0.00038309202  38.7435        248.489        14.9298        173.63354     -635.6923      -130.14255     -166.71418     -72.908883      219.12451    
     12800          14  -48992.802      4.5215869e-06  0.000348929    38.7435        248.489        14.9298        173.5231      -635.58878     -129.96523     -167.1665      -72.820954      218.69555    
     12900          14  -48992.802      4.1670282e-06  0.00032446827  38.7435        248.489        14.9298        173.44502     -635.5156      -129.84022     -167.48531     -72.762483      218.40403    
     13000          14  -48992.802      3.9221964e-06  0.0003009508   38.7435        248.489        14.9298        173.37065     -635.4459      -129.72143     -167.78822     -72.709646      218.13539    
     13100          14  -48992.802      3.6447229e-06  0.00027365207  38.7435        248.489        14.9298        173.28542     -635.36601     -129.58563     -168.13462     -72.652637      217.83862    
     13200          14  -48992.802      3.3976939e-06  0.00025029851  38.7435        248.489        14.9298        173.21358     -635.29861     -129.47142     -168.42616     -72.607563      217.59764    
     13300          14  -48992.802      3.1521016e-06  0.00022787297  38.7435        248.489        14.9298        173.1456      -635.23478     -129.36361     -168.70174     -72.56748       217.37744    
     13400          14  -48992.802      2.951148e-06   0.00021010307  38.7435        248.489        14.9298        173.09254     -635.18486     -129.27959     -168.91687     -72.538039      217.21105    
     13500          14  -48992.802      2.6549149e-06  0.00018439642  38.7435        248.489        14.9298        173.01717     -635.11371     -129.16047     -169.22281     -72.499221      216.98342    
     13600          14  -48992.802      2.4719147e-06  0.00016935896  38.7435        248.489        14.9298        172.97396     -635.07271     -129.09228     -169.39872     -72.478731      216.8579     
     13700          14  -48992.802      2.241127e-06   0.00015045504  38.7435        248.489        14.9298        172.92058     -635.02174     -129.00814     -169.61693     -72.455358      216.70817    
     13800          14  -48992.802      2.0116037e-06  0.00013210424  38.7435        248.489        14.9298        172.86988     -634.97283     -128.9283      -169.82574     -72.435438      216.57201    
     13900          14  -48992.802      1.8552922e-06  0.00011995813  38.7435        248.489        14.9298        172.83699     -634.94074     -128.87653     -169.96239     -72.423899      216.48725    
     14000          14  -48992.802      1.7040911e-06  0.00010843368  38.7435        248.489        14.9298        172.80629     -634.91043     -128.82821     -170.09119     -72.414258      216.41094    
     14100          14  -48992.802      1.4859148e-06  9.2296125e-05  38.7435        248.489        14.9298        172.76419     -634.86809     -128.76193     -170.27062     -72.403186      216.3115     
     14200          14  -48992.802      1.3502245e-06  8.2632152e-05  38.7435        248.489        14.9298        172.73953     -634.84269     -128.72306     -170.37797     -72.398149      216.25661    
     14300          14  -48992.802      1.1924216e-06  7.1805796e-05  38.7435        248.489        14.9298        172.71232     -634.81395     -128.68009     -170.49917     -72.394133      216.19952    
     14400          14  -48992.802      1.0364266e-06  6.1676646e-05  38.7435        248.489        14.9298        172.6872      -634.78642     -128.64027     -170.61494     -72.392317      216.1509     
     14500          14  -48992.802      9.2791134e-07  5.508725e-05   38.7435        248.489        14.9298        172.67092     -634.76786     -128.61435     -170.69285     -72.39244       216.12213    
     14600          14  -48992.802      8.2594319e-07  4.9337149e-05  38.7435        248.489        14.9298        172.65657     -634.75083     -128.59139     -170.76426     -72.393687      216.09911    
     14700          14  -48992.802      6.9374955e-07  4.2744913e-05  38.7435        248.489        14.9298        172.63954     -634.72935     -128.56391     -170.8541      -72.397156      216.07577    
     14800          14  -48992.802      6.2587381e-07  3.8810093e-05  38.7435        248.489        14.9298        172.62857     -634.71437     -128.54597     -170.91671     -72.401125      216.06414    
     14900          14  -48992.802      5.7189091e-07  3.5718704e-05  38.7435        248.489        14.9298        172.61863     -634.69951     -128.52946     -170.97876     -72.406589      216.0572     
     15000          14  -48992.802      5.1737388e-07  3.3739263e-05  38.7435        248.489        14.9298        172.61008     -634.6849      -128.51487     -171.0397      -72.413837      216.05606    
     15100          14  -48992.802      4.8740939e-07  3.308382e-05   38.7435        248.489        14.9298        172.60444     -634.67334     -128.50481     -171.08793     -72.421248      216.06024    
     15200          14  -48992.802      4.8086602e-07  3.323344e-05   38.7435        248.489        14.9298        172.60067     -634.66355     -128.49764     -171.12881     -72.428988      216.06825    
     15300          14  -48992.802      4.7410295e-07  3.4091877e-05  38.7435        248.489        14.9298        172.59804     -634.65337     -128.49189     -171.17134     -72.438836      216.08211    
     15400          14  -48992.802      4.6904028e-07  3.5169714e-05  38.7435        248.489        14.9298        172.59722     -634.64586     -128.48912     -171.20281     -72.447637      216.09705    
     15500          14  -48992.802      4.6370301e-07  3.6654179e-05  38.7435        248.489        14.9298        172.59767     -634.63809     -128.48794     -171.23543     -72.458461      216.11784    
     15600          14  -48992.802      4.5897301e-07  3.8172556e-05  38.7435        248.489        14.9298        172.59943     -634.63153     -128.48876     -171.2631      -72.469428      216.14108    
     15700          14  -48992.802      4.5508419e-07  3.9505545e-05  38.7435        248.489        14.9298        172.60197     -634.62642     -128.49092     -171.28477     -72.479479      216.16389    
     15800          14  -48992.802      4.5106163e-07  4.0893543e-05  38.7435        248.489        14.9298        172.60567     -634.62152     -128.49463     -171.30572     -72.490744      216.19086    
     15900          14  -48992.802      4.5272691e-07  4.2357929e-05  38.7435        248.489        14.9298        172.61101     -634.61664     -128.50048     -171.32674     -72.50404       216.22428    
     16000          14  -48992.802      4.6200541e-07  4.3361031e-05  38.7435        248.489        14.9298        172.6158      -634.6134      -128.50598     -171.34081     -72.514408      216.25136    
     16100          14  -48992.802      4.7066683e-07  4.4358791e-05  38.7435        248.489        14.9298        172.62179     -634.61023     -128.51304     -171.3548      -72.526189      216.28304    
     16200          14  -48992.802      4.7821571e-07  4.5291599e-05  38.7435        248.489        14.9298        172.62903     -634.60723     -128.52176     -171.36821     -72.539266      216.3192     
     16300          14  -48992.802      4.8299205e-07  4.5925868e-05  38.7435        248.489        14.9298        172.63536     -634.60513     -128.52949     -171.37775     -72.549964      216.34946    
     16400          14  -48992.802      4.8735234e-07  4.6555895e-05  38.7435        248.489        14.9298        172.64352     -634.60292     -128.53956     -171.388       -72.563056      216.38723    
     16500          14  -48992.802      4.9375112e-07  4.7029126e-05  38.7435        248.489        14.9298        172.65203     -634.60107     -128.55017     -171.39681     -72.576069      216.42547    
     16600          14  -48992.802      5.0078188e-07  4.731995e-05   38.7435        248.489        14.9298        172.65947     -634.59973     -128.5595      -171.40335     -72.587051      216.45824    
     16700          14  -48992.802      5.0699319e-07  4.7533917e-05  38.7435        248.489        14.9298        172.66796     -634.59845     -128.57019     -171.40978     -72.599209      216.49498    
     16800          14  -48992.802      5.1256899e-07  4.7652615e-05  38.7435        248.489        14.9298        172.67862     -634.59713     -128.58369     -171.41664     -72.614084      216.54053    
     16900          14  -48992.802      5.1524406e-07  4.7647739e-05  38.7435        248.489        14.9298        172.68622     -634.59635     -128.59334     -171.42086     -72.624456      216.57265    
     17000          14  -48992.802      5.1720504e-07  4.7563781e-05  38.7435        248.489        14.9298        172.69493     -634.59558     -128.60444     -171.42517     -72.636176      216.60926    
     17100          14  -48992.802      5.1814352e-07  4.7382992e-05  38.7435        248.489        14.9298        172.70451     -634.59485     -128.61668     -171.42936     -72.648901      216.64936    
     17200          14  -48992.802      5.1798754e-07  4.7124749e-05  38.7435        248.489        14.9298        172.71398     -634.59424     -128.62879     -171.43305     -72.661342      216.68888    
     17300          14  -48992.802      5.1698943e-07  4.6824499e-05  38.7435        248.489        14.9298        172.72262     -634.59375     -128.63988     -171.43611     -72.672631      216.72499    
     17400          14  -48992.802      5.1507858e-07  4.6436317e-05  38.7435        248.489        14.9298        172.73196     -634.59328     -128.65188     -171.43913     -72.684778      216.76409    
     17500          14  -48992.802      5.1282754e-07  4.6057334e-05  38.7435        248.489        14.9298        172.73992     -634.59291     -128.66213     -171.44153     -72.695117      216.79755    
     17600          14  -48992.802      5.0932548e-07  4.5532653e-05  38.7435        248.489        14.9298        172.74976     -634.59248     -128.6748      -171.44431     -72.707889      216.83909    
     17700          14  -48992.802      5.05451e-07    4.4999796e-05  38.7435        248.489        14.9298        172.75873     -634.59211     -128.68638     -171.44671     -72.719583      216.87732    
     17800          14  -48992.802      5.0186113e-07  4.453163e-05   38.7435        248.489        14.9298        172.76602     -634.59181     -128.69581     -171.44859     -72.72912       216.90862    
     17900          14  -48992.802      4.972908e-07   4.395849e-05   38.7435        248.489        14.9298        172.77437     -634.59147     -128.70661     -171.45069     -72.740105      216.94479    
     18000          14  -48992.802      4.913783e-07   4.3243738e-05  38.7435        248.489        14.9298        172.78406     -634.59105     -128.71918     -171.45308     -72.752975      216.98732    
     18100          14  -48992.802      4.8702898e-07  4.27321e-05    38.7435        248.489        14.9298        172.7906      -634.59076     -128.72768     -171.45469     -72.761747      217.0164     
     18200          14  -48992.802      4.8244051e-07  4.2202389e-05  38.7435        248.489        14.9298        172.79708     -634.59046     -128.7361      -171.45628     -72.770515      217.04552    
     18300          14  -48992.802      4.7574683e-07  4.1444701e-05  38.7435        248.489        14.9298        172.80589     -634.59001     -128.74758     -171.45846     -72.782592      217.08574    
     18400          14  -48992.802      4.7100167e-07  4.0916636e-05  38.7435        248.489        14.9298        172.81176     -634.58969     -128.75524     -171.45994     -72.790751      217.11297    
     18500          14  -48992.802      4.6481026e-07  4.023692e-05   38.7435        248.489        14.9298        172.81901     -634.58925     -128.76472     -171.4618      -72.800985      217.14719    
     18600          14  -48992.802      4.5814014e-07  3.9514946e-05  38.7435        248.489        14.9298        172.82639     -634.58877     -128.77439     -171.46376     -72.81158       217.18267    
     18700          14  -48992.802      4.5298773e-07  3.8963785e-05  38.7435        248.489        14.9298        172.83182     -634.58838     -128.78152     -171.46524     -72.819514      217.20928    
     18782          14  -48992.802      4.4720199e-07  3.8350877e-05  38.7435        248.489        14.9298        172.83766     -634.58793     -128.78921     -171.46688     -72.828195      217.23844    
Loop time of 270.99 on 2 procs for 9329 steps with 11052 atoms

98.9% CPU use with 2 MPI tasks x 1 OpenMP threads

Minimization stats:
  Stopping criterion = force tolerance
  Energy initial, next-to-last, final = 
     -48992.7988628652  -48992.8015455621  -48992.8015455057
  Force two-norm initial, final = 9.1164455e-05 3.8350877e-05
  Force max component initial, final = 1.6830268e-06 4.4720199e-07
  Final line search alpha, max atom move = 0 0
  Iterations, force evaluations = 9329 9840

MPI task timing breakdown:
Section |  min time  |  avg time  |  max time  |%varavg| %total
---------------------------------------------------------------
Pair    | 213.1      | 214.85     | 216.61     |  12.0 | 79.29
Neigh   | 0          | 0          | 0          |   0.0 |  0.00
Comm    | 2.2486     | 3.994      | 5.7394     |  87.3 |  1.47
Output  | 0.14147    | 0.15017    | 0.15887    |   2.2 |  0.06
Modify  | 20.664     | 20.671     | 20.679     |   0.2 |  7.63
Other   |            | 31.32      |            |       | 11.56

Nlocal:           5526 ave        5544 max        5508 min
Histogram: 1 0 0 0 0 0 0 0 0 1
Nghost:           8594 ave        8631 max        8557 min
Histogram: 1 0 0 0 0 0 0 0 0 1
Neighs:         234666 ave      235368 max      233964 min
Histogram: 1 0 0 0 0 0 0 0 0 1

Total # of neighbors = 469332
Ave neighs/atom = 42.465798
Neighbor list builds = 0
Dangerous builds = 0
write_data /data/home/yazhuo/Project/GBclaw/projects/proj-20260927-164bf2/artifacts/lammps/neb/neb-20260927-045814-1d9965/neb.replica.$i.final.lmp nocoeff
write_data /data/home/yazhuo/Project/GBclaw/projects/proj-20260927-164bf2/artifacts/lammps/neb/neb-20260927-045814-1d9965/neb.replica.14.final.lmp nocoeff
System init for write_data ...
Total wall time: 0:09:07
