LAMMPS (30 Mar 2026)
Processor partition = 8
OMP_NUM_THREADS environment is not set. Defaulting to 1 thread.
  using 1 OpenMP thread(s) per MPI task
clear
OMP_NUM_THREADS environment is not set. Defaulting to 1 thread.
  using 1 OpenMP thread(s) per MPI task
units metal
dimension 3
atom_style atomic
boundary p p p
atom_modify map array
read_data "/data/home/yazhuo/Project/GBclaw/projects/proj-20260927-164bf2/artifacts/lammps/neb/neb-20260927-045814-1d9965/inputs/initial.lmp"
Reading data file ...
  orthogonal box = (-19.37175 -124.2445 -7.4649) to (19.37175 124.2445 7.4649)
  1 by 2 by 1 MPI processor grid
  reading atoms ...
  11052 atoms
  read_data CPU = 0.045 seconds
neighbor 1.0 bin
neigh_modify delay 0 every 1 check yes
pair_style adp
pair_coeff * * "/data/home/yazhuo/Project/GBclaw/src/tools/potentials/NiCr.adp" Ni
group top_boundary empty
0 atoms in group top_boundary
group top_boundary id 5180 5151 5159 5109 5117 5067 5075 5025 5033 4992 5184 5160 5118 5076 5034 5181 5154 5156 5157 5112 5114 5115 5070 5072 5073 5028 5030 5031 4990 4991 5182 5155 5113 5071 5029 5175 5176 5141 5144 5146 5147 5099 5102 5104 5105 5057 5060 5062 5063 5015 5018 5020 5021 4985 4986 5177 5183 5145 5158 5103 5116 5061 5074 5019 5032 5168 5169 5129 5132 5134 5087 5090 5092 5045 5048 5050 5003 5006 5008 4980 5170 5178 5133 5148 5091 5106 5049 5064 5007 5022 11027 11048 10985 11019 10943 10977 10901 10935 10859 10893
100 atoms in group top_boundary
group top_boundary id 10818 10851 11052 11028 10986 10944 10902 10860 11024 11025 11049 10982 10983 11022 10940 10941 10980 10898 10899 10938 10856 10857 10896 10816 10817 10854 11050 11023 10981 10939 10897 10855 11014 11015 11043 11044 10972 10973 11009 11012 10930 10931 10967 10970 10888 10889 10925 10928 10846 10847 10883 10886 10811 10812 10841 10844 11045 11051 11013 11026 10971 10984 10929 10942 10887 10900 10845 10858 11002 11036 11037 10960 10997 11000 10918 10955 10958 10876 10913 10916 10834 10871 10874 10806 10829 10832 11038 11046 11001 11016 10959 10974 10917 10932 10875 10890 10833 10848
198 atoms in group top_boundary
group bottom_boundary empty
0 atoms in group bottom_boundary
group bottom_boundary id 174 125 83 123 84 32 34 10 177 139 175 140 85 87 46 12 47 160 111 124 68 69 126 67 21 33 35 6 7 164 176 128 129 178 127 73 86 88 37 38 9 11 36 152 161 105 110 58 59 109 112 57 70 15 19 20 22 2 3 156 163 114 115 162 165 113 130 63 71 72 74 24 25 5 8 23 39 151 153 104 56 103 106 55 60 13 14 16 1 155 108 154 157 107 116 61 62 64 18 4
100 atoms in group bottom_boundary
group bottom_boundary id 17 26 5345 5390 5303 5343 5304 5247 5249 5214 5190 5215 5391 5359 5360 5307 5263 5305 5264 5216 5218 5331 5344 5378 5288 5289 5346 5287 5235 5248 5250 5203 5204 5188 5189 5202 5392 5347 5348 5349 5293 5306 5252 5253 5308 5251 5208 5217 5219 5325 5330 5372 5379 5278 5279 5329 5332 5277 5290 5229 5233 5234 5236 5194 5195 5186 5187 5193 5205 5380 5381 5333 5334 5335 5350 5283 5292 5238 5239 5291 5294 5237 5254 5199 5206 5207 5209 5324 5371 5373 5276 5323 5326 5275 5280 5227 5228 5230 5192 5185
200 atoms in group bottom_boundary
group bottom_boundary id 5191 5196 5374 5375 5327 5328 5336 5282 5232 5281 5284 5231 5240 5197 5198 5200
216 atoms in group bottom_boundary
group fixed_xy union top_boundary bottom_boundary
414 atoms in group fixed_xy
variable __gb_neb_count_top_boundary equal count(top_boundary)
variable __gb_neb_count_top_boundary delete
variable __gb_neb_count_bottom_boundary equal count(bottom_boundary)
variable __gb_neb_count_bottom_boundary delete
min_style fire
timestep 0.01
fix neb_path all neb 1
fix hold_boundary_xy fixed_xy setforce 0.0 0.0 NULL
thermo 100
thermo_style custom step part pe fmax fnorm lx ly lz pxx pyy pzz pxy pxz pyz
thermo_modify flush yes
variable i equal part
dump neb_dump all custom 1000 /data/home/yazhuo/Project/GBclaw/projects/proj-20260927-164bf2/artifacts/lammps/neb/neb-20260927-045814-1d9965/neb.replica.$i.lammpstrj id type x y z ix iy iz fx fy fz
dump neb_dump all custom 1000 /data/home/yazhuo/Project/GBclaw/projects/proj-20260927-164bf2/artifacts/lammps/neb/neb-20260927-045814-1d9965/neb.replica.8.lammpstrj id type x y z ix iy iz fx fy fz
dump_modify neb_dump sort id
run 0
WARNING: No fixes with time integration, atoms won't move
For more information see https://docs.lammps.org/err0028 (src/verlet.cpp:60)
Neighbor list info ...
  update: every = 1 steps, delay = 0 steps, check = yes
  max neighbors/atom: 2000, page size: 100000
  master list distance cutoff = 6.168302
  ghost atom cutoff = 6.168302
  binsize = 3.084151, bins = 13 81 5
  1 neighbor lists, perpetual/occasional/extra = 1 0 0
  (1) pair adp, perpetual
      attributes: half, newton on
      pair build: half/bin/atomonly/newton
      stencil: half/bin/3d
      bin: standard
Per MPI rank memory allocation (min/avg/max) = 7.422 | 7.43 | 7.438 Mbytes
   Step        Part         PotEng          Fmax          Fnorm            Lx             Ly             Lz            Pxx            Pyy            Pzz            Pxy            Pxz            Pyz      
         0           8  -48992.796      0.0024845783   0.10363051     38.7435        248.489        14.9298        0.19007438     2.918104      -3.7172695      0.3830234      3.2510357e-05 -0.0010155383 
Loop time of 2.5625e-06 on 2 procs for 0 steps with 11052 atoms

78.0% CPU use with 2 MPI tasks x 1 OpenMP threads

MPI task timing breakdown:
Section |  min time  |  avg time  |  max time  |%varavg| %total
---------------------------------------------------------------
Pair    | 0          | 0          | 0          |   0.0 |  0.00
Neigh   | 0          | 0          | 0          |   0.0 |  0.00
Comm    | 0          | 0          | 0          |   0.0 |  0.00
Output  | 0          | 0          | 0          |   0.0 |  0.00
Modify  | 0          | 0          | 0          |   0.0 |  0.00
Other   |            | 2.562e-06  |            |       |100.00

Nlocal:           5526 ave        5544 max        5508 min
Histogram: 1 0 0 0 0 0 0 0 0 1
Nghost:           7959 ave        8011 max        7907 min
Histogram: 1 0 0 0 0 0 0 0 0 1
Neighs:         234603 ave      234962 max      234244 min
Histogram: 1 0 0 0 0 0 0 0 0 1

Total # of neighbors = 469206
Ave neighs/atom = 42.454397
Neighbor list builds = 0
Dangerous builds = 0
neb 0 0.0001 10000 10000 100 final "/data/home/yazhuo/Project/GBclaw/projects/proj-20260927-164bf2/artifacts/lammps/neb/neb-20260927-045814-1d9965/inputs/final.neb.coords" verbosity default
  Parameters for fire:
    dmax  delaystep dtgrow dtshrink alpha0 alphashrink tmax tmin   integrator   halfstepback   abcfire  
     0.1     20      1.1     0.5     0.25     0.99      10  0.02 eulerimplicit      yes          no     
Per MPI rank memory allocation (min/avg/max) = 9.901 | 9.909 | 9.917 Mbytes
   Step        Part         PotEng          Fmax          Fnorm            Lx             Ly             Lz            Pxx            Pyy            Pzz            Pxy            Pxz            Pyz      
         0           8  -48992.018      0.29910885     2.4448746      38.7435        248.489        14.9298        75.806512     -252.94729     -134.14539     -42.701853     -5.1978593      35.81737     
       100           8  -48992.75       0.00088993767  0.015249405    38.7435        248.489        14.9298        78.51054      -294.34071     -105.84289      29.875785     -39.303723     -42.3824      
       200           8  -48992.751      0.00033177958  0.013254794    38.7435        248.489        14.9298        77.068591     -287.86997     -106.35714      41.153972     -33.181183     -67.94626     
       300           8  -48992.752      0.00016692378  0.01123017     38.7435        248.489        14.9298        76.664436     -285.06313     -106.93437      47.294973     -28.419284     -86.420188    
       400           8  -48992.752      0.00010965715  0.0093241705   38.7435        248.489        14.9298        76.522486     -283.41834     -107.42856      51.445977     -24.169065     -102.29289    
       500           8  -48992.752      0.00025570236  0.0080119658   38.7435        248.489        14.9298        76.413184     -282.15758     -107.77263      54.480862     -20.325122     -116.36208    
       600           8  -48992.752      8.0453211e-05  0.0063344973   38.7435        248.489        14.9298        76.284662     -281.24891     -107.90597      56.200987     -17.777861     -125.60513    
       700           8  -48992.752      7.1853e-05     0.005457022    38.7435        248.489        14.9298        76.122296     -280.33519     -107.96293      57.603897     -15.482922     -133.93001    
       800           8  -48992.752      6.9467996e-05  0.0051033257   38.7435        248.489        14.9298        75.9673       -279.42015     -108.01835      58.97346      -12.81518      -143.56846    
       900           8  -48992.752      6.534911e-05   0.0046585014   38.7435        248.489        14.9298        76.024199     -279.34272     -108.14905      59.557587     -11.075135     -149.75345    
      1000           8  -48992.751      5.4800071e-05  0.0036904812   38.7435        248.489        14.9298        76.093353     -279.41081     -108.26922      59.905955     -9.4705075     -155.46296    
      1100           8  -48992.751      5.5810721e-05  0.0038645042   38.7435        248.489        14.9298        76.257664     -279.84724     -108.42639      59.929048     -7.9837619     -160.71411    
      1200           8  -48992.751      5.03353e-05    0.0033782172   38.7435        248.489        14.9298        76.440616     -280.36443     -108.60333      59.97875      -6.9219322     -164.53       
      1300           8  -48992.751      4.5259296e-05  0.0029383471   38.7435        248.489        14.9298        76.545443     -280.62137     -108.72852      60.153099     -5.9400152     -168.17899    
      1400           8  -48992.751      4.0042782e-05  0.0025124997   38.7435        248.489        14.9298        76.586273     -280.65531     -108.81353      60.428999     -4.8320804     -172.41133    
      1500           8  -48992.751      3.5715854e-05  0.0021822026   38.7435        248.489        14.9298        76.560311     -280.47744     -108.83911      60.713867     -3.8152513     -176.3836     
      1600           8  -48992.751      3.2658702e-05  0.0019606695   38.7435        248.489        14.9298        76.505741     -280.22659     -108.82925      60.936789     -3.0396138     -179.46111    
      1700           8  -48992.751      2.9257825e-05  0.0017249367   38.7435        248.489        14.9298        76.405824     -279.81277     -108.78522      61.198549     -2.1242275     -183.14141    
      1800           8  -48992.751      2.7481003e-05  0.0015416314   38.7435        248.489        14.9298        76.290537     -279.36129     -108.71975      61.417685     -1.3453343     -186.31511    
      1900           8  -48992.751      2.8561499e-05  0.0013961434   38.7435        248.489        14.9298        76.168852     -278.90053     -108.64281      61.602967     -0.67710471    -189.0712     
      2000           8  -48992.751      2.9391772e-05  0.0012708461   38.7435        248.489        14.9298        76.034756     -278.40605     -108.55216      61.773129     -0.057245087   -191.66044    
      2100           8  -48992.751      3.0104678e-05  0.0011425688   38.7435        248.489        14.9298        75.85614      -277.76395     -108.42436      61.962965      0.63891687    -194.61394    
      2200           8  -48992.751      3.0231724e-05  0.0010653329   38.7435        248.489        14.9298        75.719407     -277.28248     -108.32255      62.087469      1.1002874     -196.60337    
      2300           8  -48992.751      2.9630561e-05  0.00097709395  38.7435        248.489        14.9298        75.532052     -276.63394     -108.17862      62.23444       1.6617809     -199.06554    
      2400           8  -48992.751      2.7062915e-05  0.00088261758  38.7435        248.489        14.9298        75.323745     -275.92576     -108.01254      62.365354      2.2211307     -201.57212    
      2500           8  -48992.751      2.3603143e-05  0.00081139465  38.7435        248.489        14.9298        75.193172     -275.48838     -107.90463      62.424076      2.5557184     -203.10157    
      2600           8  -48992.751      1.8459829e-05  0.00073616347  38.7435        248.489        14.9298        75.079069     -275.11107     -107.8063       62.450404      2.8568513     -204.49895    
      2700           8  -48992.751      1.3408407e-05  0.00067059327  38.7435        248.489        14.9298        74.967471     -274.75122     -107.70182      62.419541      3.2107505     -206.16913    
      2800           8  -48992.751      1.3680198e-05  0.0006962763   38.7435        248.489        14.9298        74.929858     -274.63902     -107.65774      62.347198      3.4226353     -207.18505    
      2900           8  -48992.751      1.4066789e-05  0.00080133287  38.7435        248.489        14.9298        74.937827     -274.68401     -107.64602      62.213887      3.6323657     -208.20134    
      3000           8  -48992.751      1.4190439e-05  0.00090960783  38.7435        248.489        14.9298        75.002059     -274.91759     -107.68         62.046277      3.8224207     -209.12925    
      3100           8  -48992.751      1.4035041e-05  0.00094776794  38.7435        248.489        14.9298        75.068088     -275.1486      -107.72401      61.940025      3.9434796     -209.71984    
      3200           8  -48992.751      1.3716687e-05  0.00095254063  38.7435        248.489        14.9298        75.138989     -275.39289     -107.77556      61.858779      4.0605492     -210.28685    
      3300           8  -48992.75       1.3121344e-05  0.0009196348   38.7435        248.489        14.9298        75.227513     -275.69519     -107.8447       61.796006      4.2185013     -211.04182    
      3400           8  -48992.75       1.2552033e-05  0.00087331822  38.7435        248.489        14.9298        75.291032     -275.91187     -107.89767      61.78118       4.3589766     -211.70274    
      3500           8  -48992.75       1.192925e-05   0.00081567341  38.7435        248.489        14.9298        75.34382      -276.09388     -107.94487      61.797996      4.5158264     -212.43075    
      3600           8  -48992.75       1.1216612e-05  0.00074528885  38.7435        248.489        14.9298        75.384234     -276.23844     -107.98499      61.850962      4.7039444     -213.29349    
      3700           8  -48992.75       1.069497e-05   0.00069349603  38.7435        248.489        14.9298        75.40113      -276.30536     -108.00535      61.910407      4.8527079     -213.97045    
      3800           8  -48992.75       1.018439e-05   0.0006434958   38.7435        248.489        14.9298        75.40694      -276.33858     -108.01725      61.982777      5.0056101     -214.66351    
      3900           8  -48992.75       9.378456e-06   0.00056839048  38.7435        248.489        14.9298        75.394418     -276.32712     -108.01923      62.121766      5.2602816     -215.81654    
      4000           8  -48992.75       8.8577402e-06  0.00052376713  38.7435        248.489        14.9298        75.371712     -276.27755     -108.009        62.226645      5.4338509     -216.60484    
      4100           8  -48992.75       8.3594512e-06  0.00048461041  38.7435        248.489        14.9298        75.339475     -276.2002      -107.9905       62.334938      5.6029809     -217.37757    
      4200           8  -48992.75       8.0344483e-06  0.00044691154  38.7435        248.489        14.9298        75.294105     -276.08687     -107.96159      62.458131      5.7864802     -218.22369    
      4300           8  -48992.75       8.8672644e-06  0.00041128247  38.7435        248.489        14.9298        75.232981     -275.931       -107.91992      62.597546      5.9857012     -219.15488    
      4400           8  -48992.75       9.3241788e-06  0.00038788423  38.7435        248.489        14.9298        75.179363     -275.79288     -107.88177      62.704801      6.1338641     -219.85879    
      4500           8  -48992.75       9.7229877e-06  0.00036330006  38.7435        248.489        14.9298        75.107561     -275.607       -107.82912      62.83404       6.307255      -220.69824    
      4600           8  -48992.75       9.8971213e-06  0.00034658208  38.7435        248.489        14.9298        75.047224     -275.45039     -107.78377      62.932845      6.4361165     -221.33624    
      4700           8  -48992.75       9.9665924e-06  0.00033068926  38.7435        248.489        14.9298        74.979765     -275.2751      -107.73205      63.034663      6.565381      -221.99225    
      4800           8  -48992.75       9.9232401e-06  0.00031624883  38.7435        248.489        14.9298        74.909703     -275.09304     -107.67741      63.132464      6.6861257     -222.62304    
      4900           8  -48992.75       9.7464465e-06  0.00030075598  38.7435        248.489        14.9298        74.826662     -274.87746     -107.61151      63.239138      6.8136167     -223.31442    
      5000           8  -48992.75       9.5041413e-06  0.00028852661  38.7435        248.489        14.9298        74.757801     -274.69902     -107.55599      63.320639      6.9075797     -223.84705    
      5100           8  -48992.75       9.1656103e-06  0.00027557137  38.7435        248.489        14.9298        74.683423     -274.50672     -107.49521      63.402211      6.9980727     -224.38577    
      5200           8  -48992.75       8.7504171e-06  0.00026243239  38.7435        248.489        14.9298        74.608798     -274.31439     -107.43335      63.477454      7.077519      -224.88988    
      5300           8  -48992.75       8.3640388e-06  0.00025153863  38.7435        248.489        14.9298        74.549193     -274.16132     -107.38331      63.532861      7.1328285     -225.26728    
      5400           8  -48992.75       7.878962e-06   0.0002387935   38.7435        248.489        14.9298        74.48229      -273.99021     -107.32648      63.590168      7.186341      -225.66514    
      5500           8  -48992.75       7.3140481e-06  0.00022469093  38.7435        248.489        14.9298        74.412059     -273.81161     -107.26602      63.644526      7.2322113     -226.05265    
      5600           8  -48992.75       6.8601196e-06  0.00021367762  38.7435        248.489        14.9298        74.360357     -273.68094     -107.22095      63.680535      7.2587433     -226.31727    
      5700           8  -48992.75       6.3613879e-06  0.0002017567   38.7435        248.489        14.9298        74.307234     -273.54756     -107.17412      63.713856      7.279271      -226.57029    
      5800           8  -48992.75       5.7847071e-06  0.00018810714  38.7435        248.489        14.9298        74.249883     -273.40481     -107.1229       63.745274      7.293013      -226.82019    
      5900           8  -48992.75       5.2869745e-06  0.00017636489  38.7435        248.489        14.9298        74.203329     -273.29013     -107.08076      63.766948      7.2970009     -227.00346    
      6000           8  -48992.75       4.8094278e-06  0.00016509664  38.7435        248.489        14.9298        74.160642     -273.18614     -107.04162      63.783511      7.2943619     -227.15441    
      6100           8  -48992.75       4.3110184e-06  0.0001533025   38.7435        248.489        14.9298        74.11813      -273.08397     -107.00211      63.796486      7.2849394     -227.28635    
      6200           8  -48992.75       3.8976148e-06  0.00014348299  38.7435        248.489        14.9298        74.084371     -273.00407     -106.97029      63.803972      7.2719541     -227.37622    
      6300           8  -48992.75       3.3896697e-06  0.00013137823  38.7435        248.489        14.9298        74.044585     -272.91166     -106.93223      63.809225      7.2495855     -227.46293    
      6400           8  -48992.75       2.9612814e-06  0.00012109958  38.7435        248.489        14.9298        74.012194     -272.83828     -106.90069      63.810113      7.2245676     -227.5149     
      6500           8  -48992.75       2.6327944e-06  0.0001131833   38.7435        248.489        14.9298        73.988158     -272.7852      -106.87691      63.808521      7.201401      -227.54076    
      6600           8  -48992.75       2.2767025e-06  0.00010457283  38.7435        248.489        14.9298        73.962809     -272.73079     -106.85142      63.804499      7.1721161     -227.55445    
      6700           8  -48992.75       1.8764454e-06  9.4846088e-05  38.7435        248.489        14.9298        73.935136     -272.67378     -106.82303      63.796902      7.1334029     -227.55025    
      6800           8  -48992.75       1.6137308e-06  8.8152137e-05  38.7435        248.489        14.9298        73.916666     -272.63758     -106.80367      63.789589      7.1027801     -227.53363    
      6900           8  -48992.75       1.4268021e-06  8.1978999e-05  38.7435        248.489        14.9298        73.900018     -272.60656     -106.78589      63.78126       7.0713983     -227.50749    
      7000           8  -48992.75       1.2253942e-06  7.5398249e-05  38.7435        248.489        14.9298        73.882679     -272.57632     -106.76697      63.770553      7.034228      -227.46674    
      7100           8  -48992.75       1.0702181e-06  7.037245e-05   38.7435        248.489        14.9298        73.869721     -272.5555      -106.75251      63.760989      7.0029342     -227.42542    
      7200           8  -48992.75       9.6364605e-07  6.4560582e-05  38.7435        248.489        14.9298        73.854992     -272.53414     -106.73568      63.748309      6.9632018     -227.36522    
      7300           8  -48992.75       9.1915405e-07  5.9987316e-05  38.7435        248.489        14.9298        73.843593     -272.51985     -106.72229      63.736965      6.9288345     -227.30672    
      7400           8  -48992.75       8.7639507e-07  5.6207972e-05  38.7435        248.489        14.9298        73.834307     -272.51001     -106.71113      63.726654      6.8982181     -227.2501     
      7500           8  -48992.75       8.3029519e-07  5.2627471e-05  38.7435        248.489        14.9298        73.825608     -272.50259     -106.70042      63.716079      6.8672095     -227.18874    
      7600           8  -48992.75       7.7069344e-07  4.8569682e-05  38.7435        248.489        14.9298        73.81585      -272.49681     -106.68808      63.703139      6.8295384     -227.10901    
      7700           8  -48992.75       7.2627846e-07  4.5870076e-05  38.7435        248.489        14.9298        73.809419     -272.49483     -106.67974      63.694005      6.8029456     -227.04931    
      7800           8  -48992.75       6.8030603e-07  4.3302173e-05  38.7435        248.489        14.9298        73.803328     -272.49447     -106.67167      63.684991      6.7765475     -226.98735    
      7900           8  -48992.75       6.2899328e-07  4.0654389e-05  38.7435        248.489        14.9298        73.797068     -272.49588     -106.66322      63.675464      6.7483026     -226.91803    
      8000           8  -48992.75       5.8240917e-07  3.8409427e-05  38.7435        248.489        14.9298        73.791764     -272.49862     -106.65592      63.66732       6.7236848     -226.85497    
      8100           8  -48992.75       5.3881427e-07  3.6416982e-05  38.7435        248.489        14.9298        73.787039     -272.50232     -106.64934      63.660149      6.7014568     -226.79585    
      8200           8  -48992.75       4.9231837e-07  3.438172e-05   38.7435        248.489        14.9298        73.782172     -272.50739     -106.64249      63.653016      6.6785772     -226.7327     
      8300           8  -48992.75       4.5288187e-07  3.2710435e-05  38.7435        248.489        14.9298        73.778127     -272.51254     -106.63676      63.647424      6.6598335     -226.67908    
      8400           8  -48992.75       4.1130323e-07  3.0988271e-05  38.7435        248.489        14.9298        73.77388      -272.51878     -106.63074      63.642015      6.6407002     -226.62247    
      8500           8  -48992.75       3.7943576e-07  2.9686765e-05  38.7435        248.489        14.9298        73.770599     -272.52411     -106.6261       63.638248      6.626484      -226.57905    
      8600           8  -48992.75       3.8093612e-07  2.8405168e-05  38.7435        248.489        14.9298        73.767288     -272.52985     -106.62143      63.634873      6.6127834     -226.53599    
      8700           8  -48992.75       3.8588589e-07  2.6771231e-05  38.7435        248.489        14.9298        73.76292      -272.53784     -106.61534      63.631161      6.5958937     -226.48103    
      8800           8  -48992.75       3.8500894e-07  2.531546e-05   38.7435        248.489        14.9298        73.758847     -272.54552     -106.60973      63.628515      6.5815293     -226.43238    
      8900           8  -48992.75       3.8168535e-07  2.4334171e-05  38.7435        248.489        14.9298        73.75598      -272.55098     -106.60584      63.627139      6.5722773     -226.39995    
      9000           8  -48992.75       3.7428214e-07  2.3100113e-05  38.7435        248.489        14.9298        73.752208     -272.55811     -106.60079      63.625923      6.5611827     -226.35975    
      9100           8  -48992.75       3.6338063e-07  2.1862547e-05  38.7435        248.489        14.9298        73.7482       -272.56552     -106.59552      63.625352      6.5507402     -226.32031    
      9200           8  -48992.75       3.5334169e-07  2.0963071e-05  38.7435        248.489        14.9298        73.74512      -272.57105     -106.59154      63.625385      6.5436134     -226.2923     
      9300           8  -48992.75       3.4165084e-07  2.0073008e-05  38.7435        248.489        14.9298        73.741911     -272.57662     -106.58746      63.625828      6.5369814     -226.26524    
      9400           8  -48992.75       3.2562838e-07  1.9026806e-05  38.7435        248.489        14.9298        73.737903     -272.58324     -106.58245      63.626926      6.5297761     -226.23444    
      9453           8  -48992.75       3.1966158e-07  1.8669917e-05  38.7435        248.489        14.9298        73.736469     -272.58552     -106.58068      63.627455      6.52747       -226.2242     
Loop time of 275.698 on 2 procs for 9453 steps with 11052 atoms

98.4% CPU use with 2 MPI tasks x 1 OpenMP threads

Minimization stats:
  Stopping criterion = force tolerance
  Energy initial, next-to-last, final = 
     -48992.0182762952  -48992.7504767305   -48992.750476728
  Force two-norm initial, final = 2.4448746 1.8669917e-05
  Force max component initial, final = 0.29910885 3.1966158e-07
  Final line search alpha, max atom move = 0 0
  Iterations, force evaluations = 9453 9970

MPI task timing breakdown:
Section |  min time  |  avg time  |  max time  |%varavg| %total
---------------------------------------------------------------
Pair    | 230.67     | 232.13     | 233.59     |   9.6 | 84.20
Neigh   | 0          | 0          | 0          |   0.0 |  0.00
Comm    | 5.9639     | 7.4058     | 8.8477     |  53.0 |  2.69
Output  | 0.15067    | 0.15754    | 0.16442    |   1.7 |  0.06
Modify  | 25.533     | 25.541     | 25.548     |   0.1 |  9.26
Other   |            | 10.47      |            |       |  3.80

Nlocal:           5526 ave        5544 max        5508 min
Histogram: 1 0 0 0 0 0 0 0 0 1
Nghost:           8594 ave        8631 max        8557 min
Histogram: 1 0 0 0 0 0 0 0 0 1
Neighs:         234678 ave      235518 max      233838 min
Histogram: 1 0 0 0 0 0 0 0 0 1

Total # of neighbors = 469356
Ave neighs/atom = 42.46797
Neighbor list builds = 0
Dangerous builds = 0
  Parameters for fire:
    dmax  delaystep dtgrow dtshrink alpha0 alphashrink tmax tmin   integrator   halfstepback   abcfire  
     0.1     20      1.1     0.5     0.25     0.99      10  0.02 eulerimplicit      yes          no     
Per MPI rank memory allocation (min/avg/max) = 9.901 | 9.909 | 9.917 Mbytes
   Step        Part         PotEng          Fmax          Fnorm            Lx             Ly             Lz            Pxx            Pyy            Pzz            Pxy            Pxz            Pyz      
      9453           8  -48992.75       3.1966158e-07  1.8669917e-05  38.7435        248.489        14.9298        73.736469     -272.58552     -106.58068      63.627455      6.52747       -226.2242     
      9500           8  -48992.75       0.00087905073  0.021059764    38.7435        248.489        14.9298        75.530329     -278.76015     -107.54286      59.782238      5.492099      -220.02558    
      9600           8  -48992.746      0.00069022559  0.020086594    38.7435        248.489        14.9298        80.678559     -296.02311     -110.55711      50.582422      2.8482643     -203.50841    
      9700           8  -48992.744      0.0005482544   0.017390682    38.7435        248.489        14.9298        84.136872     -306.25302     -112.44812      45.604171      1.5649419     -194.10802    
      9800           8  -48992.741      0.00037693423  0.01333117     38.7435        248.489        14.9298        87.6007       -315.49307     -114.28058      41.446753      0.67150567    -185.98239    
      9900           8  -48992.739      0.00018914534  0.0086376729   38.7435        248.489        14.9298        90.203542     -321.70948     -115.70995      39.513473      0.41962661    -181.46242    
     10000           8  -48992.738      6.0426539e-05  0.0046446111   38.7435        248.489        14.9298        91.507257     -324.49141     -116.64956      40.126125      0.80836717    -181.2334     
     10100           8  -48992.738      0.00010867558  0.0026257984   38.7435        248.489        14.9298        91.738228     -324.74465     -117.21927      42.65495       1.7200489     -184.48923    
     10200           8  -48992.739      0.00018292065  0.0032808515   38.7435        248.489        14.9298        91.144188     -323.07858     -117.46626      46.482007      3.0780234     -190.50861    
     10300           8  -48992.739      0.00019386487  0.0038582447   38.7435        248.489        14.9298        90.344522     -320.95555     -117.43946      49.605465      4.256073      -196.01973    
     10400           8  -48992.74       0.00016980763  0.003864565    38.7435        248.489        14.9298        89.472002     -318.61472     -117.27667      52.354859      5.383767      -201.35296    
     10500           8  -48992.741      0.00010643351  0.0031093141   38.7435        248.489        14.9298        88.441452     -315.77551     -116.96338      55.076609      6.6456235     -207.28876    
     10600           8  -48992.741      5.3704643e-05  0.0022239072   38.7435        248.489        14.9298        87.899257     -314.22364     -116.74758      56.330934      7.3184918     -210.41617    
     10700           8  -48992.741      1.8716301e-05  0.0014386003   38.7435        248.489        14.9298        87.63835      -313.4288      -116.62926      56.934072      7.6779162     -212.0836     
     10800           8  -48992.741      1.1927154e-05  0.00085089381  38.7435        248.489        14.9298        87.597653     -313.22153     -116.61304      57.173946      7.8049764     -212.72378    
     10900           8  -48992.741      2.1181159e-05  0.0006359418   38.7435        248.489        14.9298        87.708347     -313.436       -116.68376      57.215361      7.7516664     -212.5939     
     11000           8  -48992.741      2.1106005e-05  0.00056236866  38.7435        248.489        14.9298        87.88791      -313.8327      -116.80729      57.238072      7.6119571     -212.13872    
     11100           8  -48992.741      1.5790254e-05  0.00049264543  38.7435        248.489        14.9298        88.064221     -314.22356     -116.94258      57.310994      7.4549672     -211.64594    
     11200           8  -48992.741      9.2594738e-06  0.00037562114  38.7435        248.489        14.9298        88.261937     -314.63633     -117.12317      57.53323       7.2566171     -211.10514    
     11300           8  -48992.741      6.267947e-06   0.00033007634  38.7435        248.489        14.9298        88.345769     -314.78598     -117.22001      57.730373      7.1583875     -210.89828    
     11400           8  -48992.741      4.9016207e-06  0.00032432368  38.7435        248.489        14.9298        88.417919     -314.87351     -117.33053      58.036964      7.0527664     -210.7482     
     11500           8  -48992.741      6.9065811e-06  0.00034189387  38.7435        248.489        14.9298        88.448918     -314.87022     -117.40125      58.282597      6.9862797     -210.69889    
     11600           8  -48992.741      7.373807e-06   0.00035499353  38.7435        248.489        14.9298        88.46716      -314.82964     -117.4613       58.512653      6.9264009     -210.66879    
     11700           8  -48992.741      6.2420695e-06  0.00035218416  38.7435        248.489        14.9298        88.48505      -314.75591     -117.52954      58.768877      6.8474126     -210.60475    
     11800           8  -48992.741      4.2769195e-06  0.00033260154  38.7435        248.489        14.9298        88.506869     -314.69525     -117.58938      58.953629      6.7637346     -210.47815    
     11900           8  -48992.741      3.8666188e-06  0.00031262778  38.7435        248.489        14.9298        88.531376     -314.66503     -117.63625      59.060578      6.6893139     -210.32261    
     12000           8  -48992.742      3.4471854e-06  0.00028910293  38.7435        248.489        14.9298        88.571497     -314.65123     -117.69612      59.15481       6.5867391     -210.06535    
     12100           8  -48992.742      3.0565927e-06  0.00027051794  38.7435        248.489        14.9298        88.621318     -314.66031     -117.75886      59.21614       6.4741853     -209.74636    
     12200           8  -48992.742      2.92156e-06    0.00026003282  38.7435        248.489        14.9298        88.66441      -314.6778      -117.80893      59.247734      6.3827374     -209.46957    
     12300           8  -48992.742      3.0368633e-06  0.00025163002  38.7435        248.489        14.9298        88.715998     -314.7029      -117.86675      59.272338      6.276423      -209.1345     
     12400           8  -48992.742      3.1241355e-06  0.00024680653  38.7435        248.489        14.9298        88.76086      -314.72457     -117.91645      59.286843      6.1847746     -208.83719    
     12500           8  -48992.742      3.3032564e-06  0.00024335951  38.7435        248.489        14.9298        88.828188     -314.75126     -117.99153      59.300974      6.0457786     -208.37492    
     12600           8  -48992.742      3.2840368e-06  0.00024094084  38.7435        248.489        14.9298        88.864344     -314.76073     -118.03244      59.304873      5.9694284     -208.11548    
     12700           8  -48992.742      3.3264464e-06  0.00023948456  38.7435        248.489        14.9298        88.904551     -314.76642     -118.0784       59.305428      5.8826757     -207.81583    
     12800           8  -48992.742      3.3562224e-06  0.00023749688  38.7435        248.489        14.9298        88.949348     -314.76664     -118.12994      59.299431      5.7835864     -207.46621    
     12900           8  -48992.742      3.3649291e-06  0.0002355586   38.7435        248.489        14.9298        88.980835     -314.76354     -118.16608      59.289867      5.7126138     -207.2104     
     13000           8  -48992.742      3.3636859e-06  0.00023318828  38.7435        248.489        14.9298        89.011046     -314.75872     -118.20046      59.275876      5.643734      -206.95751    
     13100           8  -48992.742      3.350627e-06   0.00022979216  38.7435        248.489        14.9298        89.046399     -314.75155     -118.24012      59.252942      5.5624183     -206.65275    
     13200           8  -48992.742      3.3301862e-06  0.00022640888  38.7435        248.489        14.9298        89.077156     -314.74452     -118.27402      59.227247      5.4912022     -206.38039    
     13300           8  -48992.742      3.3031014e-06  0.00022283548  38.7435        248.489        14.9298        89.107281     -314.73712     -118.3067       59.197157      5.4210156     -206.10724    
     13400           8  -48992.742      3.2765425e-06  0.00021982052  38.7435        248.489        14.9298        89.131628     -314.73071     -118.33275      59.169357      5.36388       -205.88155    
     13500           8  -48992.742      3.2301312e-06  0.00021522301  38.7435        248.489        14.9298        89.167644     -314.72021     -118.3708       59.122662      5.2783731     -205.53855    
     13600           8  -48992.742      3.1983219e-06  0.00021239384  38.7435        248.489        14.9298        89.189163     -314.71309     -118.39329      59.091512      5.2264779     -205.32743    
     13700           8  -48992.742      3.1531482e-06  0.00020868131  38.7435        248.489        14.9298        89.216716     -314.70272     -118.42189      59.048058      5.1588777     -205.0494     
     13800           8  -48992.742      3.1029907e-06  0.0002048467   38.7435        248.489        14.9298        89.244068     -314.69071     -118.45008      59.000648      5.0901307     -204.76328    
     13900           8  -48992.742      3.065843e-06   0.00020213667  38.7435        248.489        14.9298        89.262556     -314.68145     -118.46903      58.965984      5.0425264     -204.56327    
     14000           8  -48992.742      3.02723e-06    0.00019940146  38.7435        248.489        14.9298        89.280463     -314.67151     -118.48729      58.930253      4.9954098     -204.36387    
     14100           8  -48992.742      2.9664927e-06  0.00019521342  38.7435        248.489        14.9298        89.306335     -314.6553      -118.51351      58.874499      4.9252792     -204.06455    
     14200           8  -48992.742      2.9254576e-06  0.00019243602  38.7435        248.489        14.9298        89.322443     -314.644       -118.52971      58.837032      4.880168      -203.87048    
     14300           8  -48992.742      2.8742018e-06  0.00018900776  38.7435        248.489        14.9298        89.341294     -314.62954     -118.54855      58.790333      4.8257901     -203.6351     
     14400           8  -48992.742      2.8193244e-06  0.00018537535  38.7435        248.489        14.9298        89.360101     -314.61367     -118.56719      58.740349      4.7695562     -203.39014    
     14500           8  -48992.742      2.7784772e-06  0.00018269192  38.7435        248.489        14.9298        89.373283     -314.60161     -118.58015      58.703103      4.7287789     -203.2116     
     14600           8  -48992.742      2.7377764e-06  0.00018003363  38.7435        248.489        14.9298        89.385793     -314.58938     -118.59237      58.665924      4.6888971     -203.03633    
     14700           8  -48992.742      2.6811376e-06  0.00017635761  38.7435        248.489        14.9298        89.402228     -314.57199     -118.60828      58.614044      4.6344471     -202.79607    
     14800           8  -48992.742      2.6372736e-06  0.00017352678  38.7435        248.489        14.9298        89.414219     -314.55822     -118.61979      58.573738      4.59298       -202.61241    
     14900           8  -48992.742      2.5895048e-06  0.00017045759  38.7435        248.489        14.9298        89.426601     -314.5429      -118.63157      58.529714      4.54838       -202.41433    
     15000           8  -48992.742      2.5373495e-06  0.00016712024  38.7435        248.489        14.9298        89.439338     -314.5258      -118.64358      58.481486      4.5002439     -202.19997    
     15100           8  -48992.742      2.4914484e-06  0.0001641918   38.7435        248.489        14.9298        89.449891     -314.51041     -118.65343      58.438907      4.4582793     -202.01269    
     15200           8  -48992.742      2.4485413e-06  0.00016145954  38.7435        248.489        14.9298        89.459218     -314.49573     -118.66205      58.398995      4.4193265     -201.83856    
     15300           8  -48992.742      2.3990292e-06  0.00015831074  38.7435        248.489        14.9298        89.46935      -314.47843     -118.67131      58.35281       4.3746415     -201.63853    
     15400           8  -48992.742      2.3583059e-06  0.0001557224   38.7435        248.489        14.9298        89.47718      -314.46393     -118.67838      58.314723      4.3380566     -201.47458    
     15500           8  -48992.742      2.3115504e-06  0.00015275095  38.7435        248.489        14.9298        89.485629     -314.44696     -118.68591      58.270888      4.2961878     -201.2868     
     15600           8  -48992.742      2.2671554e-06  0.00014992884  38.7435        248.489        14.9298        89.493112     -314.43054     -118.69247      58.229165      4.2565257     -201.10882    
     15700           8  -48992.742      2.2285524e-06  0.00014747359  38.7435        248.489        14.9298        89.499195     -314.41602     -118.69772      58.192811      4.2220808     -200.95421    
     15800           8  -48992.742      2.1871962e-06  0.00014484144  38.7435        248.489        14.9298        89.505283     -314.4002      -118.70288      58.153793      4.1851945     -200.78862    
     15900           8  -48992.742      2.1405614e-06  0.00014187082  38.7435        248.489        14.9298        89.511611     -314.38206     -118.70813      58.109715      4.1435864     -200.60184    
     16000           8  -48992.742      2.1055866e-06  0.00013964068  38.7435        248.489        14.9298        89.515979     -314.36823     -118.71165      58.076609      4.1123514     -200.46165    
     16100           8  -48992.742      2.0670779e-06  0.00013718284  38.7435        248.489        14.9298        89.52042      -314.35279     -118.71514      58.040119      4.0779135     -200.30715    
     16200           8  -48992.742      2.0256834e-06  0.00013453783  38.7435        248.489        14.9298        89.524757     -314.33594     -118.71842      58.000859      4.0408208     -200.14081    
     16300           8  -48992.742      1.9927468e-06  0.00013243072  38.7435        248.489        14.9298        89.527879     -314.32234     -118.72068      57.969601      4.0112399     -200.00823    
     16400           8  -48992.742      1.953414e-06   0.00012991141  38.7435        248.489        14.9298        89.531233     -314.30589     -118.72298      57.93226       3.975825      -199.8496     
     16500           8  -48992.742      1.9152823e-06  0.00012746567  38.7435        248.489        14.9298        89.534084     -314.28972     -118.72478      57.896056      3.9413846     -199.69546    
     16600           8  -48992.742      1.8837654e-06  0.00012544149  38.7435        248.489        14.9298        89.53614      -314.27618     -118.72595      57.866138      3.9128312     -199.56777    
     16700           8  -48992.742      1.8495003e-06  0.00012323801  38.7435        248.489        14.9298        89.538068     -314.2613      -118.7269       57.833625      3.8816921     -199.42861    
     16800           8  -48992.742      1.8083863e-06  0.00012059023  38.7435        248.489        14.9298        89.539956     -314.24321     -118.72758      57.794642      3.8441871     -199.26118    
     16900           8  -48992.742      1.7802029e-06  0.00011877252  38.7435        248.489        14.9298        89.540972     -314.23066     -118.72776      57.767947      3.818381      -199.14608    
     17000           8  -48992.742      1.7487815e-06  0.00011674348  38.7435        248.489        14.9298        89.541843     -314.21653     -118.72768      57.738217      3.7895152     -199.01744    
     17100           8  -48992.742      1.7151362e-06  0.00011456784  38.7435        248.489        14.9298        89.542465     -314.20125     -118.72727      57.706429      3.7584903     -198.87931    
     17200           8  -48992.742      1.6826709e-06  0.00011246553  38.7435        248.489        14.9298        89.542758     -314.18634     -118.72655      57.67581       3.7284364     -198.74563    
     17300           8  -48992.742      1.6535542e-06  0.0001105775   38.7435        248.489        14.9298        89.54276      -314.17285     -118.72563      57.6484        3.7013809     -198.62541    
     17400           8  -48992.742      1.6225545e-06  0.0001085648   38.7435        248.489        14.9298        89.54249      -314.15835     -118.72436      57.619279      3.6724677     -198.49706    
     17500           8  -48992.742      1.5964194e-06  0.00010686583  38.7435        248.489        14.9298        89.542041     -314.14602     -118.72306      57.594782      3.6480032     -198.38855    
     17600           8  -48992.742      1.5644211e-06  0.00010478315  38.7435        248.489        14.9298        89.54122      -314.1308      -118.72119      57.564864      3.6179412     -198.25534    
     17700           8  -48992.742      1.5353901e-06  0.00010289111  38.7435        248.489        14.9298        89.540207     -314.11687     -118.71921      57.537799      3.5905584     -198.13413    
     17800           8  -48992.742      1.5118846e-06  0.00010135745  38.7435        248.489        14.9298        89.539199     -314.10551     -118.71741      57.515945      3.5683115     -198.03574    
     17900           8  -48992.742      1.484988e-06   9.9600703e-05  38.7435        248.489        14.9298        89.537842     -314.09242     -118.71514      57.491007      3.5427728     -197.92288    
     18000           8  -48992.742      1.4537008e-06  9.755474e-05   38.7435        248.489        14.9298        89.535988     -314.07707     -118.71221      57.462098      3.5129534     -197.79123    
     18100           8  -48992.742      1.432504e-06   9.6167118e-05  38.7435        248.489        14.9298        89.534561     -314.06661     -118.71004      57.442578      3.4926822     -197.70181    
     18200           8  -48992.742      1.4114168e-06  9.4785507e-05  38.7435        248.489        14.9298        89.533003     -314.05614     -118.70775      57.423213      3.4724607     -197.61267    
     18300           8  -48992.742      1.382523e-06   9.2890588e-05  38.7435        248.489        14.9298        89.530644     -314.0417      -118.70436      57.396775      3.444663      -197.49023    
     18400           8  -48992.742      1.3630963e-06  9.1615277e-05  38.7435        248.489        14.9298        89.528908     -314.03194     -118.70194      57.379064      3.4259148     -197.40772    
     18500           8  -48992.742      1.3388275e-06  9.0020756e-05  38.7435        248.489        14.9298        89.526575     -314.01967     -118.69873      57.357015      3.402429      -197.30443    
     18600           8  -48992.742      1.3138104e-06  8.8375482e-05  38.7435        248.489        14.9298        89.523975     -314.00696     -118.69523      57.334377      3.378144      -197.19771    
     18700           8  -48992.742      1.2951467e-06  8.7146989e-05  38.7435        248.489        14.9298        89.521906     -313.99743     -118.69248      57.317553      3.3599768     -197.11793    
     18782           8  -48992.742      1.274788e-06   8.5805986e-05  38.7435        248.489        14.9298        89.519523     -313.98698     -118.68935      57.299263      3.3401126     -197.03075    
Loop time of 270.99 on 2 procs for 9329 steps with 11052 atoms

98.4% CPU use with 2 MPI tasks x 1 OpenMP threads

Minimization stats:
  Stopping criterion = force tolerance
  Energy initial, next-to-last, final = 
      -48992.750476728  -48992.7422664188  -48992.7422665446
  Force two-norm initial, final = 1.8669917e-05 8.5805986e-05
  Force max component initial, final = 3.1966158e-07 1.274788e-06
  Final line search alpha, max atom move = 0 0
  Iterations, force evaluations = 9329 9840

MPI task timing breakdown:
Section |  min time  |  avg time  |  max time  |%varavg| %total
---------------------------------------------------------------
Pair    | 226.78     | 228.38     | 229.99     |  10.6 | 84.28
Neigh   | 0          | 0          | 0          |   0.0 |  0.00
Comm    | 5.4918     | 7.0813     | 8.6707     |  59.7 |  2.61
Output  | 0.14919    | 0.15826    | 0.16733    |   2.3 |  0.06
Modify  | 25.534     | 25.542     | 25.551     |   0.2 |  9.43
Other   |            | 9.823      |            |       |  3.62

Nlocal:           5526 ave        5544 max        5508 min
Histogram: 1 0 0 0 0 0 0 0 0 1
Nghost:           8590 ave        8627 max        8553 min
Histogram: 1 0 0 0 0 0 0 0 0 1
Neighs:         234636 ave      235430 max      233842 min
Histogram: 1 0 0 0 0 0 0 0 0 1

Total # of neighbors = 469272
Ave neighs/atom = 42.460369
Neighbor list builds = 0
Dangerous builds = 0
write_data /data/home/yazhuo/Project/GBclaw/projects/proj-20260927-164bf2/artifacts/lammps/neb/neb-20260927-045814-1d9965/neb.replica.$i.final.lmp nocoeff
write_data /data/home/yazhuo/Project/GBclaw/projects/proj-20260927-164bf2/artifacts/lammps/neb/neb-20260927-045814-1d9965/neb.replica.8.final.lmp nocoeff
System init for write_data ...
Total wall time: 0:09:07
