LAMMPS (30 Mar 2026)
Processor partition = 16
OMP_NUM_THREADS environment is not set. Defaulting to 1 thread.
  using 1 OpenMP thread(s) per MPI task
clear
OMP_NUM_THREADS environment is not set. Defaulting to 1 thread.
  using 1 OpenMP thread(s) per MPI task
units metal
dimension 3
atom_style atomic
boundary p p p
atom_modify map array
read_data "/data/home/yazhuo/Project/GBclaw/projects/proj-20260927-164bf2/artifacts/lammps/neb/neb-20260927-045814-1d9965/inputs/initial.lmp"
Reading data file ...
  orthogonal box = (-19.37175 -124.2445 -7.4649) to (19.37175 124.2445 7.4649)
  1 by 2 by 1 MPI processor grid
  reading atoms ...
  11052 atoms
  read_data CPU = 0.045 seconds
neighbor 1.0 bin
neigh_modify delay 0 every 1 check yes
pair_style adp
pair_coeff * * "/data/home/yazhuo/Project/GBclaw/src/tools/potentials/NiCr.adp" Ni
group top_boundary empty
0 atoms in group top_boundary
group top_boundary id 5180 5151 5159 5109 5117 5067 5075 5025 5033 4992 5184 5160 5118 5076 5034 5181 5154 5156 5157 5112 5114 5115 5070 5072 5073 5028 5030 5031 4990 4991 5182 5155 5113 5071 5029 5175 5176 5141 5144 5146 5147 5099 5102 5104 5105 5057 5060 5062 5063 5015 5018 5020 5021 4985 4986 5177 5183 5145 5158 5103 5116 5061 5074 5019 5032 5168 5169 5129 5132 5134 5087 5090 5092 5045 5048 5050 5003 5006 5008 4980 5170 5178 5133 5148 5091 5106 5049 5064 5007 5022 11027 11048 10985 11019 10943 10977 10901 10935 10859 10893
100 atoms in group top_boundary
group top_boundary id 10818 10851 11052 11028 10986 10944 10902 10860 11024 11025 11049 10982 10983 11022 10940 10941 10980 10898 10899 10938 10856 10857 10896 10816 10817 10854 11050 11023 10981 10939 10897 10855 11014 11015 11043 11044 10972 10973 11009 11012 10930 10931 10967 10970 10888 10889 10925 10928 10846 10847 10883 10886 10811 10812 10841 10844 11045 11051 11013 11026 10971 10984 10929 10942 10887 10900 10845 10858 11002 11036 11037 10960 10997 11000 10918 10955 10958 10876 10913 10916 10834 10871 10874 10806 10829 10832 11038 11046 11001 11016 10959 10974 10917 10932 10875 10890 10833 10848
198 atoms in group top_boundary
group bottom_boundary empty
0 atoms in group bottom_boundary
group bottom_boundary id 174 125 83 123 84 32 34 10 177 139 175 140 85 87 46 12 47 160 111 124 68 69 126 67 21 33 35 6 7 164 176 128 129 178 127 73 86 88 37 38 9 11 36 152 161 105 110 58 59 109 112 57 70 15 19 20 22 2 3 156 163 114 115 162 165 113 130 63 71 72 74 24 25 5 8 23 39 151 153 104 56 103 106 55 60 13 14 16 1 155 108 154 157 107 116 61 62 64 18 4
100 atoms in group bottom_boundary
group bottom_boundary id 17 26 5345 5390 5303 5343 5304 5247 5249 5214 5190 5215 5391 5359 5360 5307 5263 5305 5264 5216 5218 5331 5344 5378 5288 5289 5346 5287 5235 5248 5250 5203 5204 5188 5189 5202 5392 5347 5348 5349 5293 5306 5252 5253 5308 5251 5208 5217 5219 5325 5330 5372 5379 5278 5279 5329 5332 5277 5290 5229 5233 5234 5236 5194 5195 5186 5187 5193 5205 5380 5381 5333 5334 5335 5350 5283 5292 5238 5239 5291 5294 5237 5254 5199 5206 5207 5209 5324 5371 5373 5276 5323 5326 5275 5280 5227 5228 5230 5192 5185
200 atoms in group bottom_boundary
group bottom_boundary id 5191 5196 5374 5375 5327 5328 5336 5282 5232 5281 5284 5231 5240 5197 5198 5200
216 atoms in group bottom_boundary
group fixed_xy union top_boundary bottom_boundary
414 atoms in group fixed_xy
variable __gb_neb_count_top_boundary equal count(top_boundary)
variable __gb_neb_count_top_boundary delete
variable __gb_neb_count_bottom_boundary equal count(bottom_boundary)
variable __gb_neb_count_bottom_boundary delete
min_style fire
timestep 0.01
fix neb_path all neb 1
fix hold_boundary_xy fixed_xy setforce 0.0 0.0 NULL
thermo 100
thermo_style custom step part pe fmax fnorm lx ly lz pxx pyy pzz pxy pxz pyz
thermo_modify flush yes
variable i equal part
dump neb_dump all custom 1000 /data/home/yazhuo/Project/GBclaw/projects/proj-20260927-164bf2/artifacts/lammps/neb/neb-20260927-045814-1d9965/neb.replica.$i.lammpstrj id type x y z ix iy iz fx fy fz
dump neb_dump all custom 1000 /data/home/yazhuo/Project/GBclaw/projects/proj-20260927-164bf2/artifacts/lammps/neb/neb-20260927-045814-1d9965/neb.replica.16.lammpstrj id type x y z ix iy iz fx fy fz
dump_modify neb_dump sort id
run 0
WARNING: No fixes with time integration, atoms won't move
For more information see https://docs.lammps.org/err0028 (src/verlet.cpp:60)
Neighbor list info ...
  update: every = 1 steps, delay = 0 steps, check = yes
  max neighbors/atom: 2000, page size: 100000
  master list distance cutoff = 6.168302
  ghost atom cutoff = 6.168302
  binsize = 3.084151, bins = 13 81 5
  1 neighbor lists, perpetual/occasional/extra = 1 0 0
  (1) pair adp, perpetual
      attributes: half, newton on
      pair build: half/bin/atomonly/newton
      stencil: half/bin/3d
      bin: standard
Per MPI rank memory allocation (min/avg/max) = 7.422 | 7.43 | 7.438 Mbytes
   Step        Part         PotEng          Fmax          Fnorm            Lx             Ly             Lz            Pxx            Pyy            Pzz            Pxy            Pxz            Pyz      
         0          16  -48992.796      0.0024845783   0.10363051     38.7435        248.489        14.9298        0.19007438     2.918104      -3.7172695      0.3830234      3.2510357e-05 -0.0010155383 
Loop time of 2.8935e-06 on 2 procs for 0 steps with 11052 atoms

86.4% CPU use with 2 MPI tasks x 1 OpenMP threads

MPI task timing breakdown:
Section |  min time  |  avg time  |  max time  |%varavg| %total
---------------------------------------------------------------
Pair    | 0          | 0          | 0          |   0.0 |  0.00
Neigh   | 0          | 0          | 0          |   0.0 |  0.00
Comm    | 0          | 0          | 0          |   0.0 |  0.00
Output  | 0          | 0          | 0          |   0.0 |  0.00
Modify  | 0          | 0          | 0          |   0.0 |  0.00
Other   |            | 2.894e-06  |            |       |100.00

Nlocal:           5526 ave        5544 max        5508 min
Histogram: 1 0 0 0 0 0 0 0 0 1
Nghost:           7959 ave        8011 max        7907 min
Histogram: 1 0 0 0 0 0 0 0 0 1
Neighs:         234603 ave      234962 max      234244 min
Histogram: 1 0 0 0 0 0 0 0 0 1

Total # of neighbors = 469206
Ave neighs/atom = 42.454397
Neighbor list builds = 0
Dangerous builds = 0
neb 0 0.0001 10000 10000 100 final "/data/home/yazhuo/Project/GBclaw/projects/proj-20260927-164bf2/artifacts/lammps/neb/neb-20260927-045814-1d9965/inputs/final.neb.coords" verbosity default
  Parameters for fire:
    dmax  delaystep dtgrow dtshrink alpha0 alphashrink tmax tmin   integrator   halfstepback   abcfire  
     0.1     20      1.1     0.5     0.25     0.99      10  0.02 eulerimplicit      yes          no     
Per MPI rank memory allocation (min/avg/max) = 9.901 | 9.909 | 9.917 Mbytes
   Step        Part         PotEng          Fmax          Fnorm            Lx             Ly             Lz            Pxx            Pyy            Pzz            Pxy            Pxz            Pyz      
         0          16  -48992.777      0.08548468     0.55984741     38.7435        248.489        14.9298        188.13222     -614.17412     -161.01899     -91.811645     -7.0298515      24.641178    
       100          16  -48992.811      0.00010727698  0.0043483167   38.7435        248.489        14.9298        196.7389      -651.11467     -157.6373      -97.683152     -21.099705      35.652656    
       200          16  -48992.811      6.1627299e-05  0.0034120619   38.7435        248.489        14.9298        197.13785     -652.35487     -157.72141     -98.374545     -23.136191      43.685086    
       300          16  -48992.811      4.6485774e-05  0.0025967282   38.7435        248.489        14.9298        197.41865     -653.01723     -157.74005     -98.918406     -24.734749      49.906544    
       400          16  -48992.811      3.6130539e-05  0.0020876846   38.7435        248.489        14.9298        197.65375     -653.4713      -157.7349      -99.399584     -26.109762      55.246668    
       500          16  -48992.811      2.8712275e-05  0.0017324804   38.7435        248.489        14.9298        197.8491      -653.77934     -157.71298     -99.828015     -27.316014      59.936221    
       600          16  -48992.811      2.4670547e-05  0.0015296057   38.7435        248.489        14.9298        197.96983     -653.93332     -157.68915     -100.11148     -28.087052      62.968499    
       700          16  -48992.811      2.1440124e-05  0.0013646419   38.7435        248.489        14.9298        198.07351     -654.04241     -157.66151     -100.37035     -28.759815      65.66216     
       800          16  -48992.811      1.8726322e-05  0.0012131676   38.7435        248.489        14.9298        198.187       -654.13712     -157.62099     -100.68295     -29.528546      68.820198    
       900          16  -48992.811      2.0115401e-05  0.0011775714   38.7435        248.489        14.9298        198.25279     -654.18053     -157.58711     -100.90564     -30.071361      71.086103    
      1000          16  -48992.811      1.8585887e-05  0.0010480293   38.7435        248.489        14.9298        198.307       -654.20836     -157.5491      -101.13284     -30.611224      73.38161     
      1100          16  -48992.811      1.6671286e-05  0.00091279123  38.7435        248.489        14.9298        198.3617      -654.22719     -157.50577     -101.37497     -31.103486      75.605759    
      1200          16  -48992.811      1.5608245e-05  0.00083116341  38.7435        248.489        14.9298        198.39851     -654.23445     -157.47031     -101.5615      -31.440575      77.212001    
      1300          16  -48992.811      1.4461518e-05  0.00075532454  38.7435        248.489        14.9298        198.42902     -654.23691     -157.43587     -101.7353      -31.71994       78.617583    
      1400          16  -48992.811      1.3156927e-05  0.00067486333  38.7435        248.489        14.9298        198.45964     -654.23554     -157.39487     -101.93395     -31.995723      80.107692    
      1500          16  -48992.811      1.1978558e-05  0.00060604299  38.7435        248.489        14.9298        198.48407     -654.2309      -157.35473     -102.12014     -32.212026      81.389691    
      1600          16  -48992.811      1.1087468e-05  0.0005562961   38.7435        248.489        14.9298        198.50022     -654.22541     -157.32236     -102.26537     -32.353673      82.314754    
      1700          16  -48992.811      1.0028699e-05  0.00050006467  38.7435        248.489        14.9298        198.51631     -654.21693     -157.28184     -102.44094     -32.494165      83.346412    
      1800          16  -48992.811      9.1183746e-06  0.00045422011  38.7435        248.489        14.9298        198.52728     -654.20806     -157.24511     -102.59451     -32.589752      84.170243    
      1900          16  -48992.811      8.330537e-06   0.00041633758  38.7435        248.489        14.9298        198.53463     -654.19931     -157.21176     -102.72979     -32.65382       84.836752    
      2000          16  -48992.811      7.5973253e-06  0.00038248195  38.7435        248.489        14.9298        198.5396      -654.19019     -157.17902     -102.85884     -32.697262      85.419571    
      2100          16  -48992.811      6.774184e-06   0.000345969    38.7435        248.489        14.9298        198.54288     -654.17873     -157.13968     -103.00893     -32.72648       86.032007    
      2200          16  -48992.811      6.251506e-06   0.00032281638  38.7435        248.489        14.9298        198.54354     -654.17033     -157.11177     -103.11227     -32.733946      86.413944    
      2300          16  -48992.811      5.6550493e-06  0.00029555503  38.7435        248.489        14.9298        198.54238     -654.15905     -157.07524     -103.24375     -32.73015       86.856744    
      2400          16  -48992.811      5.2014805e-06  0.00026958623  38.7435        248.489        14.9298        198.53826     -654.14615     -157.03483     -103.38437     -32.712669      87.284158    
      2500          16  -48992.811      5.0488907e-06  0.00025520841  38.7435        248.489        14.9298        198.53352     -654.13712     -157.00761     -103.47629     -32.696761      87.545431    
      2600          16  -48992.811      5.0105014e-06  0.00024444659  38.7435        248.489        14.9298        198.52687     -654.12761     -156.97998     -103.56742     -32.680458      87.798077    
      2700          16  -48992.811      5.0446822e-06  0.00023641782  38.7435        248.489        14.9298        198.5141      -654.1135      -156.94096     -103.69254     -32.660961      88.143782    
      2800          16  -48992.811      5.0751675e-06  0.00023455298  38.7435        248.489        14.9298        198.50212     -654.10247     -156.9118      -103.78353     -32.650107      88.396801    
      2900          16  -48992.811      4.9973779e-06  0.00023075095  38.7435        248.489        14.9298        198.48493     -654.08841     -156.87577     -103.89331     -32.640223      88.701772    
      3000          16  -48992.811      4.7264558e-06  0.00021970788  38.7435        248.489        14.9298        198.4633      -654.07224     -156.83502     -104.01415     -32.629615      89.025465    
      3100          16  -48992.811      4.4576296e-06  0.00020843117  38.7435        248.489        14.9298        198.44679     -654.06059     -156.80575     -104.09889     -32.620524      89.239506    
      3200          16  -48992.811      4.173584e-06   0.00019642874  38.7435        248.489        14.9298        198.42979     -654.04901     -156.77661     -104.1816      -32.609437      89.435203    
      3300          16  -48992.811      3.8103769e-06  0.00018115423  38.7435        248.489        14.9298        198.40675     -654.03388     -156.73826     -104.288       -32.591549      89.666406    
      3400          16  -48992.811      3.5135736e-06  0.00016877315  38.7435        248.489        14.9298        198.38687     -654.02125     -156.706       -104.37542     -32.573956      89.839168    
      3500          16  -48992.811      3.2354754e-06  0.00015736039  38.7435        248.489        14.9298        198.36549     -654.00805     -156.67203     -104.46559     -32.553293      90.001626    
      3600          16  -48992.811      2.9266353e-06  0.00014486107  38.7435        248.489        14.9298        198.34085     -653.99324     -156.63359     -104.56529     -32.527653      90.162756    
      3700          16  -48992.811      2.7126247e-06  0.00013637539  38.7435        248.489        14.9298        198.32191     -653.98212     -156.6045      -104.63923     -32.506933      90.270036    
      3800          16  -48992.811      2.501262e-06   0.00012816896  38.7435        248.489        14.9298        198.30271     -653.97107     -156.57537     -104.71199     -32.485303      90.365902    
      3900          16  -48992.811      2.1818538e-06  0.00011620977  38.7435        248.489        14.9298        198.27093     -653.9532      -156.52778     -104.82828     -32.448392      90.499538    
      4000          16  -48992.811      1.9930875e-06  0.00010941786  38.7435        248.489        14.9298        198.24908     -653.94118     -156.49548     -104.90547     -32.422465      90.575155    
      4100          16  -48992.811      1.7964868e-06  0.00010275384  38.7435        248.489        14.9298        198.22734     -653.92944     -156.46364     -104.98021     -32.396476      90.638739    
      4200          16  -48992.811      1.6215648e-06  9.6844092e-05  38.7435        248.489        14.9298        198.203       -653.91651     -156.42829     -105.06175     -32.367268      90.698002    
      4300          16  -48992.811      1.5452354e-06  9.1013038e-05  38.7435        248.489        14.9298        198.17522     -653.90201     -156.38832     -105.15222     -32.334142      90.752269    
      4400          16  -48992.811      1.4899796e-06  8.7048847e-05  38.7435        248.489        14.9298        198.15329     -653.89075     -156.35701     -105.22183     -32.308285      90.786235    
      4500          16  -48992.811      1.424017e-06   8.303208e-05   38.7435        248.489        14.9298        198.1258      -653.87684     -156.31806     -105.30705     -32.276381      90.81944     
      4600          16  -48992.811      1.3747913e-06  8.0316161e-05  38.7435        248.489        14.9298        198.10366     -653.8658      -156.28691     -105.3741      -32.251217      90.839473    
      4700          16  -48992.811      1.3250366e-06  7.7807322e-05  38.7435        248.489        14.9298        198.07944     -653.85388     -156.25305     -105.44588     -32.22433       90.855287    
      4800          16  -48992.811      1.2759801e-06  7.5744184e-05  38.7435        248.489        14.9298        198.05448     -653.84175     -156.21837     -105.51833     -32.197379      90.86605     
      4900          16  -48992.811      1.2213448e-06  7.3778956e-05  38.7435        248.489        14.9298        198.02468     -653.82747     -156.17726     -105.60281     -32.166342      90.872656    
      5000          16  -48992.811      1.1786071e-06  7.2464572e-05  38.7435        248.489        14.9298        197.99946     -653.81556     -156.14271     -105.67269     -32.141115      90.873781    
      5100          16  -48992.811      1.1558373e-06  7.1296837e-05  38.7435        248.489        14.9298        197.9714      -653.80246     -156.10451     -105.74881     -32.11418       90.871149    
      5200          16  -48992.811      1.1618184e-06  7.0331781e-05  38.7435        248.489        14.9298        197.94205     -653.78894     -156.06479     -105.82669     -32.08733       90.864753    
      5300          16  -48992.811      1.1667078e-06  6.9693221e-05  38.7435        248.489        14.9298        197.91746     -653.77775     -156.03173     -105.89056     -32.065913      90.857111    
      5400          16  -48992.811      1.1723906e-06  6.906729e-05   38.7435        248.489        14.9298        197.88837     -653.76466     -155.99285     -105.96464     -32.041807      90.845993    
      5500          16  -48992.811      1.1784569e-06  6.8507197e-05  38.7435        248.489        14.9298        197.8557      -653.75016     -155.94944     -106.04598     -32.016315      90.831384    
      5600          16  -48992.811      1.1829228e-06  6.8150628e-05  38.7435        248.489        14.9298        197.8299      -653.73884     -155.91536     -106.10888     -31.99735       90.818647    
      5700          16  -48992.811      1.1875234e-06  6.7807084e-05  38.7435        248.489        14.9298        197.80151     -653.72652     -155.87806     -106.17676     -31.977632      90.803786    
      5800          16  -48992.811      1.1923782e-06  6.7462337e-05  38.7435        248.489        14.9298        197.76822     -653.71225     -155.83458     -106.25466     -31.955998      90.785588    
      5900          16  -48992.811      1.1960769e-06  6.7206046e-05  38.7435        248.489        14.9298        197.73869     -653.69975     -155.79622     -106.32227     -31.938101      90.769019    
      6000          16  -48992.811      1.1992448e-06  6.6967331e-05  38.7435        248.489        14.9298        197.70918     -653.6874      -155.75807     -106.3885      -31.921366      90.752266    
      6100          16  -48992.811      1.2020309e-06  6.6722169e-05  38.7435        248.489        14.9298        197.67691     -653.67405     -155.71658     -106.45942     -31.904328      90.733925    
      6200          16  -48992.811      1.2037973e-06  6.652302e-05   38.7435        248.489        14.9298        197.64875     -653.66254     -155.68053     -106.52007     -31.890485      90.718033    
      6300          16  -48992.811      1.2076667e-06  6.6261492e-05  38.7435        248.489        14.9298        197.61202     -653.64769     -155.63374     -106.59753     -31.873753      90.697606    
      6400          16  -48992.811      1.2113216e-06  6.6019754e-05  38.7435        248.489        14.9298        197.57841     -653.63428     -155.59114     -106.66675     -31.85972       90.679331    
      6500          16  -48992.811      1.2133842e-06  6.5815616e-05  38.7435        248.489        14.9298        197.55075     -653.62338     -155.55624     -106.72256     -31.849029      90.664655    
      6600          16  -48992.811      1.2148581e-06  6.5564409e-05  38.7435        248.489        14.9298        197.51851     -653.6108      -155.51572     -106.78637     -31.837462      90.647994    
      6700          16  -48992.811      1.2152976e-06  6.5229481e-05  38.7435        248.489        14.9298        197.47872     -653.59548     -155.46592     -106.86331     -31.824438      90.628143    
      6800          16  -48992.811      1.2143218e-06  6.4958295e-05  38.7435        248.489        14.9298        197.44864     -653.58404     -155.42843     -106.92014     -31.81547       90.613696    
      6900          16  -48992.811      1.2125061e-06  6.4664445e-05  38.7435        248.489        14.9298        197.41851     -653.57271     -155.39102     -106.97594     -31.807182      90.599713    
      7000          16  -48992.811      1.2092365e-06  6.4291549e-05  38.7435        248.489        14.9298        197.3833      -653.55962     -155.34745     -107.03978     -31.798319      90.583989    
      7100          16  -48992.811      1.205446e-06   6.3952605e-05  38.7435        248.489        14.9298        197.35375     -653.54876     -155.31101     -107.09222     -31.791529      90.571309    
      7200          16  -48992.811      1.1993586e-06  6.3483076e-05  38.7435        248.489        14.9298        197.31599     -653.53504     -155.2646      -107.15777     -31.783632      90.555767    
      7300          16  -48992.811      1.1928415e-06  6.3033216e-05  38.7435        248.489        14.9298        197.28281     -653.52315     -155.22397     -107.214       -31.77739       90.542727    
      7400          16  -48992.811      1.1859398e-06  6.2592918e-05  38.7435        248.489        14.9298        197.25262     -653.51245     -155.18712     -107.26407     -31.772229      90.531346    
      7500          16  -48992.811      1.1778331e-06  6.2103372e-05  38.7435        248.489        14.9298        197.22124     -653.50145     -155.14893     -107.31504     -31.767351      90.519985    
      7600          16  -48992.811      1.1663232e-06  6.1439322e-05  38.7435        248.489        14.9298        197.18172     -653.48778     -155.10097     -107.37771     -31.761859      90.506329    
      7700          16  -48992.811      1.156885e-06   6.0914631e-05  38.7435        248.489        14.9298        197.15263     -653.47783     -155.06577     -107.42274     -31.758259      90.496732    
      7800          16  -48992.811      1.1463288e-06  6.0341385e-05  38.7435        248.489        14.9298        197.12257     -653.46767     -155.0295      -107.46831     -31.754896      90.487197    
      7900          16  -48992.811      1.1335287e-06  5.9659207e-05  38.7435        248.489        14.9298        197.08881     -653.45639     -154.98887     -107.51833     -31.751526      90.476936    
      8000          16  -48992.811      1.1208584e-06  5.8995109e-05  38.7435        248.489        14.9298        197.05776     -653.44614     -154.95159     -107.56328     -31.748779      90.467893    
      8100          16  -48992.811      1.1079897e-06  5.8329156e-05  38.7435        248.489        14.9298        197.02814     -653.43647     -154.91612     -107.60521     -31.74645       90.459604    
      8200          16  -48992.811      1.0930803e-06  5.7564348e-05  38.7435        248.489        14.9298        196.99575     -653.42602     -154.87741     -107.65003     -31.744206      90.450898    
      8300          16  -48992.811      1.0793288e-06  5.6864507e-05  38.7435        248.489        14.9298        196.96744     -653.41699     -154.84367     -107.68829     -31.742488      90.443583    
      8400          16  -48992.811      1.063601e-06   5.6068557e-05  38.7435        248.489        14.9298        196.93657     -653.40725     -154.80695     -107.72909     -31.740848      90.435898    
      8500          16  -48992.811      1.0505772e-06  5.5412036e-05  38.7435        248.489        14.9298        196.91205     -653.39959     -154.77784     -107.76081     -31.739709      90.430001    
      8600          16  -48992.811      1.03672e-06    5.4715317e-05  38.7435        248.489        14.9298        196.88687     -653.39181     -154.748       -107.79274     -31.73868       90.424128    
      8700          16  -48992.811      1.0174399e-06  5.3748621e-05  38.7435        248.489        14.9298        196.85322     -653.38152     -154.70821     -107.8344      -31.737511      90.416556    
      8800          16  -48992.811      9.9862554e-07  5.2806795e-05  38.7435        248.489        14.9298        196.82171     -653.37201     -154.67104     -107.87237     -31.736615      90.409737    
      8900          16  -48992.811      9.8498014e-07  5.2124804e-05  38.7435        248.489        14.9298        196.79962     -653.36542     -154.64501     -107.89839     -31.736091      90.405102    
      9000          16  -48992.811      9.6666367e-07  5.1209573e-05  38.7435        248.489        14.9298        196.77079     -653.35689     -154.61112     -107.93162     -31.735524      90.399223    
      9100          16  -48992.811      9.4688006e-07  5.022095e-05   38.7435        248.489        14.9298        196.74063     -653.34808     -154.57572     -107.9655      -31.735061      90.393268    
      9200          16  -48992.811      9.3152149e-07  4.9453432e-05  38.7435        248.489        14.9298        196.71785     -653.3415      -154.54903     -107.99049     -31.734792      90.388894    
      9300          16  -48992.811      9.1544899e-07  4.8649632e-05  38.7435        248.489        14.9298        196.69454     -653.33483     -154.52177     -108.01553     -31.734583      90.384523    
      9400          16  -48992.811      8.9533827e-07  4.7643029e-05  38.7435        248.489        14.9298        196.66609     -653.32677     -154.48854     -108.04535     -31.73441       90.379326    
      9453          16  -48992.811      8.8814522e-07  4.7282708e-05  38.7435        248.489        14.9298        196.65609     -653.32396     -154.47689     -108.05563     -31.734369      90.377534    
Loop time of 275.698 on 2 procs for 9453 steps with 11052 atoms

98.9% CPU use with 2 MPI tasks x 1 OpenMP threads

Minimization stats:
  Stopping criterion = force tolerance
  Energy initial, next-to-last, final = 
     -48992.7765836365   -48992.810973387  -48992.8109733888
  Force two-norm initial, final = 0.55984741 4.7282708e-05
  Force max component initial, final = 0.08548468 8.8814522e-07
  Final line search alpha, max atom move = 0 0
  Iterations, force evaluations = 9453 9970

MPI task timing breakdown:
Section |  min time  |  avg time  |  max time  |%varavg| %total
---------------------------------------------------------------
Pair    | 216.33     | 218.6      | 220.86     |  15.3 | 79.29
Neigh   | 0          | 0          | 0          |   0.0 |  0.00
Comm    | 2.3213     | 4.5826     | 6.844      | 105.6 |  1.66
Output  | 0.14259    | 0.14973    | 0.15686    |   1.8 |  0.05
Modify  | 15.252     | 15.262     | 15.271     |   0.2 |  5.54
Other   |            | 37.11      |            |       | 13.46

Nlocal:           5526 ave        5544 max        5508 min
Histogram: 1 0 0 0 0 0 0 0 0 1
Nghost:           8594 ave        8631 max        8557 min
Histogram: 1 0 0 0 0 0 0 0 0 1
Neighs:         234648 ave      235344 max      233952 min
Histogram: 1 0 0 0 0 0 0 0 0 1

Total # of neighbors = 469296
Ave neighs/atom = 42.462541
Neighbor list builds = 0
Dangerous builds = 0
  Parameters for fire:
    dmax  delaystep dtgrow dtshrink alpha0 alphashrink tmax tmin   integrator   halfstepback   abcfire  
     0.1     20      1.1     0.5     0.25     0.99      10  0.02 eulerimplicit      yes          no     
Per MPI rank memory allocation (min/avg/max) = 9.901 | 9.909 | 9.917 Mbytes
   Step        Part         PotEng          Fmax          Fnorm            Lx             Ly             Lz            Pxx            Pyy            Pzz            Pxy            Pxz            Pyz      
      9453          16  -48992.811      8.8814522e-07  4.7282708e-05  38.7435        248.489        14.9298        196.65609     -653.32396     -154.47689     -108.05563     -31.734369      90.377534    
      9500          16  -48992.811      8.0421236e-06  0.00063054684  38.7435        248.489        14.9298        196.64823     -653.32378     -154.46513     -108.05622     -31.711517      90.298212    
      9600          16  -48992.811      7.9480299e-06  0.00062223872  38.7435        248.489        14.9298        196.68738     -653.34783     -154.48816     -107.95653     -31.527669      89.675388    
      9700          16  -48992.811      8.0572097e-06  0.00063018565  38.7435        248.489        14.9298        196.71893     -653.36591     -154.5072      -107.87877     -31.387124      89.198865    
      9800          16  -48992.811      8.1413666e-06  0.00063599553  38.7435        248.489        14.9298        196.75862     -653.38805     -154.53152     -107.78258     -31.21401       88.611354    
      9900          16  -48992.811      8.2196602e-06  0.00064127047  38.7435        248.489        14.9298        196.80237     -653.4119      -154.55863     -107.6784      -31.026372      87.973813    
     10000          16  -48992.811      8.2270902e-06  0.0006410237   38.7435        248.489        14.9298        196.84457     -653.43445     -154.58497     -107.57959     -30.847716      87.366054    
     10100          16  -48992.811      8.1287947e-06  0.00063252831  38.7435        248.489        14.9298        196.88597     -653.45622     -154.61096     -107.48398     -30.673725      86.773423    
     10200          16  -48992.811      7.7639239e-06  0.00060319661  38.7435        248.489        14.9298        196.92832     -653.47825     -154.63736     -107.3868      -30.494952      86.163677    
     10300          16  -48992.811      7.2570917e-06  0.00056304884  38.7435        248.489        14.9298        196.95913     -653.49425     -154.65616     -107.31568     -30.36222       85.710334    
     10400          16  -48992.811      6.6172716e-06  0.00051264596  38.7435        248.489        14.9298        196.98672     -653.50869     -154.67242     -107.2508      -30.239043      85.289058    
     10500          16  -48992.811      5.719307e-06   0.00044212896  38.7435        248.489        14.9298        197.01852     -653.52575     -154.68989     -107.17303     -30.08743       84.769627    
     10600          16  -48992.811      5.1114391e-06  0.00039444671  38.7435        248.489        14.9298        197.03925     -653.53733     -154.70006     -107.11934     -29.979105      84.397781    
     10700          16  -48992.811      4.6618136e-06  0.00035914765  38.7435        248.489        14.9298        197.05591     -653.54702     -154.70727     -107.0738      -29.884062      84.070978    
     10800          16  -48992.811      4.3088921e-06  0.00033134364  38.7435        248.489        14.9298        197.0718      -653.55665     -154.7131      -107.02816     -29.78519       83.730441    
     10900          16  -48992.811      4.0802108e-06  0.00031322811  38.7435        248.489        14.9298        197.08422     -653.56445     -154.71685     -106.99106     -29.701544      83.441868    
     11000          16  -48992.811      3.8793509e-06  0.00029725409  38.7435        248.489        14.9298        197.09568     -653.57185     -154.71962     -106.9558      -29.618828      83.15606     
     11100          16  -48992.811      3.6958236e-06  0.00028264795  38.7435        248.489        14.9298        197.10521     -653.57818     -154.72123     -106.92561     -29.544708      82.899518    
     11200          16  -48992.811      3.4279555e-06  0.00026137109  38.7435        248.489        14.9298        197.11621     -653.58585     -154.72175     -106.88903     -29.448771      82.566701    
     11300          16  -48992.811      3.2456545e-06  0.00024693884  38.7435        248.489        14.9298        197.12163     -653.5899      -154.72094     -106.86962     -29.393453      82.37429     
     11400          16  -48992.811      2.9844335e-06  0.00022630973  38.7435        248.489        14.9298        197.12719     -653.59455     -154.71834     -106.84721     -29.322999      82.12854     
     11500          16  -48992.811      2.7765709e-06  0.00020993211  38.7435        248.489        14.9298        197.12999     -653.59746     -154.71498     -106.83308     -29.271863      81.94954     
     11600          16  -48992.811      2.5744035e-06  0.00019403268  38.7435        248.489        14.9298        197.13139     -653.59972     -154.71043     -106.82204     -29.224327      81.782532    
     11700          16  -48992.811      2.3282493e-06  0.00017471861  38.7435        248.489        14.9298        197.13113     -653.60168     -154.70267     -106.81224     -29.167455      81.581723    
     11800          16  -48992.811      2.1209553e-06  0.0001585062   38.7435        248.489        14.9298        197.1288      -653.60256     -154.69353     -106.80769     -29.118878      81.409087    
     11900          16  -48992.811      1.9757193e-06  0.00014719213  38.7435        248.489        14.9298        197.12565     -653.60263     -154.68518     -106.80714     -29.083842      81.283775    
     12000          16  -48992.811      1.8136e-06     0.00013463303  38.7435        248.489        14.9298        197.12027     -653.60203     -154.67345     -106.80989     -29.043563      81.138712    
     12100          16  -48992.811      1.6668206e-06  0.00012336127  38.7435        248.489        14.9298        197.11322     -653.60067     -154.66008     -106.81641     -29.006148      81.002785    
     12200          16  -48992.811      1.5603097e-06  0.0001152695   38.7435        248.489        14.9298        197.10665     -653.59912     -154.64861     -106.82401     -28.978975      80.903214    
     12300          16  -48992.811      1.4441327e-06  0.00010655794  38.7435        248.489        14.9298        197.09794     -653.5968      -154.63429     -106.83542     -28.949798      80.795326    
     12400          16  -48992.811      1.3480291e-06  9.9466686e-05  38.7435        248.489        14.9298        197.08935     -653.59432     -154.62082     -106.84769     -28.926166      80.707034    
     12500          16  -48992.811      1.2491825e-06  9.0299411e-05  38.7435        248.489        14.9298        197.07404     -653.58959     -154.59786     -106.87116     -28.892336      80.578867    
     12600          16  -48992.811      1.1233842e-06  8.3456033e-05  38.7435        248.489        14.9298        197.06422     -653.58642     -154.58366     -106.88696     -28.874712      80.511041    
     12700          16  -48992.811      1.0335209e-06  7.734207e-05   38.7435        248.489        14.9298        197.05172     -653.58226     -154.566       -106.90765     -28.855556      80.436251    
     12800          16  -48992.811      9.3226446e-07  7.0729593e-05  38.7435        248.489        14.9298        197.03553     -653.57674     -154.54367     -106.93513     -28.83499       80.354379    
     12900          16  -48992.811      8.6179198e-07  6.6335021e-05  38.7435        248.489        14.9298        197.02267     -653.57227     -154.52625     -106.95739     -28.821245      80.298501    
     13000          16  -48992.811      7.9577975e-07  6.2404403e-05  38.7435        248.489        14.9298        197.00917     -653.56752     -154.50822     -106.981       -28.80877       80.246768    
     13100          16  -48992.811      7.2142765e-07  5.822804e-05   38.7435        248.489        14.9298        196.99194     -653.56139     -154.48551     -107.01144     -28.795233      80.189195    
     13200          16  -48992.811      6.8011921e-07  5.4986775e-05  38.7435        248.489        14.9298        196.97572     -653.55558     -154.46439     -107.0403      -28.784454      80.141984    
     13300          16  -48992.811      6.8963937e-07  5.2149023e-05  38.7435        248.489        14.9298        196.95872     -653.54945     -154.44246     -107.07065     -28.774797      80.09835     
     13400          16  -48992.811      6.9637038e-07  5.0104039e-05  38.7435        248.489        14.9298        196.94412     -653.54417     -154.42378     -107.09678     -28.767647      80.064963    
     13500          16  -48992.811      7.0487571e-07  4.7439147e-05  38.7435        248.489        14.9298        196.92096     -653.53576     -154.39438     -107.13824     -28.75812       80.018516    
     13600          16  -48992.811      7.0849148e-07  4.6033961e-05  38.7435        248.489        14.9298        196.90609     -653.53036     -154.37565     -107.1648      -28.753028      79.992396    
     13700          16  -48992.811      7.1216344e-07  4.4410723e-05  38.7435        248.489        14.9298        196.88581     -653.52299     -154.35025     -107.20095     -28.747152      79.960641    
     13800          16  -48992.811      7.1666944e-07  4.2980063e-05  38.7435        248.489        14.9298        196.8641      -653.51511     -154.32321     -107.23949     -28.742063      79.931028    
     13900          16  -48992.811      7.2064937e-07  4.2105251e-05  38.7435        248.489        14.9298        196.84842     -653.50942     -154.30378     -107.26718     -28.739066      79.912128    
     14000          16  -48992.811      7.2344525e-07  4.1318797e-05  38.7435        248.489        14.9298        196.83239     -653.50362     -154.284       -107.29535     -28.73652       79.894719    
     14100          16  -48992.811      7.253618e-07   4.0271001e-05  38.7435        248.489        14.9298        196.80759     -653.49467     -154.25354     -107.3386      -28.733514      79.871259    
     14200          16  -48992.811      7.250651e-07   3.9658353e-05  38.7435        248.489        14.9298        196.79107     -653.48873     -154.23332     -107.36719     -28.732084      79.857771    
     14300          16  -48992.811      7.2316774e-07  3.8966645e-05  38.7435        248.489        14.9298        196.77059     -653.48139     -154.20837     -107.40232     -28.730862      79.843143    
     14400          16  -48992.811      7.1933038e-07  3.8288133e-05  38.7435        248.489        14.9298        196.74881     -653.47363     -154.18192     -107.43934     -28.730176      79.829923    
     14500          16  -48992.811      7.1534108e-07  3.7809123e-05  38.7435        248.489        14.9298        196.73265     -653.46789     -154.16237     -107.46652     -28.730037      79.821546    
     14600          16  -48992.811      7.1046369e-07  3.734442e-05   38.7435        248.489        14.9298        196.71658     -653.46221     -154.14298     -107.49335     -28.730186      79.814326    
     14700          16  -48992.811      7.0222891e-07  3.6705138e-05  38.7435        248.489        14.9298        196.69423     -653.45436     -154.11609     -107.53024     -28.730837      79.806034    
     14800          16  -48992.811      6.9471904e-07  3.6206783e-05  38.7435        248.489        14.9298        196.67692     -653.44831     -154.09533     -107.55847     -28.731674      79.800933    
     14900          16  -48992.811      6.8551855e-07  3.5655972e-05  38.7435        248.489        14.9298        196.65806     -653.44176     -154.07278     -107.5889      -28.732886      79.796576    
     15000          16  -48992.811      6.7426503e-07  3.5037566e-05  38.7435        248.489        14.9298        196.63745     -653.43464     -154.0482      -107.62172     -28.734549      79.79319     
     15100          16  -48992.811      6.6334696e-07  3.4473758e-05  38.7435        248.489        14.9298        196.61931     -653.42842     -154.02663     -107.65024     -28.736289      79.791342    
     15200          16  -48992.811      6.5233276e-07  3.3928535e-05  38.7435        248.489        14.9298        196.60234     -653.42264     -154.00651     -107.67657     -28.738137      79.790528    
     15300          16  -48992.811      6.3867909e-07  3.3274784e-05  38.7435        248.489        14.9298        196.58277     -653.41601     -153.98337     -107.70655     -28.740522      79.790647    
     15400          16  -48992.811      6.2670364e-07  3.2715063e-05  38.7435        248.489        14.9298        196.56669     -653.4106      -153.96439     -107.73085     -28.742679      79.791575    
     15500          16  -48992.811      6.121924e-07   3.2049058e-05  38.7435        248.489        14.9298        196.54825     -653.40444     -153.94268     -107.75834     -28.745359      79.793519    
     15600          16  -48992.811      5.9765968e-07  3.1391103e-05  38.7435        248.489        14.9298        196.53077     -653.39865     -153.92217     -107.784       -28.748101      79.79623     
     15700          16  -48992.811      5.8445464e-07  3.0798684e-05  38.7435        248.489        14.9298        196.51561     -653.39365     -153.90441     -107.80595     -28.750634      79.799252    
     15800          16  -48992.811      5.6976263e-07  3.0144378e-05  38.7435        248.489        14.9298        196.49942     -653.38836     -153.8855      -107.82908     -28.753494      79.803154    
     15900          16  -48992.811      5.5254146e-07  2.9381786e-05  38.7435        248.489        14.9298        196.48124     -653.38246     -153.86431     -107.85463     -28.756896      79.808368    
     16000          16  -48992.811      5.3918403e-07  2.8792142e-05  38.7435        248.489        14.9298        196.46767     -653.37808     -153.84854     -107.87342     -28.759568      79.812843    
     16100          16  -48992.811      5.2408665e-07  2.8127927e-05  38.7435        248.489        14.9298        196.45281     -653.37333     -153.8313      -107.89371     -28.762622      79.818307    
     16200          16  -48992.811      5.0741545e-07  2.7395959e-05  38.7435        248.489        14.9298        196.43694     -653.36828     -153.81294     -107.91503     -28.766034      79.824806    
     16300          16  -48992.811      4.9384427e-07  2.6800848e-05  38.7435        248.489        14.9298        196.4244      -653.36433     -153.79846     -107.93163     -28.768842      79.830437    
     16400          16  -48992.811      4.7732312e-07  2.6077732e-05  38.7435        248.489        14.9298        196.40955     -653.35967     -153.78135     -107.951       -28.772298      79.837678    
     16500          16  -48992.811      4.6099761e-07  2.5363921e-05  38.7435        248.489        14.9298        196.39528     -653.35524     -153.76497     -107.96929     -28.775753      79.845237    
     16600          16  -48992.811      4.4729729e-07  2.476527e-05   38.7435        248.489        14.9298        196.38361     -653.35163     -153.75159     -107.98403     -28.778685      79.85188     
     16700          16  -48992.811      4.3222082e-07  2.4107404e-05  38.7435        248.489        14.9298        196.37104     -653.34778     -153.73722     -107.99966     -28.781948      79.859498    
     16800          16  -48992.811      4.1390987e-07  2.3309351e-05  38.7435        248.489        14.9298        196.35616     -653.34325     -153.72024     -108.01786     -28.785962      79.869177    
     16900          16  -48992.811      4.0123698e-07  2.2757452e-05  38.7435        248.489        14.9298        196.3461      -653.34021     -153.70879     -108.02997     -28.788776      79.876155    
     17000          16  -48992.811      3.87021e-07    2.2139347e-05  38.7435        248.489        14.9298        196.33501     -653.33688     -153.6962      -108.04311     -28.791971      79.884251    
     17100          16  -48992.811      3.7171505e-07  2.1474787e-05  38.7435        248.489        14.9298        196.32331     -653.33339     -153.68296     -108.05676     -28.795456      79.893291    
     17200          16  -48992.811      3.5688891e-07  2.0832184e-05  38.7435        248.489        14.9298        196.31221     -653.3301      -153.67041     -108.0695      -28.798882      79.902368    
     17300          16  -48992.811      3.4356746e-07  2.0255946e-05  38.7435        248.489        14.9298        196.30241     -653.32722     -153.65937     -108.08056     -28.802006      79.910807    
     17400          16  -48992.811      3.2938025e-07  1.964356e-05   38.7435        248.489        14.9298        196.29215     -653.32422     -153.64785     -108.09195     -28.805383      79.920095    
     17500          16  -48992.811      3.1743173e-07  1.912884e-05   38.7435        248.489        14.9298        196.28366     -653.32175     -153.63833     -108.10124     -28.80827       79.928167    
     17600          16  -48992.811      3.0294068e-07  1.850215e-05   38.7435        248.489        14.9298        196.27345     -653.3188      -153.62691     -108.11223     -28.811854      79.93834     
     17700          16  -48992.811      2.9006107e-07  1.7937716e-05  38.7435        248.489        14.9298        196.26439     -653.31621     -153.61681     -108.12182     -28.815151      79.947852    
     17800          16  -48992.811      2.7967735e-07  1.7484217e-05  38.7435        248.489        14.9298        196.25719     -653.31415     -153.60881     -108.12932     -28.817852      79.955746    
     17900          16  -48992.811      2.6786215e-07  1.6970144e-05  38.7435        248.489        14.9298        196.24912     -653.31187     -153.59986     -108.13761     -28.820976      79.964983    
     18000          16  -48992.811      2.54227e-07    1.6379681e-05  38.7435        248.489        14.9298        196.23996     -653.30929     -153.58973     -108.14687     -28.824653      79.976003    
     18100          16  -48992.811      2.4506679e-07  1.5984724e-05  38.7435        248.489        14.9298        196.2339      -653.30759     -153.58305     -108.15289     -28.827171      79.983635    
     18200          16  -48992.811      2.3602518e-07  1.5596325e-05  38.7435        248.489        14.9298        196.22799     -653.30594     -153.57654     -108.1587      -28.829697      79.991358    
     18300          16  -48992.811      2.2376801e-07  1.5072205e-05  38.7435        248.489        14.9298        196.22008     -653.30375     -153.56788     -108.16633     -28.833191      80.002152    
     18400          16  -48992.811      2.1561767e-07  1.472542e-05   38.7435        248.489        14.9298        196.2149      -653.30232     -153.56221     -108.17126     -28.835561      80.009547    
     18500          16  -48992.811      2.0555499e-07  1.429924e-05   38.7435        248.489        14.9298        196.20858     -653.30058     -153.55533     -108.17719     -28.838546      80.018934    
     18600          16  -48992.811      1.9533026e-07  1.3868476e-05  38.7435        248.489        14.9298        196.20225     -653.29885     -153.54845     -108.18304     -28.841649      80.028782    
     18700          16  -48992.811      1.8780434e-07  1.3552942e-05  38.7435        248.489        14.9298        196.19765     -653.2976      -153.54347     -108.18722     -28.843982      80.036243    
     18782          16  -48992.811      1.797046e-07   1.3214948e-05  38.7435        248.489        14.9298        196.19275     -653.29627     -153.53818     -108.19162     -28.846544      80.044489    
Loop time of 270.99 on 2 procs for 9329 steps with 11052 atoms

99.0% CPU use with 2 MPI tasks x 1 OpenMP threads

Minimization stats:
  Stopping criterion = force tolerance
  Energy initial, next-to-last, final = 
     -48992.8109733888  -48992.8112679276  -48992.8112679186
  Force two-norm initial, final = 4.7282708e-05 1.3214948e-05
  Force max component initial, final = 8.8814522e-07 1.797046e-07
  Final line search alpha, max atom move = 0 0
  Iterations, force evaluations = 9329 9840

MPI task timing breakdown:
Section |  min time  |  avg time  |  max time  |%varavg| %total
---------------------------------------------------------------
Pair    | 213.31     | 215.5      | 217.68     |  14.9 | 79.52
Neigh   | 0          | 0          | 0          |   0.0 |  0.00
Comm    | 2.2659     | 4.4467     | 6.6276     | 103.4 |  1.64
Output  | 0.1417     | 0.14934    | 0.15699    |   2.0 |  0.06
Modify  | 15.154     | 15.163     | 15.172     |   0.2 |  5.60
Other   |            | 35.73      |            |       | 13.19

Nlocal:           5526 ave        5544 max        5508 min
Histogram: 1 0 0 0 0 0 0 0 0 1
Nghost:           8594 ave        8631 max        8557 min
Histogram: 1 0 0 0 0 0 0 0 0 1
Neighs:         234639 ave      235306 max      233972 min
Histogram: 1 0 0 0 0 0 0 0 0 1

Total # of neighbors = 469278
Ave neighs/atom = 42.460912
Neighbor list builds = 0
Dangerous builds = 0
write_data /data/home/yazhuo/Project/GBclaw/projects/proj-20260927-164bf2/artifacts/lammps/neb/neb-20260927-045814-1d9965/neb.replica.$i.final.lmp nocoeff
write_data /data/home/yazhuo/Project/GBclaw/projects/proj-20260927-164bf2/artifacts/lammps/neb/neb-20260927-045814-1d9965/neb.replica.16.final.lmp nocoeff
System init for write_data ...
Total wall time: 0:09:07
