LAMMPS (30 Mar 2026)
Processor partition = 3
OMP_NUM_THREADS environment is not set. Defaulting to 1 thread.
  using 1 OpenMP thread(s) per MPI task
clear
OMP_NUM_THREADS environment is not set. Defaulting to 1 thread.
  using 1 OpenMP thread(s) per MPI task
units metal
dimension 3
atom_style atomic
boundary p p p
atom_modify map array
read_data "/data/home/yazhuo/Project/GBclaw/projects/proj-20260927-164bf2/artifacts/lammps/neb/neb-20260927-045814-1d9965/inputs/initial.lmp"
Reading data file ...
  orthogonal box = (-19.37175 -124.2445 -7.4649) to (19.37175 124.2445 7.4649)
  1 by 2 by 1 MPI processor grid
  reading atoms ...
  11052 atoms
  read_data CPU = 0.045 seconds
neighbor 1.0 bin
neigh_modify delay 0 every 1 check yes
pair_style adp
pair_coeff * * "/data/home/yazhuo/Project/GBclaw/src/tools/potentials/NiCr.adp" Ni
group top_boundary empty
0 atoms in group top_boundary
group top_boundary id 5180 5151 5159 5109 5117 5067 5075 5025 5033 4992 5184 5160 5118 5076 5034 5181 5154 5156 5157 5112 5114 5115 5070 5072 5073 5028 5030 5031 4990 4991 5182 5155 5113 5071 5029 5175 5176 5141 5144 5146 5147 5099 5102 5104 5105 5057 5060 5062 5063 5015 5018 5020 5021 4985 4986 5177 5183 5145 5158 5103 5116 5061 5074 5019 5032 5168 5169 5129 5132 5134 5087 5090 5092 5045 5048 5050 5003 5006 5008 4980 5170 5178 5133 5148 5091 5106 5049 5064 5007 5022 11027 11048 10985 11019 10943 10977 10901 10935 10859 10893
100 atoms in group top_boundary
group top_boundary id 10818 10851 11052 11028 10986 10944 10902 10860 11024 11025 11049 10982 10983 11022 10940 10941 10980 10898 10899 10938 10856 10857 10896 10816 10817 10854 11050 11023 10981 10939 10897 10855 11014 11015 11043 11044 10972 10973 11009 11012 10930 10931 10967 10970 10888 10889 10925 10928 10846 10847 10883 10886 10811 10812 10841 10844 11045 11051 11013 11026 10971 10984 10929 10942 10887 10900 10845 10858 11002 11036 11037 10960 10997 11000 10918 10955 10958 10876 10913 10916 10834 10871 10874 10806 10829 10832 11038 11046 11001 11016 10959 10974 10917 10932 10875 10890 10833 10848
198 atoms in group top_boundary
group bottom_boundary empty
0 atoms in group bottom_boundary
group bottom_boundary id 174 125 83 123 84 32 34 10 177 139 175 140 85 87 46 12 47 160 111 124 68 69 126 67 21 33 35 6 7 164 176 128 129 178 127 73 86 88 37 38 9 11 36 152 161 105 110 58 59 109 112 57 70 15 19 20 22 2 3 156 163 114 115 162 165 113 130 63 71 72 74 24 25 5 8 23 39 151 153 104 56 103 106 55 60 13 14 16 1 155 108 154 157 107 116 61 62 64 18 4
100 atoms in group bottom_boundary
group bottom_boundary id 17 26 5345 5390 5303 5343 5304 5247 5249 5214 5190 5215 5391 5359 5360 5307 5263 5305 5264 5216 5218 5331 5344 5378 5288 5289 5346 5287 5235 5248 5250 5203 5204 5188 5189 5202 5392 5347 5348 5349 5293 5306 5252 5253 5308 5251 5208 5217 5219 5325 5330 5372 5379 5278 5279 5329 5332 5277 5290 5229 5233 5234 5236 5194 5195 5186 5187 5193 5205 5380 5381 5333 5334 5335 5350 5283 5292 5238 5239 5291 5294 5237 5254 5199 5206 5207 5209 5324 5371 5373 5276 5323 5326 5275 5280 5227 5228 5230 5192 5185
200 atoms in group bottom_boundary
group bottom_boundary id 5191 5196 5374 5375 5327 5328 5336 5282 5232 5281 5284 5231 5240 5197 5198 5200
216 atoms in group bottom_boundary
group fixed_xy union top_boundary bottom_boundary
414 atoms in group fixed_xy
variable __gb_neb_count_top_boundary equal count(top_boundary)
variable __gb_neb_count_top_boundary delete
variable __gb_neb_count_bottom_boundary equal count(bottom_boundary)
variable __gb_neb_count_bottom_boundary delete
min_style fire
timestep 0.01
fix neb_path all neb 1
fix hold_boundary_xy fixed_xy setforce 0.0 0.0 NULL
thermo 100
thermo_style custom step part pe fmax fnorm lx ly lz pxx pyy pzz pxy pxz pyz
thermo_modify flush yes
variable i equal part
dump neb_dump all custom 1000 /data/home/yazhuo/Project/GBclaw/projects/proj-20260927-164bf2/artifacts/lammps/neb/neb-20260927-045814-1d9965/neb.replica.$i.lammpstrj id type x y z ix iy iz fx fy fz
dump neb_dump all custom 1000 /data/home/yazhuo/Project/GBclaw/projects/proj-20260927-164bf2/artifacts/lammps/neb/neb-20260927-045814-1d9965/neb.replica.3.lammpstrj id type x y z ix iy iz fx fy fz
dump_modify neb_dump sort id
run 0
WARNING: No fixes with time integration, atoms won't move
For more information see https://docs.lammps.org/err0028 (src/verlet.cpp:60)
Neighbor list info ...
  update: every = 1 steps, delay = 0 steps, check = yes
  max neighbors/atom: 2000, page size: 100000
  master list distance cutoff = 6.168302
  ghost atom cutoff = 6.168302
  binsize = 3.084151, bins = 13 81 5
  1 neighbor lists, perpetual/occasional/extra = 1 0 0
  (1) pair adp, perpetual
      attributes: half, newton on
      pair build: half/bin/atomonly/newton
      stencil: half/bin/3d
      bin: standard
Per MPI rank memory allocation (min/avg/max) = 7.422 | 7.43 | 7.438 Mbytes
   Step        Part         PotEng          Fmax          Fnorm            Lx             Ly             Lz            Pxx            Pyy            Pzz            Pxy            Pxz            Pyz      
         0           3  -48992.796      0.0024845783   0.10363051     38.7435        248.489        14.9298        0.19007438     2.918104      -3.7172695      0.3830234      3.2510357e-05 -0.0010155383 
Loop time of 2.614e-06 on 2 procs for 0 steps with 11052 atoms

76.5% CPU use with 2 MPI tasks x 1 OpenMP threads

MPI task timing breakdown:
Section |  min time  |  avg time  |  max time  |%varavg| %total
---------------------------------------------------------------
Pair    | 0          | 0          | 0          |   0.0 |  0.00
Neigh   | 0          | 0          | 0          |   0.0 |  0.00
Comm    | 0          | 0          | 0          |   0.0 |  0.00
Output  | 0          | 0          | 0          |   0.0 |  0.00
Modify  | 0          | 0          | 0          |   0.0 |  0.00
Other   |            | 2.614e-06  |            |       |100.00

Nlocal:           5526 ave        5544 max        5508 min
Histogram: 1 0 0 0 0 0 0 0 0 1
Nghost:           7959 ave        8011 max        7907 min
Histogram: 1 0 0 0 0 0 0 0 0 1
Neighs:         234603 ave      234962 max      234244 min
Histogram: 1 0 0 0 0 0 0 0 0 1

Total # of neighbors = 469206
Ave neighs/atom = 42.454397
Neighbor list builds = 0
Dangerous builds = 0
neb 0 0.0001 10000 10000 100 final "/data/home/yazhuo/Project/GBclaw/projects/proj-20260927-164bf2/artifacts/lammps/neb/neb-20260927-045814-1d9965/inputs/final.neb.coords" verbosity default
  Parameters for fire:
    dmax  delaystep dtgrow dtshrink alpha0 alphashrink tmax tmin   integrator   halfstepback   abcfire  
     0.1     20      1.1     0.5     0.25     0.99      10  0.02 eulerimplicit      yes          no     
Per MPI rank memory allocation (min/avg/max) = 9.9 | 9.907 | 9.913 Mbytes
   Step        Part         PotEng          Fmax          Fnorm            Lx             Ly             Lz            Pxx            Pyy            Pzz            Pxy            Pxz            Pyz      
         0           3  -48992.534      0.18507041     1.588819       38.7435        248.489        14.9298        21.894451     -79.481535     -60.305248     -15.345859     -1.1716491     -12.049533    
       100           3  -48992.785      0.00030702893  0.0066484813   38.7435        248.489        14.9298        8.1331021     -43.92881      -20.119059      3.5171813     -11.219683     -50.371593    
       200           3  -48992.785      0.00021389281  0.0061571069   38.7435        248.489        14.9298        7.6626844     -39.466089     -19.041197      4.5568272     -6.0113967     -64.659262    
       300           3  -48992.785      0.00016174978  0.0054920773   38.7435        248.489        14.9298        7.3150045     -36.663979     -18.301529      4.9945405     -1.7306285     -76.704849    
       400           3  -48992.786      0.00081813538  0.0055451488   38.7435        248.489        14.9298        7.0220631     -34.483434     -17.692384      5.24031        2.2003651     -87.971136    
       500           3  -48992.786      0.0011603556   0.0086737507   38.7435        248.489        14.9298        6.7557915     -32.659874     -17.152975      5.3873813      5.8417316     -98.510737    
       600           3  -48992.786      0.00010396356  0.0035355552   38.7435        248.489        14.9298        6.5647695     -31.476527     -16.771287      5.4150794      8.3025209     -105.6625     
       700           3  -48992.786      9.6147259e-05  0.0031487617   38.7435        248.489        14.9298        6.3861542     -30.410634     -16.423148      5.431987       10.557368     -112.24586    
       800           3  -48992.786      0.00024788342  0.0031988115   38.7435        248.489        14.9298        6.1703182     -29.16866      -16.007881      5.4343733      13.247283     -120.18278    
       900           3  -48992.786      6.7670567e-05  0.0026862293   38.7435        248.489        14.9298        6.0329        -28.388493     -15.742929      5.4352258      15.090334     -125.77085    
      1000           3  -48992.786      6.5333498e-05  0.0023996852   38.7435        248.489        14.9298        5.9062555     -27.671122     -15.500262      5.4387397      16.88764      -131.34408    
      1100           3  -48992.786      9.6869609e-05  0.002283336    38.7435        248.489        14.9298        5.7729814     -26.926812     -15.244465      5.4284104      18.717743     -137.08852    
      1200           3  -48992.786      4.8581234e-05  0.0021019196   38.7435        248.489        14.9298        5.6904488     -26.450473     -15.084126      5.4308316      20.032496     -141.37084    
      1300           3  -48992.786      4.7107805e-05  0.0019114494   38.7435        248.489        14.9298        5.6147692     -26.013913     -14.936456      5.4242026      21.208846     -145.24818    
      1400           3  -48992.786      4.5750201e-05  0.001709984    38.7435        248.489        14.9298        5.5273191     -25.508926     -14.764503      5.4036078      22.496296     -149.53118    
      1500           3  -48992.786      0.00023851397  0.0017931342   38.7435        248.489        14.9298        5.4457587     -25.033295     -14.601693      5.3727518      23.641824     -153.38668    
      1600           3  -48992.786      4.2175118e-05  0.0014220455   38.7435        248.489        14.9298        5.3834107     -24.664062     -14.475935      5.3418618      24.491967     -156.28241    
      1700           3  -48992.786      6.4140444e-05  0.0013001112   38.7435        248.489        14.9298        5.3103327     -24.22217      -14.325976      5.2971288      25.467002     -159.64764    
      1800           3  -48992.786      3.8128008e-05  0.0011801838   38.7435        248.489        14.9298        5.2489301     -23.840793     -14.197388      5.2515812      26.27079      -162.46409    
      1900           3  -48992.786      0.00019611594  0.0013131466   38.7435        248.489        14.9298        5.1968911     -23.508901     -14.086491      5.2066663      26.941375     -164.84662    
      2000           3  -48992.786      3.4751759e-05  0.0010083468   38.7435        248.489        14.9298        5.1490899     -23.195611     -13.982846      5.1594711      27.54746      -167.02953    
      2100           3  -48992.786      0.0003796826   0.0017385181   38.7435        248.489        14.9298        5.0957208     -22.834775     -13.864483      5.0991039      28.210664     -169.45428    
      2200           3  -48992.786      3.1759993e-05  0.00086337186  38.7435        248.489        14.9298        5.0603461     -22.58831      -13.784364      5.0541087      28.641281     -171.05115    
      2300           3  -48992.786      3.6100031e-05  0.00079976105  38.7435        248.489        14.9298        5.017085      -22.277687     -13.684388      4.9931194      29.15844      -172.99577    
      2400           3  -48992.786      0.0014553604   0.0056241218   38.7435        248.489        14.9298        4.9736818     -21.95242      -13.58107       4.9241149      29.671198     -174.96092    
      2500           3  -48992.786      2.659036e-05   0.00068800251  38.7435        248.489        14.9298        4.9477251     -21.747849     -13.517386      4.8779298      29.981451     -176.17599    
      2600           3  -48992.786      2.4413301e-05  0.00064672723  38.7435        248.489        14.9298        4.9248422     -21.556076     -13.458933      4.8325484      30.267822     -177.32381    
      2700           3  -48992.786      0.00021157342  0.0009777351   38.7435        248.489        14.9298        4.9000856     -21.320809     -13.390443      4.7733647      30.622854     -178.80398    
      2800           3  -48992.786      1.7896391e-05  0.00056928913  38.7435        248.489        14.9298        4.8881442     -21.176085     -13.351562      4.7340641      30.852372     -179.81314    
      2900           3  -48992.786      3.0997385e-05  0.00055985107  38.7435        248.489        14.9298        4.8811811     -21.034214     -13.318233      4.6917387      31.099062     -180.96483    
      3000           3  -48992.786      0.00065946441  0.0025531908   38.7435        248.489        14.9298        4.882547      -20.917376     -13.29792       4.6510659      31.336873     -182.16253    
      3100           3  -48992.786      7.0261502e-05  0.00059326642  38.7435        248.489        14.9298        4.8879597     -20.85445      -13.291662      4.6249661      31.486454     -182.9647     
      3200           3  -48992.786      1.0942114e-05  0.00052843483  38.7435        248.489        14.9298        4.8958358     -20.803721     -13.290096      4.6004267      31.621088     -183.71926    
      3300           3  -48992.786      5.3576729e-05  0.00053577058  38.7435        248.489        14.9298        4.9083971     -20.747982     -13.292206      4.5689974      31.780662     -184.6498     
      3400           3  -48992.786      9.9712172e-06  0.00047720469  38.7435        248.489        14.9298        4.919925      -20.706568     -13.295854      4.5426078      31.901759     -185.37952    
      3500           3  -48992.786      9.220125e-06   0.00044685972  38.7435        248.489        14.9298        4.9323553     -20.665506     -13.300408      4.5144797      32.018412     -186.09921    
      3600           3  -48992.786      8.0981163e-05  0.00050231955  38.7435        248.489        14.9298        4.9462904     -20.620289     -13.305555      4.4820671      32.138318     -186.85478    
      3700           3  -48992.786      7.9889627e-06  0.0003842735   38.7435        248.489        14.9298        4.9565276     -20.586073     -13.309078      4.457084       32.221468     -187.38736    
      3800           3  -48992.786      7.4766988e-06  0.00035838293  38.7435        248.489        14.9298        4.9664066     -20.551478     -13.312129      4.4317308      32.298755     -187.88838    
      3900           3  -48992.786      0.00082847949  0.0030059036   38.7435        248.489        14.9298        4.9816285     -20.493842     -13.315897      4.3897222      32.413343     -188.64158    
      4000           3  -48992.786      0.00017455019  0.00067927652  38.7435        248.489        14.9298        4.9912327     -20.453762     -13.317528      4.3608981      32.483509     -189.10881    
      4100           3  -48992.786      6.1772117e-06  0.00027089907  38.7435        248.489        14.9298        5.0000995     -20.41352      -13.318357      4.3323665      32.547003     -189.53569    
      4200           3  -48992.786      8.2351161e-06  0.00024853235  38.7435        248.489        14.9298        5.0092756     -20.368078     -13.318449      4.3006555      32.611665     -189.97431    
      4300           3  -48992.786      4.566061e-05   0.00027038954  38.7435        248.489        14.9298        5.0188438     -20.316031     -13.317602      4.2649471      32.677876     -190.42795    
      4400           3  -48992.786      6.0981161e-06  0.00020977889  38.7435        248.489        14.9298        5.0257813     -20.275012     -13.316326      4.2372133      32.72496      -190.75374    
      4500           3  -48992.786      6.0409135e-05  0.00027986029  38.7435        248.489        14.9298        5.0338112     -20.223941     -13.314134      4.2031067      32.778312     -191.12656    
      4600           3  -48992.786      3.6779425e-05  0.00021615744  38.7435        248.489        14.9298        5.0397924     -20.183296     -13.311981      4.1762498      32.817031     -191.40006    
      4700           3  -48992.786      5.8605319e-06  0.00016990583  38.7435        248.489        14.9298        5.0458869     -20.139524     -13.309316      4.1475708      32.855358     -191.67376    
      4800           3  -48992.786      5.753421e-06   0.00016010421  38.7435        248.489        14.9298        5.0517541     -20.095288     -13.306339      4.1187899      32.890999     -191.93135    
      4900           3  -48992.786      2.1517225e-05  0.00016324777  38.7435        248.489        14.9298        5.0582838     -20.043906     -13.302601      4.0855445      32.928859     -192.20909    
      5000           3  -48992.786      5.4556564e-06  0.00014265212  38.7435        248.489        14.9298        5.0634704     -20.001812     -13.299379      4.0583961      32.95728      -192.42114    
      5100           3  -48992.786      5.2905604e-06  0.0001355622   38.7435        248.489        14.9298        5.0689466     -19.956575     -13.295827      4.0292462      32.985488     -192.63537    
      5200           3  -48992.786      1.2722116e-05  0.0001334232   38.7435        248.489        14.9298        5.0744013     -19.911187     -13.292229      3.9999622      33.011492     -192.8372     
      5300           3  -48992.786      4.9393556e-06  0.00012387738  38.7435        248.489        14.9298        5.0787945     -19.87477      -13.289362      3.9763905      33.030793     -192.99046    
      5400           3  -48992.786      4.778096e-06   0.00011852893  38.7435        248.489        14.9298        5.0838317     -19.83357      -13.286193      3.9495899      33.05108      -193.15553    
      5500           3  -48992.786      8.2548007e-06  0.00011425292  38.7435        248.489        14.9298        5.0893284     -19.789762     -13.282968      3.9208658      33.070903     -193.32201    
      5600           3  -48992.786      4.3381375e-06  0.00010814534  38.7435        248.489        14.9298        5.0935781     -19.757012     -13.280702      3.8991854      33.084578     -193.44081    
      5700           3  -48992.786      4.1480725e-06  0.00010355486  38.7435        248.489        14.9298        5.0981832     -19.722806     -13.278506      3.876308       33.097868     -193.56019    
      5800           3  -48992.786      7.4658776e-06  9.9923561e-05  38.7435        248.489        14.9298        5.1035151     -19.685086     -13.276342      3.850736       33.111364     -193.68664    
      5900           3  -48992.786      3.7187791e-06  9.3688786e-05  38.7435        248.489        14.9298        5.1082026     -19.65372      -13.274799      3.8291346      33.121672     -193.78795    
      6000           3  -48992.786      3.5271314e-06  8.9272937e-05  38.7435        248.489        14.9298        5.112861      -19.624246     -13.273606      3.8085043      33.130611     -193.88022    
      6100           3  -48992.786      4.3231922e-06  8.4986642e-05  38.7435        248.489        14.9298        5.1179344     -19.594074     -13.272693      3.7869893      33.139012     -193.97193    
      6200           3  -48992.786      3.1501914e-06  8.0589582e-05  38.7435        248.489        14.9298        5.1223521     -19.569412     -13.272219      3.7690544      33.145312     -194.045      
      6300           3  -48992.786      4.9519394e-06  7.640163e-05   38.7435        248.489        14.9298        5.1281073     -19.539408     -13.272026      3.7467456      33.152299     -194.13187    
      6400           3  -48992.786      6.1818899e-06  7.2937381e-05  38.7435        248.489        14.9298        5.1333709     -19.51404      -13.272263      3.7273758      33.157599     -194.20369    
      6500           3  -48992.786      2.5919777e-06  6.7550006e-05  38.7435        248.489        14.9298        5.1377009     -19.494562     -13.272735      3.7121351      33.161286     -194.25797    
      6600           3  -48992.786      2.4297571e-06  6.3640211e-05  38.7435        248.489        14.9298        5.1427481     -19.473317     -13.273577      3.6950978      33.164928     -194.31643    
      6700           3  -48992.786      6.5029289e-06  6.1846177e-05  38.7435        248.489        14.9298        5.1489765     -19.449129     -13.275018      3.6750878      33.168578     -194.38221    
      6800           3  -48992.786      2.1240211e-06  5.5633216e-05  38.7435        248.489        14.9298        5.1536828     -19.43227      -13.276389      3.6606763      33.170791     -194.42769    
      6900           3  -48992.786      2.1431342e-06  5.244494e-05   38.7435        248.489        14.9298        5.1583909     -19.416506     -13.27798       3.6468101      33.172613     -194.47003    
      7000           3  -48992.786      1.0357722e-05  5.9288961e-05  38.7435        248.489        14.9298        5.1638861     -19.399411     -13.280096      3.6312778      33.174308     -194.51588    
      7100           3  -48992.786      1.6973667e-06  4.5921427e-05  38.7435        248.489        14.9298        5.1684898     -19.386106     -13.282071      3.6187737      33.175416     -194.55159    
      7200           3  -48992.786      1.6867653e-06  4.2610918e-05  38.7435        248.489        14.9298        5.1743573     -19.370359     -13.284827      3.6034422      33.176484     -194.59403    
      7300           3  -48992.786      3.6852068e-06  4.1555033e-05  38.7435        248.489        14.9298        5.1794953     -19.357638     -13.287453      3.5905511      33.17714      -194.62855    
      7400           3  -48992.786      1.3479324e-06  3.7247632e-05  38.7435        248.489        14.9298        5.1841526     -19.346894     -13.289989      3.5792595      33.177546     -194.65797    
      7500           3  -48992.786      1.3153251e-06  3.4949772e-05  38.7435        248.489        14.9298        5.1889735     -19.336501     -13.292759      3.5679348      33.177805     -194.68674    
      7600           3  -48992.786      2.8179753e-06  3.2999645e-05  38.7435        248.489        14.9298        5.1950132     -19.324453     -13.296421      3.5542323      33.177934     -194.72059    
      7700           3  -48992.786      1.0581521e-06  3.0178954e-05  38.7435        248.489        14.9298        5.1994333     -19.31629      -13.299231      3.5445309      33.17791      -194.74393    
      7800           3  -48992.786      9.8380324e-07  2.8340192e-05  38.7435        248.489        14.9298        5.2039744     -19.308423     -13.30222       3.534823       33.177799     -194.7668     
      7900           3  -48992.786      2.0408535e-06  2.6918948e-05  38.7435        248.489        14.9298        5.2090398     -19.300238     -13.305672      3.5242883      33.17759      -194.79107    
      8000           3  -48992.786      8.3365379e-07  2.4706768e-05  38.7435        248.489        14.9298        5.2136657     -19.293273     -13.308924      3.5149215      33.177332     -194.81219    
      8100           3  -48992.786      7.7390386e-07  2.3229906e-05  38.7435        248.489        14.9298        5.2180455     -19.287097     -13.312087      3.5062611      33.17704      -194.83134    
      8200           3  -48992.786      2.1453613e-06  2.2550747e-05  38.7435        248.489        14.9298        5.2227979     -19.280829     -13.315604      3.4970796      33.176681     -194.85126    
      8300           3  -48992.786      6.6009115e-07  2.0473039e-05  38.7435        248.489        14.9298        5.2269156     -19.275744     -13.318719      3.4892961      33.176341     -194.86784    
      8400           3  -48992.786      6.0826049e-07  1.921407e-05   38.7435        248.489        14.9298        5.2313679     -19.270579     -13.322154      3.4810453      33.175951     -194.88512    
      8500           3  -48992.786      5.6915319e-07  1.8272257e-05  38.7435        248.489        14.9298        5.2348741     -19.266745     -13.324905      3.4746635      33.175631     -194.89828    
      8600           3  -48992.786      5.3148734e-07  1.7359939e-05  38.7435        248.489        14.9298        5.2384462     -19.263039     -13.327747      3.4682612      33.175297     -194.9113     
      8700           3  -48992.786      1.0542035e-06  1.6437567e-05  38.7435        248.489        14.9298        5.243172      -19.258434     -13.331566      3.4599382      33.174847     -194.92796    
      8800           3  -48992.786      8.751376e-06   3.3850977e-05  38.7435        248.489        14.9298        5.2475456     -19.254457     -13.335156      3.4523766      33.174427     -194.94283    
      8900           3  -48992.786      4.1754301e-07  1.4571176e-05  38.7435        248.489        14.9298        5.2505823     -19.251849     -13.337679      3.4472016      33.174135     -194.95286    
      9000           3  -48992.786      6.702392e-07   1.3842004e-05  38.7435        248.489        14.9298        5.2545058     -19.24865      -13.340973      3.4406005      33.17376      -194.96549    
      9100           3  -48992.786      6.106733e-06   2.4659024e-05  38.7435        248.489        14.9298        5.2585623     -19.24554      -13.344417      3.4338721      33.173378     -194.97817    
      9200           3  -48992.786      3.721219e-07   1.2401926e-05  38.7435        248.489        14.9298        5.2615925     -19.243338     -13.347014      3.4289064      33.173097     -194.98739    
      9300           3  -48992.786      3.3804545e-07  1.1839767e-05  38.7435        248.489        14.9298        5.2646623     -19.24121      -13.349665      3.4239262      33.172818     -194.99653    
      9400           3  -48992.786      7.555807e-07   1.1362842e-05  38.7435        248.489        14.9298        5.2683651     -19.238776     -13.352889      3.4179843      33.17249      -195.00729    
      9453           3  -48992.786      2.7521155e-07  1.0959752e-05  38.7435        248.489        14.9298        5.2696542     -19.237962     -13.354018      3.4159316      33.172378     -195.01097    
Loop time of 275.698 on 2 procs for 9453 steps with 11052 atoms

98.5% CPU use with 2 MPI tasks x 1 OpenMP threads

Minimization stats:
  Stopping criterion = force tolerance
  Energy initial, next-to-last, final = 
     -48992.5343066878  -48992.7859610774    -48992.78596108
  Force two-norm initial, final = 1.588819 1.0959752e-05
  Force max component initial, final = 0.18507041 2.7521155e-07
  Final line search alpha, max atom move = 0 0
  Iterations, force evaluations = 9453 9970

MPI task timing breakdown:
Section |  min time  |  avg time  |  max time  |%varavg| %total
---------------------------------------------------------------
Pair    | 230.21     | 231.35     | 232.49     |   7.5 | 83.92
Neigh   | 0          | 0          | 0          |   0.0 |  0.00
Comm    | 5.5727     | 6.8263     | 8.0798     |  48.0 |  2.48
Output  | 0.15077    | 0.15728    | 0.1638     |   1.6 |  0.06
Modify  | 23.089     | 23.098     | 23.107     |   0.2 |  8.38
Other   |            | 14.26      |            |       |  5.17

Nlocal:           5526 ave        5544 max        5508 min
Histogram: 1 0 0 0 0 0 0 0 0 1
Nghost:         8282.5 ave        8515 max        8050 min
Histogram: 1 0 0 0 0 0 0 0 0 1
Neighs:         234633 ave      235544 max      233722 min
Histogram: 1 0 0 0 0 0 0 0 0 1

Total # of neighbors = 469266
Ave neighs/atom = 42.459826
Neighbor list builds = 0
Dangerous builds = 0
  Parameters for fire:
    dmax  delaystep dtgrow dtshrink alpha0 alphashrink tmax tmin   integrator   halfstepback   abcfire  
     0.1     20      1.1     0.5     0.25     0.99      10  0.02 eulerimplicit      yes          no     
Per MPI rank memory allocation (min/avg/max) = 9.9 | 9.908 | 9.916 Mbytes
   Step        Part         PotEng          Fmax          Fnorm            Lx             Ly             Lz            Pxx            Pyy            Pzz            Pxy            Pxz            Pyz      
      9453           3  -48992.786      2.7521155e-07  1.0959752e-05  38.7435        248.489        14.9298        5.2696542     -19.237962     -13.354018      3.4159316      33.172378     -195.01097    
      9500           3  -48992.786      0.0001211669   0.0046824185   38.7435        248.489        14.9298        5.311394      -19.401039     -13.426456      3.4528273      33.125315     -195.09874    
      9600           3  -48992.785      0.00021764957  0.0073647785   38.7435        248.489        14.9298        5.7862939     -21.408648     -14.292144      3.9002587      32.60218      -196.23081    
      9700           3  -48992.785      0.00016728661  0.0067575802   38.7435        248.489        14.9298        6.1649868     -23.015895     -14.978626      4.2446952      32.215611     -197.16644    
      9800           3  -48992.785      0.00013482988  0.0055146111   38.7435        248.489        14.9298        6.5752621     -24.751843     -15.721251      4.6109504      31.827604     -198.21346    
      9900           3  -48992.784      9.6222058e-05  0.003885318    38.7435        248.489        14.9298        6.9162845     -26.187922     -16.332624      4.9056412      31.553537     -199.19538    
     10000           3  -48992.784      4.8924596e-05  0.0022974256   38.7435        248.489        14.9298        7.1236972     -27.053605     -16.700057      5.0716074      31.451654     -199.98817    
     10100           3  -48992.784      2.1135992e-05  0.00092974374  38.7435        248.489        14.9298        7.215867      -27.427548     -16.859464      5.1271027      31.496562     -200.63602    
     10200           3  -48992.784      0.00011778965  0.00046370438  38.7435        248.489        14.9298        7.2164803     -27.409535     -16.853211      5.0950222      31.661568     -201.18796    
     10300           3  -48992.784      2.7880057e-05  0.00070776746  38.7435        248.489        14.9298        7.1706612     -27.198065     -16.765184      5.0288902      31.839096     -201.53053    
     10400           3  -48992.784      3.2261759e-05  0.00093522907  38.7435        248.489        14.9298        7.1046822     -26.90126      -16.64129       4.9475469      32.027924     -201.8006     
     10500           3  -48992.784      8.2931594e-05  0.00092078783  38.7435        248.489        14.9298        7.0101172     -26.479014     -16.465084      4.8392033      32.264075     -202.07185    
     10600           3  -48992.784      2.0956896e-05  0.000667643    38.7435        248.489        14.9298        6.9483225     -26.202918     -16.350075      4.7708926      32.411936     -202.22871    
     10700           3  -48992.784      1.3094779e-05  0.00041542614  38.7435        248.489        14.9298        6.90742       -26.018875     -16.273782      4.7258975      32.513542     -202.34819    
     10800           3  -48992.784      2.3259777e-05  0.00018408056  38.7435        248.489        14.9298        6.882842      -25.905902     -16.227394      4.6978163      32.585388     -202.4625     
     10900           3  -48992.784      2.1549047e-06  4.7785164e-05  38.7435        248.489        14.9298        6.8757207     -25.870062     -16.213214      4.6876966      32.621771     -202.55675    
     11000           3  -48992.784      1.7386579e-05  0.00010996552  38.7435        248.489        14.9298        6.8772126     -25.871976     -16.21482       4.6858732      32.64288      -202.65021    
     11100           3  -48992.784      6.9695688e-06  0.00011403072  38.7435        248.489        14.9298        6.8822882     -25.890153     -16.223098      4.687621       32.655141     -202.73432    
     11200           3  -48992.784      3.7066414e-05  0.0001586452   38.7435        248.489        14.9298        6.8889926     -25.914568     -16.234069      4.6896456      32.669774     -202.84186    
     11300           3  -48992.784      9.4038671e-07  5.223054e-05   38.7435        248.489        14.9298        6.8910037     -25.920756     -16.237022      4.6888977      32.680378     -202.90173    
     11400           3  -48992.784      8.7020289e-06  4.0371764e-05  38.7435        248.489        14.9298        6.890464      -25.915353     -16.235154      4.6849495      32.697579     -202.97401    
     11500           3  -48992.784      2.0448788e-06  4.563801e-05   38.7435        248.489        14.9298        6.8876009     -25.900843     -16.229322      4.6797914      32.712789     -203.02249    
     11600           3  -48992.784      2.5460139e-06  6.5557914e-05  38.7435        248.489        14.9298        6.8831621     -25.879757     -16.220693      4.6734278      32.728587     -203.06373    
     11700           3  -48992.784      2.9298058e-06  8.0178013e-05  38.7435        248.489        14.9298        6.8759769     -25.846558     -16.207008      4.6642881      32.748627     -203.10713    
     11800           3  -48992.784      6.2111487e-06  8.3949622e-05  38.7435        248.489        14.9298        6.8688037     -25.813856     -16.193491      4.655795       32.765529     -203.13826    
     11900           3  -48992.784      2.5243518e-06  7.8692085e-05  38.7435        248.489        14.9298        6.8634087     -25.789394     -16.183377      4.6496544      32.776905     -203.15702    
     12000           3  -48992.784      2.8164938e-06  7.2076529e-05  38.7435        248.489        14.9298        6.8572682     -25.761617     -16.171901      4.6428519      32.788664     -203.17474    
     12100           3  -48992.784      4.4689733e-06  6.6086307e-05  38.7435        248.489        14.9298        6.8517613     -25.736723     -16.161635      4.6368932      32.798081     -203.18737    
     12200           3  -48992.784      3.5173313e-06  6.1562877e-05  38.7435        248.489        14.9298        6.8478636     -25.719095     -16.15438       4.6327445      32.804054     -203.19422    
     12300           3  -48992.784      1.6922098e-06  5.819064e-05   38.7435        248.489        14.9298        6.8436733     -25.700132     -16.146591      4.6283399      32.809807     -203.19929    
     12400           3  -48992.784      1.6369885e-06  5.7637609e-05  38.7435        248.489        14.9298        6.8401555     -25.684201     -16.14006       4.6246806      32.814123     -203.20146    
     12500           3  -48992.784      3.8647594e-05  0.00016821788  38.7435        248.489        14.9298        6.8346585     -25.659274     -16.129881      4.6190657      32.820103     -203.2011     
     12600           3  -48992.784      2.5209588e-05  0.00011423935  38.7435        248.489        14.9298        6.8314216     -25.644605     -16.123867      4.6156974      32.82328      -203.1989     
     12700           3  -48992.784      1.6663963e-06  6.2532053e-05  38.7435        248.489        14.9298        6.8275233     -25.626891     -16.116646      4.6117289      32.826851     -203.19458    
     12800           3  -48992.784      1.6986851e-06  6.438748e-05   38.7435        248.489        14.9298        6.8227586     -25.605192     -16.107816      4.6068761      32.830889     -203.18712    
     12900           3  -48992.784      1.6836384e-06  6.5178209e-05  38.7435        248.489        14.9298        6.8191741     -25.588807     -16.101168      4.6032296      32.833717     -203.18009    
     13000           3  -48992.784      1.6686609e-06  6.5568106e-05  38.7435        248.489        14.9298        6.8155916     -25.57237      -16.094516      4.5995731      32.836372     -203.17196    
     13100           3  -48992.784      4.2879209e-06  6.6861293e-05  38.7435        248.489        14.9298        6.8112728     -25.552452     -16.086483      4.5951399      32.839349     -203.16071    
     13200           3  -48992.784      1.6152686e-06  6.5152315e-05  38.7435        248.489        14.9298        6.8074451     -25.534682     -16.079347      4.5911778      32.841791     -203.14948    
     13300           3  -48992.784      1.5872888e-06  6.4602025e-05  38.7435        248.489        14.9298        6.8036499     -25.516942     -16.072253      4.5872074      32.844047     -203.13725    
     13400           3  -48992.784      1.5670136e-06  6.4111633e-05  38.7435        248.489        14.9298        6.800548      -25.502338     -16.066439      4.5839234      32.845779     -203.12646    
     13500           3  -48992.784      4.2396711e-06  6.4645445e-05  38.7435        248.489        14.9298        6.7958833     -25.480177     -16.057663      4.5789095      32.848219     -203.10899    
     13600           3  -48992.784      1.4944994e-06  6.2671384e-05  38.7435        248.489        14.9298        6.7930303     -25.466504     -16.052274      4.5757797      32.849628     -203.0976     
     13700           3  -48992.784      1.4715165e-06  6.2061512e-05  38.7435        248.489        14.9298        6.7892872     -25.448405     -16.045177      4.5716093      32.851405     -203.08192    
     13800           3  -48992.784      1.7127895e-05  8.4573282e-05  38.7435        248.489        14.9298        6.7854415     -25.429615     -16.03785       4.5672323      32.853162     -203.065      
     13900           3  -48992.784      1.4260208e-06  6.086647e-05   38.7435        248.489        14.9298        6.7827542     -25.41636      -16.032709      4.5641139      32.854359     -203.05272    
     14000           3  -48992.784      1.4078987e-06  6.0358676e-05  38.7435        248.489        14.9298        6.7800758     -25.403044     -16.027565      4.5609537      32.855532     -203.04013    
     14100           3  -48992.784      1.3819377e-06  5.9567118e-05  38.7435        248.489        14.9298        6.7760588     -25.38286      -16.019813      4.5561087      32.85726      -203.0206     
     14200           3  -48992.784      1.3636125e-06  5.8956447e-05  38.7435        248.489        14.9298        6.7734594     -25.369652     -16.014769      4.5528999      32.858364     -203.00756    
     14300           3  -48992.784      1.3417317e-06  5.8209074e-05  38.7435        248.489        14.9298        6.7703159     -25.353519     -16.008641      4.5489388      32.859686     -202.99138    
     14400           3  -48992.784      1.6564914e-06  5.7482821e-05  38.7435        248.489        14.9298        6.7670592     -25.336606     -16.002255      4.5447341      32.861044     -202.97414    
     14500           3  -48992.784      1.3000968e-06  5.6732605e-05  38.7435        248.489        14.9298        6.7646971     -25.324205     -15.997598      4.5416164      32.862025     -202.96135    
     14600           3  -48992.784      1.2825281e-06  5.6084035e-05  38.7435        248.489        14.9298        6.7623889     -25.311974     -15.993027      4.5385114      32.862981     -202.9486     
     14700           3  -48992.784      1.4478148e-06  5.5243104e-05  38.7435        248.489        14.9298        6.7592439     -25.295114     -15.986763      4.5341814      32.864283     -202.93086    
     14800           3  -48992.784      1.2395166e-06  5.444461e-05   38.7435        248.489        14.9298        6.7568559     -25.282154     -15.981976      4.5308121      32.865274     -202.91709    
     14900           3  -48992.784      1.2194691e-06  5.3652314e-05  38.7435        248.489        14.9298        6.7542962     -25.268106     -15.976817      4.5271201      32.866341     -202.90206    
     15000           3  -48992.784      1.1988113e-06  5.2801868e-05  38.7435        248.489        14.9298        6.7515459     -25.252823     -15.971239      4.5230545      32.867494     -202.88559    
     15100           3  -48992.784      1.178286e-06   5.1999176e-05  38.7435        248.489        14.9298        6.7491607     -25.2394       -15.966369      4.5194411      32.868504     -202.87104    
     15200           3  -48992.784      1.1602553e-06  5.1263994e-05  38.7435        248.489        14.9298        6.7469585     -25.226863     -15.961846      4.5160299      32.869444     -202.85738    
     15300           3  -48992.784      1.1405014e-06  5.0420763e-05  38.7435        248.489        14.9298        6.7444481     -25.212394     -15.956657      4.512049       32.870527     -202.84155    
     15400           3  -48992.784      1.1222666e-06  4.9692021e-05  38.7435        248.489        14.9298        6.7424069     -25.200482     -15.95241       4.5087359      32.871419     -202.82847    
     15500           3  -48992.784      1.1031707e-06  4.8868785e-05  38.7435        248.489        14.9298        6.7400877     -25.186786     -15.947555      4.5048864      32.872444     -202.81338    
     15600           3  -48992.784      1.0844089e-06  4.8074234e-05  38.7435        248.489        14.9298        6.7379091     -25.17375      -15.942962      4.5011825      32.873421     -202.79898    
     15700           3  -48992.784      1.0672038e-06  4.736792e-05   38.7435        248.489        14.9298        6.7360326     -25.162387     -15.93898       4.4979212      32.874273     -202.78639    
     15800           3  -48992.784      1.0495732e-06  4.6611936e-05  38.7435        248.489        14.9298        6.7340398     -25.150177     -15.934725      4.4943841      32.87519      -202.77283    
     15900           3  -48992.784      1.0293243e-06  4.5750494e-05  38.7435        248.489        14.9298        6.7318139     -25.136359     -15.929938      4.4903392      32.87623      -202.75746    
     16000           3  -48992.784      1.0141756e-06  4.5098134e-05  38.7435        248.489        14.9298        6.7301592     -25.125956     -15.926356      4.4872647      32.877014     -202.74586    
     16100           3  -48992.784      9.9757661e-07  4.437577e-05   38.7435        248.489        14.9298        6.7283514     -25.114461     -15.922417      4.4838384      32.877882     -202.73303    
     16200           3  -48992.784      9.7965124e-07  4.3593908e-05  38.7435        248.489        14.9298        6.7264242     -25.102053     -15.918189      4.4801056      32.878821     -202.71915    
     16300           3  -48992.784      9.6465219e-07  4.296203e-05   38.7435        248.489        14.9298        6.7249028     -25.092139     -15.91483       4.4770976      32.879573     -202.70804    
     16400           3  -48992.784      9.4716385e-07  4.2206142e-05  38.7435        248.489        14.9298        6.7230994     -25.080252     -15.910822      4.4734616      32.880476     -202.69471    
     16500           3  -48992.784      9.3138765e-07  4.1485075e-05  38.7435        248.489        14.9298        6.7213653     -25.068675     -15.906941      4.4698893      32.881358     -202.6817     
     16600           3  -48992.784      9.1611589e-07  4.0853459e-05  38.7435        248.489        14.9298        6.7199424     -25.059066     -15.903735      4.4669012      32.882092     -202.6709     
     16700           3  -48992.784      9.0064179e-07  4.0181545e-05  38.7435        248.489        14.9298        6.718406      -25.048576     -15.900253      4.4636161      32.882894     -202.65908    
     16800           3  -48992.784      8.8367194e-07  3.9400102e-05  38.7435        248.489        14.9298        6.716577      -25.035931     -15.896078      4.459624       32.883863     -202.64482    
     16900           3  -48992.784      8.6912158e-07  3.8809355e-05  38.7435        248.489        14.9298        6.7153325     -25.027225     -15.893218      4.4568546      32.884531     -202.63499    
     17000           3  -48992.784      8.5497049e-07  3.8183728e-05  38.7435        248.489        14.9298        6.7139538     -25.017482     -15.890031      4.4537364      32.885281     -202.62397    
     17100           3  -48992.784      8.3978493e-07  3.7512566e-05  38.7435        248.489        14.9298        6.7124876     -25.007006     -15.88662       4.4503614      32.886087     -202.61211    
     17200           3  -48992.784      8.2396371e-07  3.6849379e-05  38.7435        248.489        14.9298        6.7110827     -24.996856     -15.883331      4.4470696      32.88687      -202.60061    
     17300           3  -48992.784      9.710849e-07   3.6315071e-05  38.7435        248.489        14.9298        6.709831      -24.987717     -15.880383      4.4440878      32.887575     -202.59023    
     17400           3  -48992.784      3.7805426e-06  3.760334e-05   38.7435        248.489        14.9298        6.7085068     -24.97795      -15.877246      4.4408826      32.88833      -202.57912    
     17500           3  -48992.784      7.8371079e-07  3.5090505e-05  38.7435        248.489        14.9298        6.7073971     -24.969686     -15.874602      4.4381561      32.888969     -202.56972    
     17600           3  -48992.784      7.6987357e-07  3.4433958e-05  38.7435        248.489        14.9298        6.7060465     -24.959533     -15.871367      4.4347888      32.889755     -202.55814    
     17700           3  -48992.784      1.2359946e-06  3.3985675e-05  38.7435        248.489        14.9298        6.704829      -24.950287     -15.868432      4.4317053      32.890472     -202.54758    
     17800           3  -48992.784      7.439944e-07   3.3343904e-05  38.7435        248.489        14.9298        6.7038484     -24.942777     -15.866057      4.4291894      32.891054     -202.53899    
     17900           3  -48992.784      7.3317295e-07  3.2791705e-05  38.7435        248.489        14.9298        6.702732      -24.934158     -15.86334       4.4262901      32.891723     -202.52911    
     18000           3  -48992.784      7.1670218e-07  3.2145127e-05  38.7435        248.489        14.9298        6.7014405     -24.924098     -15.860181      4.4228903      32.892503     -202.51757    
     18100           3  -48992.784      7.054459e-07   3.1685361e-05  38.7435        248.489        14.9298        6.7005698     -24.917262     -15.858041      4.4205707      32.893034     -202.50972    
     18200           3  -48992.784      6.9543061e-07  3.1242266e-05  38.7435        248.489        14.9298        6.6997069     -24.910445     -15.855912      4.4182504      32.893563     -202.50187    
     18300           3  -48992.784      7.1584108e-06  3.901811e-05   38.7435        248.489        14.9298        6.6985297     -24.901078     -15.852995      4.4150508      32.894291     -202.49107    
     18400           3  -48992.784      6.7194642e-07  3.0220395e-05  38.7435        248.489        14.9298        6.6977415     -24.894764     -15.851034      4.4128866      32.894781     -202.48378    
     18500           3  -48992.784      6.6054437e-07  2.9709369e-05  38.7435        248.489        14.9298        6.6967601     -24.886857     -15.848584      4.4101693      32.895395     -202.47464    
     18600           3  -48992.784      5.1231113e-06  3.3769379e-05  38.7435        248.489        14.9298        6.695752      -24.878686     -15.846058      4.4073525      32.89603      -202.46517    
     18700           3  -48992.784      6.3883912e-07  2.8775085e-05  38.7435        248.489        14.9298        6.6950022     -24.872576     -15.844173      4.4052412      32.896504     -202.45809    
     18782           3  -48992.784      6.2884228e-07  2.833994e-05   38.7435        248.489        14.9298        6.6941862     -24.865898     -15.842117      4.4029289      32.897022     -202.45033    
Loop time of 270.99 on 2 procs for 9329 steps with 11052 atoms

98.6% CPU use with 2 MPI tasks x 1 OpenMP threads

Minimization stats:
  Stopping criterion = force tolerance
  Energy initial, next-to-last, final = 
       -48992.78596108  -48992.7842506725  -48992.7842507144
  Force two-norm initial, final = 1.0959752e-05 2.833994e-05
  Force max component initial, final = 2.7521155e-07 6.2884228e-07
  Final line search alpha, max atom move = 0 0
  Iterations, force evaluations = 9329 9840

MPI task timing breakdown:
Section |  min time  |  avg time  |  max time  |%varavg| %total
---------------------------------------------------------------
Pair    | 226.64     | 227.88     | 229.11     |   8.2 | 84.09
Neigh   | 0          | 0          | 0          |   0.0 |  0.00
Comm    | 5.2428     | 6.5226     | 7.8023     |  50.1 |  2.41
Output  | 0.14971    | 0.15817    | 0.16662    |   2.1 |  0.06
Modify  | 23.163     | 23.171     | 23.18      |   0.2 |  8.55
Other   |            | 13.26      |            |       |  4.89

Nlocal:           5526 ave        5544 max        5508 min
Histogram: 1 0 0 0 0 0 0 0 0 1
Nghost:           8395 ave        8409 max        8381 min
Histogram: 1 0 0 0 0 0 0 0 0 1
Neighs:         234615 ave      235440 max      233790 min
Histogram: 1 0 0 0 0 0 0 0 0 1

Total # of neighbors = 469230
Ave neighs/atom = 42.456569
Neighbor list builds = 0
Dangerous builds = 0
write_data /data/home/yazhuo/Project/GBclaw/projects/proj-20260927-164bf2/artifacts/lammps/neb/neb-20260927-045814-1d9965/neb.replica.$i.final.lmp nocoeff
write_data /data/home/yazhuo/Project/GBclaw/projects/proj-20260927-164bf2/artifacts/lammps/neb/neb-20260927-045814-1d9965/neb.replica.3.final.lmp nocoeff
System init for write_data ...
Total wall time: 0:09:07
