LAMMPS (30 Mar 2026)
Processor partition = 9
OMP_NUM_THREADS environment is not set. Defaulting to 1 thread.
  using 1 OpenMP thread(s) per MPI task
clear
OMP_NUM_THREADS environment is not set. Defaulting to 1 thread.
  using 1 OpenMP thread(s) per MPI task
units metal
dimension 3
atom_style atomic
boundary p p p
atom_modify map array
read_data "/data/home/yazhuo/Project/GBclaw/projects/proj-20260927-164bf2/artifacts/lammps/neb/neb-20260927-045814-1d9965/inputs/initial.lmp"
Reading data file ...
  orthogonal box = (-19.37175 -124.2445 -7.4649) to (19.37175 124.2445 7.4649)
  1 by 2 by 1 MPI processor grid
  reading atoms ...
  11052 atoms
  read_data CPU = 0.045 seconds
neighbor 1.0 bin
neigh_modify delay 0 every 1 check yes
pair_style adp
pair_coeff * * "/data/home/yazhuo/Project/GBclaw/src/tools/potentials/NiCr.adp" Ni
group top_boundary empty
0 atoms in group top_boundary
group top_boundary id 5180 5151 5159 5109 5117 5067 5075 5025 5033 4992 5184 5160 5118 5076 5034 5181 5154 5156 5157 5112 5114 5115 5070 5072 5073 5028 5030 5031 4990 4991 5182 5155 5113 5071 5029 5175 5176 5141 5144 5146 5147 5099 5102 5104 5105 5057 5060 5062 5063 5015 5018 5020 5021 4985 4986 5177 5183 5145 5158 5103 5116 5061 5074 5019 5032 5168 5169 5129 5132 5134 5087 5090 5092 5045 5048 5050 5003 5006 5008 4980 5170 5178 5133 5148 5091 5106 5049 5064 5007 5022 11027 11048 10985 11019 10943 10977 10901 10935 10859 10893
100 atoms in group top_boundary
group top_boundary id 10818 10851 11052 11028 10986 10944 10902 10860 11024 11025 11049 10982 10983 11022 10940 10941 10980 10898 10899 10938 10856 10857 10896 10816 10817 10854 11050 11023 10981 10939 10897 10855 11014 11015 11043 11044 10972 10973 11009 11012 10930 10931 10967 10970 10888 10889 10925 10928 10846 10847 10883 10886 10811 10812 10841 10844 11045 11051 11013 11026 10971 10984 10929 10942 10887 10900 10845 10858 11002 11036 11037 10960 10997 11000 10918 10955 10958 10876 10913 10916 10834 10871 10874 10806 10829 10832 11038 11046 11001 11016 10959 10974 10917 10932 10875 10890 10833 10848
198 atoms in group top_boundary
group bottom_boundary empty
0 atoms in group bottom_boundary
group bottom_boundary id 174 125 83 123 84 32 34 10 177 139 175 140 85 87 46 12 47 160 111 124 68 69 126 67 21 33 35 6 7 164 176 128 129 178 127 73 86 88 37 38 9 11 36 152 161 105 110 58 59 109 112 57 70 15 19 20 22 2 3 156 163 114 115 162 165 113 130 63 71 72 74 24 25 5 8 23 39 151 153 104 56 103 106 55 60 13 14 16 1 155 108 154 157 107 116 61 62 64 18 4
100 atoms in group bottom_boundary
group bottom_boundary id 17 26 5345 5390 5303 5343 5304 5247 5249 5214 5190 5215 5391 5359 5360 5307 5263 5305 5264 5216 5218 5331 5344 5378 5288 5289 5346 5287 5235 5248 5250 5203 5204 5188 5189 5202 5392 5347 5348 5349 5293 5306 5252 5253 5308 5251 5208 5217 5219 5325 5330 5372 5379 5278 5279 5329 5332 5277 5290 5229 5233 5234 5236 5194 5195 5186 5187 5193 5205 5380 5381 5333 5334 5335 5350 5283 5292 5238 5239 5291 5294 5237 5254 5199 5206 5207 5209 5324 5371 5373 5276 5323 5326 5275 5280 5227 5228 5230 5192 5185
200 atoms in group bottom_boundary
group bottom_boundary id 5191 5196 5374 5375 5327 5328 5336 5282 5232 5281 5284 5231 5240 5197 5198 5200
216 atoms in group bottom_boundary
group fixed_xy union top_boundary bottom_boundary
414 atoms in group fixed_xy
variable __gb_neb_count_top_boundary equal count(top_boundary)
variable __gb_neb_count_top_boundary delete
variable __gb_neb_count_bottom_boundary equal count(bottom_boundary)
variable __gb_neb_count_bottom_boundary delete
min_style fire
timestep 0.01
fix neb_path all neb 1
fix hold_boundary_xy fixed_xy setforce 0.0 0.0 NULL
thermo 100
thermo_style custom step part pe fmax fnorm lx ly lz pxx pyy pzz pxy pxz pyz
thermo_modify flush yes
variable i equal part
dump neb_dump all custom 1000 /data/home/yazhuo/Project/GBclaw/projects/proj-20260927-164bf2/artifacts/lammps/neb/neb-20260927-045814-1d9965/neb.replica.$i.lammpstrj id type x y z ix iy iz fx fy fz
dump neb_dump all custom 1000 /data/home/yazhuo/Project/GBclaw/projects/proj-20260927-164bf2/artifacts/lammps/neb/neb-20260927-045814-1d9965/neb.replica.9.lammpstrj id type x y z ix iy iz fx fy fz
dump_modify neb_dump sort id
run 0
WARNING: No fixes with time integration, atoms won't move
For more information see https://docs.lammps.org/err0028 (src/verlet.cpp:60)
Neighbor list info ...
  update: every = 1 steps, delay = 0 steps, check = yes
  max neighbors/atom: 2000, page size: 100000
  master list distance cutoff = 6.168302
  ghost atom cutoff = 6.168302
  binsize = 3.084151, bins = 13 81 5
  1 neighbor lists, perpetual/occasional/extra = 1 0 0
  (1) pair adp, perpetual
      attributes: half, newton on
      pair build: half/bin/atomonly/newton
      stencil: half/bin/3d
      bin: standard
Per MPI rank memory allocation (min/avg/max) = 7.422 | 7.43 | 7.438 Mbytes
   Step        Part         PotEng          Fmax          Fnorm            Lx             Ly             Lz            Pxx            Pyy            Pzz            Pxy            Pxz            Pyz      
         0           9  -48992.796      0.0024845783   0.10363051     38.7435        248.489        14.9298        0.19007438     2.918104      -3.7172695      0.3830234      3.2510357e-05 -0.0010155383 
Loop time of 2.687e-06 on 2 procs for 0 steps with 11052 atoms

74.4% CPU use with 2 MPI tasks x 1 OpenMP threads

MPI task timing breakdown:
Section |  min time  |  avg time  |  max time  |%varavg| %total
---------------------------------------------------------------
Pair    | 0          | 0          | 0          |   0.0 |  0.00
Neigh   | 0          | 0          | 0          |   0.0 |  0.00
Comm    | 0          | 0          | 0          |   0.0 |  0.00
Output  | 0          | 0          | 0          |   0.0 |  0.00
Modify  | 0          | 0          | 0          |   0.0 |  0.00
Other   |            | 2.687e-06  |            |       |100.00

Nlocal:           5526 ave        5544 max        5508 min
Histogram: 1 0 0 0 0 0 0 0 0 1
Nghost:           7959 ave        8011 max        7907 min
Histogram: 1 0 0 0 0 0 0 0 0 1
Neighs:         234603 ave      234962 max      234244 min
Histogram: 1 0 0 0 0 0 0 0 0 1

Total # of neighbors = 469206
Ave neighs/atom = 42.454397
Neighbor list builds = 0
Dangerous builds = 0
neb 0 0.0001 10000 10000 100 final "/data/home/yazhuo/Project/GBclaw/projects/proj-20260927-164bf2/artifacts/lammps/neb/neb-20260927-045814-1d9965/inputs/final.neb.coords" verbosity default
  Parameters for fire:
    dmax  delaystep dtgrow dtshrink alpha0 alphashrink tmax tmin   integrator   halfstepback   abcfire  
     0.1     20      1.1     0.5     0.25     0.99      10  0.02 eulerimplicit      yes          no     
Per MPI rank memory allocation (min/avg/max) = 9.901 | 9.909 | 9.917 Mbytes
   Step        Part         PotEng          Fmax          Fnorm            Lx             Ly             Lz            Pxx            Pyy            Pzz            Pxy            Pxz            Pyz      
         0           9  -48992.023      0.30914473     2.4156438      38.7435        248.489        14.9298        88.594886     -294.66622     -143.16492     -48.520249     -5.999686       46.989481    
       100           9  -48992.736      0.0011095501   0.017620678    38.7435        248.489        14.9298        99.830518     -338.68618     -117.91771      16.535767     -37.505953     -30.934475    
       200           9  -48992.738      0.00029652543  0.013685699    38.7435        248.489        14.9298        97.303715     -333.95132     -118.85547      28.233289     -30.858492     -59.227846    
       300           9  -48992.739      0.00012438272  0.011115165    38.7435        248.489        14.9298        96.889263     -332.68022     -119.59084      33.313885     -26.482535     -76.109932    
       400           9  -48992.739      0.00010207992  0.0089857368   38.7435        248.489        14.9298        96.989088     -332.47011     -120.21897      36.301929     -22.921062     -89.112948    
       500           9  -48992.738      0.00019393396  0.0072606832   38.7435        248.489        14.9298        97.184942     -332.53358     -120.69127      38.21708      -19.918965     -99.748777    
       600           9  -48992.738      6.7088712e-05  0.0056240395   38.7435        248.489        14.9298        97.290556     -332.57058     -120.90772      39.05389      -18.055107     -106.21956    
       700           9  -48992.738      5.6843436e-05  0.0045679694   38.7435        248.489        14.9298        97.4112       -332.70188     -121.00652      39.185565     -16.542074     -111.27102    
       800           9  -48992.738      0.00032222895  0.0047204845   38.7435        248.489        14.9298        97.96094      -333.90512     -120.87427      36.524428     -15.441872     -113.76249    
       900           9  -48992.736      0.00045539478  0.0050140473   38.7435        248.489        14.9298        98.95103      -336.54842     -120.35168      29.980474     -15.725795     -110.02439    
      1000           9  -48992.735      0.00035294203  0.0041252993   38.7435        248.489        14.9298        99.87109      -339.65239     -119.33731      20.711904     -16.491004     -103.70306    
      1100           9  -48992.734      5.1197576e-05  0.0036722668   38.7435        248.489        14.9298        100.37556     -341.81403     -118.65728      14.680173     -16.492834     -101.02095    
      1200           9  -48992.733      3.8325558e-05  0.003181078    38.7435        248.489        14.9298        100.51255     -342.57468     -118.54452      13.380838     -15.812933     -102.60888    
      1300           9  -48992.733      3.4258049e-05  0.0027593149   38.7435        248.489        14.9298        100.51197     -342.87213     -118.49399      12.960149     -15.04402      -104.9991     
      1400           9  -48992.733      4.1256543e-05  0.0023648035   38.7435        248.489        14.9298        100.40253     -342.88392     -118.45551      12.968905     -14.093887     -108.28725    
      1500           9  -48992.733      4.4001731e-05  0.0020632386   38.7435        248.489        14.9298        100.22376     -342.66773     -118.4194       13.254043     -13.163436     -111.69398    
      1600           9  -48992.733      4.3982537e-05  0.0018592478   38.7435        248.489        14.9298        100.047       -342.39078     -118.38527      13.577266     -12.42048      -114.48369    
      1700           9  -48992.733      4.2526362e-05  0.0016361905   38.7435        248.489        14.9298        99.79854      -341.96129     -118.33021      14.024941     -11.511048     -117.94868    
      1800           9  -48992.733      4.0634025e-05  0.001455604    38.7435        248.489        14.9298        99.55412      -341.51901     -118.26537      14.431583     -10.71392      -121.01861    
      1900           9  -48992.733      3.8324062e-05  0.0013057233   38.7435        248.489        14.9298        99.320314     -341.08959     -118.19292      14.78008      -10.018421     -123.71955    
      2000           9  -48992.733      3.5767464e-05  0.0011709631   38.7435        248.489        14.9298        99.081284     -340.65048     -118.10764      15.089902     -9.3685619     -126.26635    
      2100           9  -48992.734      3.2182705e-05  0.0010265679   38.7435        248.489        14.9298        98.784402     -340.11095     -117.98482      15.403766     -8.6418637     -129.14999    
      2200           9  -48992.734      2.9016894e-05  0.00093642926  38.7435        248.489        14.9298        98.570216     -339.72837     -117.88362      15.574851     -8.1688099     -131.05309    
      2300           9  -48992.734      2.3598942e-05  0.00083117863  38.7435        248.489        14.9298        98.29175      -339.24284     -117.73414      15.714792     -7.6114331     -133.32705    
      2400           9  -48992.734      1.8312517e-05  0.00071847286  38.7435        248.489        14.9298        98.001083     -338.75908     -117.54882      15.720813     -7.0903608     -135.48566    
      2500           9  -48992.734      1.6168412e-05  0.0006365878   38.7435        248.489        14.9298        97.829933     -338.49516     -117.41662      15.609892     -6.8043671     -136.67733    
      2600           9  -48992.734      1.2849301e-05  0.0005577949   38.7435        248.489        14.9298        97.688927     -338.30279     -117.28284      15.395054     -6.5688149     -137.64934    
      2700           9  -48992.734      9.6730921e-06  0.00052763533  38.7435        248.489        14.9298        97.562437     -338.18917     -117.11227      14.954148     -6.3198134     -138.63574    
      2800           9  -48992.734      1.3211012e-05  0.00061712693  38.7435        248.489        14.9298        97.526475     -338.22417     -117.01114      14.578266     -6.178812      -139.14931    
      2900           9  -48992.734      1.3574832e-05  0.0008050371   38.7435        248.489        14.9298        97.542468     -338.38143     -116.92731      14.144964     -6.0278509     -139.64604    
      3000           9  -48992.734      1.22373e-05    0.00098078624  38.7435        248.489        14.9298        97.60705      -338.62896     -116.89252      13.845529     -5.8412519     -140.25383    
      3100           9  -48992.734      1.2684627e-05  0.0010574147   38.7435        248.489        14.9298        97.66215      -338.80542     -116.8992       13.788669     -5.679534      -140.80955    
      3200           9  -48992.733      1.2925709e-05  0.0010937059   38.7435        248.489        14.9298        97.711418     -338.95548     -116.92431      13.862613     -5.489558      -141.4941     
      3300           9  -48992.733      1.2994055e-05  0.0010965473   38.7435        248.489        14.9298        97.756629     -339.09672     -116.97296      14.123972     -5.1969661     -142.59103    
      3400           9  -48992.733      1.289526e-05   0.0010727091   38.7435        248.489        14.9298        97.773613     -339.16383     -117.01823      14.447424     -4.9191796     -143.65942    
      3500           9  -48992.733      1.3285131e-05  0.001032884    38.7435        248.489        14.9298        97.770434     -339.18767     -117.06405      14.853615     -4.6030357     -144.8937     
      3600           9  -48992.733      1.5054177e-05  0.00097503871  38.7435        248.489        14.9298        97.742046     -339.16348     -117.10826      15.360144     -4.225319      -146.38592    
      3700           9  -48992.733      1.5600537e-05  0.00092668888  38.7435        248.489        14.9298        97.704926     -339.11509     -117.13416      15.757034     -3.9317097     -147.55625    
      3800           9  -48992.733      1.5984653e-05  0.00087634592  38.7435        248.489        14.9298        97.656342     -339.046       -117.15266      16.153165     -3.6362857     -148.74206    
      3900           9  -48992.733      1.5978761e-05  0.00079276641  38.7435        248.489        14.9298        97.556478     -338.89845     -117.16627      16.77907      -3.1604126     -150.67172    
      4000           9  -48992.733      1.5332607e-05  0.00073623163  38.7435        248.489        14.9298        97.476904     -338.77984     -117.16383      17.178172     -2.8488571     -151.95133    
      4100           9  -48992.733      1.4869629e-05  0.00068244678  38.7435        248.489        14.9298        97.391673     -338.65356     -117.15218      17.542435     -2.5563816     -153.16753    
      4200           9  -48992.733      1.3834787e-05  0.00062473501  38.7435        248.489        14.9298        97.291376     -338.50638     -117.12987      17.911489     -2.2516496     -154.45428    
      4300           9  -48992.734      1.2622789e-05  0.00056387387  38.7435        248.489        14.9298        97.174        -338.33702     -117.0939       18.278297     -1.9370734     -155.8099     
      4400           9  -48992.734      1.1616055e-05  0.00051977298  38.7435        248.489        14.9298        97.080957     -338.20524     -117.05887      18.527238     -1.7151814     -156.78907    
      4500           9  -48992.734      1.0317136e-05  0.00046954524  38.7435        248.489        14.9298        96.965675     -338.04499     -117.00863      18.792364     -1.4696222     -157.90319    
      4600           9  -48992.734      9.2826811e-06  0.00043333485  38.7435        248.489        14.9298        96.87507      -337.92159     -116.96408      18.969413     -1.2984091     -158.70718    
      4700           9  -48992.734      8.2650481e-06  0.0003982747   38.7435        248.489        14.9298        96.779184     -337.79354     -116.91223      19.128062     -1.1380637     -159.49115    
      4800           9  -48992.734      7.1862539e-06  0.00036645593  38.7435        248.489        14.9298        96.684424     -337.6696      -116.85656      19.257729     -0.99998181    -160.20183    
      4900           9  -48992.734      6.3567073e-06  0.00033429564  38.7435        248.489        14.9298        96.577574     -337.53322     -116.78838      19.371646     -0.86928314    -160.92614    
      5000           9  -48992.734      6.1703331e-06  0.00031155479  38.7435        248.489        14.9298        96.492939     -337.42796     -116.73022      19.437251     -0.78560759    -161.43983    
      5100           9  -48992.734      5.918228e-06   0.0002903575   38.7435        248.489        14.9298        96.405035     -337.32134     -116.66595      19.482515     -0.71808131    -161.9156     
      5200           9  -48992.734      5.6207416e-06  0.00027226614  38.7435        248.489        14.9298        96.320269     -337.22144     -116.59999      19.502833     -0.67358307    -162.31373    
      5300           9  -48992.734      5.3525501e-06  0.00025967005  38.7435        248.489        14.9298        96.254881     -337.14655     -116.54625      19.501895     -0.65446528    -162.57651    
      5400           9  -48992.734      5.0202808e-06  0.00024707568  38.7435        248.489        14.9298        96.183753     -337.06744     -116.48485      19.483836     -0.64993626    -162.81524    
      5500           9  -48992.734      4.6412233e-06  0.00023532597  38.7435        248.489        14.9298        96.111604     -336.99007     -116.4191       19.445669     -0.66507811    -163.00054    
      5600           9  -48992.734      4.3420939e-06  0.00022726079  38.7435        248.489        14.9298        96.060098     -336.93687     -116.3698       19.405004     -0.68982298    -163.09275    
      5700           9  -48992.734      4.0165842e-06  0.00021921852  38.7435        248.489        14.9298        96.008545     -336.88555     -116.31832      19.352222     -0.72757632    -163.14772    
      5800           9  -48992.734      3.6449359e-06  0.00021053456  38.7435        248.489        14.9298        95.954452     -336.83415     -116.26167      19.282279     -0.7833566     -163.15884    
      5900           9  -48992.734      3.3284344e-06  0.00020323867  38.7435        248.489        14.9298        95.911737     -336.79567     -116.21479      19.215234     -0.84104692    -163.12822    
      6000           9  -48992.734      3.0264314e-06  0.00019617718  38.7435        248.489        14.9298        95.873495     -336.76308     -116.171        19.145406     -0.90451238    -163.06646    
      6100           9  -48992.734      2.7295533e-06  0.00018857922  38.7435        248.489        14.9298        95.836299     -336.73341     -116.12651      19.067392     -0.97878896    -162.96967    
      6200           9  -48992.734      2.5481208e-06  0.00018196919  38.7435        248.489        14.9298        95.807401     -336.71203     -116.09043      18.998966     -1.0464941     -162.86495    
      6300           9  -48992.734      2.3214288e-06  0.0001733537   38.7435        248.489        14.9298        95.774052     -336.68956     -116.04695      18.910589     -1.1371416     -162.70674    
      6400           9  -48992.734      2.1600268e-06  0.00016546553  38.7435        248.489        14.9298        95.747485     -336.6738      -116.01057      18.831679     -1.2210788     -162.54525    
      6500           9  -48992.734      2.142927e-06   0.00015897794  38.7435        248.489        14.9298        95.728093     -336.66376     -115.9829       18.768793     -1.2899891     -162.40391    
      6600           9  -48992.734      2.1054587e-06  0.00015144663  38.7435        248.489        14.9298        95.707919     -336.6549      -115.95298      18.698208     -1.3694398     -162.23262    
      6700           9  -48992.734      2.0377301e-06  0.00014222879  38.7435        248.489        14.9298        95.686191     -336.64758     -115.91926      18.615673     -1.4652801     -162.01539    
      6800           9  -48992.734      1.9735475e-06  0.00013532748  38.7435        248.489        14.9298        95.671833     -336.64435     -115.89596      18.55701      -1.535485      -161.84938    
      6900           9  -48992.734      1.9007201e-06  0.00012852149  38.7435        248.489        14.9298        95.65895      -336.64273     -115.87431      18.501614     -1.6034976     -161.68351    
      7000           9  -48992.734      1.8070466e-06  0.00012071202  38.7435        248.489        14.9298        95.645547     -336.64258     -115.85097      18.441198     -1.6797476     -161.49179    
      7100           9  -48992.734      1.7230339e-06  0.00011429889  38.7435        248.489        14.9298        95.635495     -336.64369     -115.83288      18.394163     -1.7408007     -161.33392    
      7200           9  -48992.734      1.6108302e-06  0.00010632399  38.7435        248.489        14.9298        95.623963     -336.64642     -115.8115       18.338817     -1.8147791     -161.13754    
      7300           9  -48992.734      1.5094292e-06  9.9543348e-05  38.7435        248.489        14.9298        95.614884     -336.6498      -115.79422      18.294711     -1.8757774     -160.97118    
      7400           9  -48992.734      1.4161058e-06  9.3574261e-05  38.7435        248.489        14.9298        95.607325     -336.65352     -115.77958      18.258135     -1.9279894     -160.82549    
      7500           9  -48992.734      1.3190125e-06  8.7584315e-05  38.7435        248.489        14.9298        95.600052     -336.65787     -115.76534      18.223573     -1.9789546     -160.68019    
      7600           9  -48992.734      1.1978647e-06  8.0363885e-05  38.7435        248.489        14.9298        95.591577     -336.66389     -115.74865      18.184893     -2.0383664     -160.50664    
      7700           9  -48992.734      1.1103358e-06  7.5291449e-05  38.7435        248.489        14.9298        95.585733     -336.66858     -115.73718      18.159851     -2.0786402     -160.38609    
      7800           9  -48992.734      1.0219255e-06  7.0275182e-05  38.7435        248.489        14.9298        95.579958     -336.67358     -115.72596      18.136823     -2.1173004     -160.26797    
      7900           9  -48992.734      9.2563308e-07  6.4915266e-05  38.7435        248.489        14.9298        95.573717     -336.67928     -115.71404      18.114306     -2.1571735     -160.14332    
      8000           9  -48992.734      8.4028193e-07  6.0244691e-05  38.7435        248.489        14.9298        95.568137     -336.68454     -115.70364      18.096572     -2.1906327     -160.03615    
      8100           9  -48992.734      7.6205262e-07  5.6023867e-05  38.7435        248.489        14.9298        95.562907     -336.68951     -115.69416      18.082179     -2.2197701     -159.94058    
      8200           9  -48992.734      6.917483e-07   5.1671893e-05  38.7435        248.489        14.9298        95.55724      -336.69485     -115.68423      18.069118     -2.2486333     -159.84345    
      8300           9  -48992.734      6.5298745e-07  4.8094973e-05  38.7435        248.489        14.9298        95.552298     -336.69939     -115.67588      18.059891     -2.2713626     -159.76485    
      8400           9  -48992.734      6.1030606e-07  4.4429737e-05  38.7435        248.489        14.9298        95.546886     -336.70418     -115.66707      18.05198      -2.2936576     -159.68556    
      8500           9  -48992.734      5.7636516e-07  4.1693465e-05  38.7435        248.489        14.9298        95.542552     -336.70785     -115.66026      18.047225     -2.3095702     -159.6273     
      8600           9  -48992.734      5.4166326e-07  3.9042745e-05  38.7435        248.489        14.9298        95.538053     -336.71147     -115.65344      18.043675     -2.324324      -159.57172    
      8700           9  -48992.734      4.9583985e-07  3.5749204e-05  38.7435        248.489        14.9298        95.531943     -336.71606     -115.64453      18.040934     -2.3416248     -159.50404    
      8800           9  -48992.734      4.5378617e-07  3.291756e-05   38.7435        248.489        14.9298        95.526101     -336.72009     -115.63638      18.040309     -2.3554509     -159.44729    
      8900           9  -48992.734      4.2495031e-07  3.1073426e-05  38.7435        248.489        14.9298        95.521924     -336.72274     -115.63076      18.040914     -2.363851      -159.41117    
      9000           9  -48992.734      3.8825986e-07  2.8836143e-05  38.7435        248.489        14.9298        95.51637      -336.726       -115.62351      18.042886     -2.3733227     -159.36836    
      9100           9  -48992.734      3.606486e-07   2.6692802e-05  38.7435        248.489        14.9298        95.510424     -336.72914     -115.61603      18.046297     -2.3815148     -159.32864    
      9200           9  -48992.734      3.4510172e-07  2.5202058e-05  38.7435        248.489        14.9298        95.505838     -336.73133     -115.61043      18.04971      -2.3866193     -159.3019     
      9300           9  -48992.734      3.294104e-07   2.3785065e-05  38.7435        248.489        14.9298        95.50106      -336.73342     -115.60473      18.053896     -2.3909313     -159.27733    
      9400           9  -48992.734      3.1062401e-07  2.2196265e-05  38.7435        248.489        14.9298        95.495105     -336.73575     -115.59782      18.059903     -2.3950058     -159.25107    
      9453           9  -48992.734      3.0414292e-07  2.1673415e-05  38.7435        248.489        14.9298        95.492981     -336.7365      -115.5954       18.062232     -2.3961445     -159.24278    
Loop time of 275.698 on 2 procs for 9453 steps with 11052 atoms

98.3% CPU use with 2 MPI tasks x 1 OpenMP threads

Minimization stats:
  Stopping criterion = force tolerance
  Energy initial, next-to-last, final = 
      -48992.022538808   -48992.734056139  -48992.7340561333
  Force two-norm initial, final = 2.4156438 2.1673415e-05
  Force max component initial, final = 0.30914473 3.0414292e-07
  Final line search alpha, max atom move = 0 0
  Iterations, force evaluations = 9453 9970

MPI task timing breakdown:
Section |  min time  |  avg time  |  max time  |%varavg| %total
---------------------------------------------------------------
Pair    | 231.62     | 232.44     | 233.26     |   5.4 | 84.31
Neigh   | 0          | 0          | 0          |   0.0 |  0.00
Comm    | 5.347      | 6.1318     | 6.9166     |  31.7 |  2.22
Output  | 0.1505     | 0.15761    | 0.16473    |   1.8 |  0.06
Modify  | 26.59      | 26.593     | 26.595     |   0.1 |  9.65
Other   |            | 10.37      |            |       |  3.76

Nlocal:           5526 ave        5544 max        5508 min
Histogram: 1 0 0 0 0 0 0 0 0 1
Nghost:           8594 ave        8631 max        8557 min
Histogram: 1 0 0 0 0 0 0 0 0 1
Neighs:         234675 ave      235488 max      233862 min
Histogram: 1 0 0 0 0 0 0 0 0 1

Total # of neighbors = 469350
Ave neighs/atom = 42.467427
Neighbor list builds = 0
Dangerous builds = 0
  Parameters for fire:
    dmax  delaystep dtgrow dtshrink alpha0 alphashrink tmax tmin   integrator   halfstepback   abcfire  
     0.1     20      1.1     0.5     0.25     0.99      10  0.02 eulerimplicit      yes          no     
Per MPI rank memory allocation (min/avg/max) = 9.901 | 9.909 | 9.917 Mbytes
   Step        Part         PotEng          Fmax          Fnorm            Lx             Ly             Lz            Pxx            Pyy            Pzz            Pxy            Pxz            Pyz      
      9453           9  -48992.734      0.002474831    0.017304037    38.7435        248.489        14.9298        95.492981     -336.7365      -115.5954       18.062232     -2.3961445     -159.24278    
      9500           9  -48992.729      0.0014879988   0.025057684    38.7435        248.489        14.9298        99.696893     -346.29457     -113.65588     -5.1036613     -6.4173163     -135.35456    
      9600           9  -48992.721      0.001004514    0.021965103    38.7435        248.489        14.9298        107.78513     -358.93745     -112.50008     -30.005419     -10.904171     -104.27716    
      9700           9  -48992.717      0.00089720726  0.018601716    38.7435        248.489        14.9298        113.52966     -364.69563     -111.3864      -44.718063     -13.700707     -85.218228    
      9800           9  -48992.713      0.00089866398  0.013814237    38.7435        248.489        14.9298        119.9972      -369.32878     -109.96047     -59.930801     -17.051813     -64.621353    
      9900           9  -48992.711      0.00087315592  0.0086316078   38.7435        248.489        14.9298        125.69463     -372.96666     -108.76375     -72.49993      -20.499271     -46.6867      
     10000           9  -48992.71       0.00076061594  0.005048389    38.7435        248.489        14.9298        129.2533      -376.26016     -108.2642      -80.481256     -23.277003     -35.014327    
     10100           9  -48992.71       0.00057083354  0.0044588417   38.7435        248.489        14.9298        130.80588     -379.381       -108.36755     -84.630221     -25.233445     -29.044688    
     10200           9  -48992.711      0.00032273822  0.0053055857   38.7435        248.489        14.9298        130.86917     -381.88763     -108.85336     -85.69827      -26.394801     -27.531821    
     10300           9  -48992.711      0.0001381606   0.0054370319   38.7435        248.489        14.9298        130.34424     -382.87405     -109.30862     -84.807316     -26.758934     -28.477659    
     10400           9  -48992.711      8.3576436e-05  0.0049191561   38.7435        248.489        14.9298        129.71896     -382.98443     -109.72398     -83.017213     -26.808261     -30.180071    
     10500           9  -48992.711      0.00011791293  0.0035680264   38.7435        248.489        14.9298        129.07969     -382.16904     -110.17036     -80.023314     -26.657031     -32.362309    
     10600           9  -48992.711      0.00014036869  0.0024231138   38.7435        248.489        14.9298        128.86296     -381.24269     -110.43533     -77.776495     -26.555967     -33.310272    
     10700           9  -48992.711      0.0001245771   0.0015861861   38.7435        248.489        14.9298        128.87949     -380.4767      -110.63842     -76.036534     -26.569672     -33.406914    
     10800           9  -48992.711      8.5017226e-05  0.0010807225   38.7435        248.489        14.9298        129.09067     -379.93297     -110.82745     -74.665426     -26.742308     -32.691525    
     10900           9  -48992.711      4.6015365e-05  0.00089607576  38.7435        248.489        14.9298        129.37869     -379.74377     -110.97455     -73.915302     -27.019446     -31.540572    
     11000           9  -48992.711      2.5114276e-05  0.00077167383  38.7435        248.489        14.9298        129.70635     -379.77545     -111.11216     -73.495211     -27.384892     -30.100908    
     11100           9  -48992.711      2.0115999e-05  0.00065453052  38.7435        248.489        14.9298        129.9966      -379.9424      -111.23159     -73.321818     -27.762041     -28.703518    
     11200           9  -48992.711      2.3674331e-05  0.0005430981   38.7435        248.489        14.9298        130.31983     -380.2636      -111.38597     -73.252848     -28.275696     -26.93732     
     11300           9  -48992.711      2.4500535e-05  0.00052937288  38.7435        248.489        14.9298        130.46641     -380.45962     -111.47726     -73.232493     -28.567006     -26.003164    
     11400           9  -48992.711      1.9919025e-05  0.00055003156  38.7435        248.489        14.9298        130.61061     -380.68275     -111.59782     -73.177624     -28.921059     -24.925172    
     11500           9  -48992.711      1.411457e-05   0.00056495397  38.7435        248.489        14.9298        130.68966     -380.80996     -111.68908     -73.099591     -29.162997     -24.216715    
     11600           9  -48992.711      8.1543578e-06  0.00056375826  38.7435        248.489        14.9298        130.7504      -380.89532     -111.777       -72.99332      -29.377121     -23.59721     
     11700           9  -48992.711      6.293254e-06   0.00053688455  38.7435        248.489        14.9298        130.81723     -380.95463     -111.88618     -72.828277     -29.623358     -22.873398    
     11800           9  -48992.711      6.1251077e-06  0.00049620066  38.7435        248.489        14.9298        130.87934     -380.97536     -111.98266     -72.669664     -29.831166     -22.233637    
     11900           9  -48992.711      5.9671312e-06  0.00046230115  38.7435        248.489        14.9298        130.93168     -380.98065     -112.0539      -72.55786      -29.983776     -21.739852    
     12000           9  -48992.711      5.7655025e-06  0.00042425129  38.7435        248.489        14.9298        131.00191     -380.9853      -112.13734     -72.445035     -30.165751     -21.124986    
     12100           9  -48992.711      5.5729121e-06  0.00039323999  38.7435        248.489        14.9298        131.07707     -380.99519     -112.21629     -72.366261     -30.343912     -20.500366    
     12200           9  -48992.711      5.4354321e-06  0.00037427561  38.7435        248.489        14.9298        131.13653     -381.00843     -112.27457     -72.328883     -30.47977      -20.013887    
     12300           9  -48992.711      5.2913203e-06  0.00035740113  38.7435        248.489        14.9298        131.20339     -381.02911     -112.33823     -72.309119     -30.632153     -19.461831    
     12400           9  -48992.711      5.175729e-06   0.00034625141  38.7435        248.489        14.9298        131.2586      -381.05028     -112.39089     -72.308832     -30.760709     -18.993003    
     12500           9  -48992.711      5.00722e-06    0.00033391378  38.7435        248.489        14.9298        131.33724     -381.08464     -112.46856     -72.331076     -30.952869     -18.289223    
     12600           9  -48992.711      4.9094641e-06  0.00032728258  38.7435        248.489        14.9298        131.37743     -381.10282     -112.51051     -72.352748     -31.057237     -17.905451    
     12700           9  -48992.711      4.7962698e-06  0.00032056802  38.7435        248.489        14.9298        131.42043     -381.12135     -112.55761     -72.383834     -31.174617     -17.471907    
     12800           9  -48992.711      4.6596075e-06  0.00031235267  38.7435        248.489        14.9298        131.4661      -381.1385      -112.61041     -72.427012     -31.306597     -16.980644    
     12900           9  -48992.711      4.5571323e-06  0.00030588057  38.7435        248.489        14.9298        131.49674     -381.14785     -112.64733     -72.462786     -31.399439     -16.631786    
     13000           9  -48992.711      4.4548631e-06  0.00029915576  38.7435        248.489        14.9298        131.525       -381.15468     -112.68223     -72.501543     -31.488052     -16.295783    
     13100           9  -48992.711      4.3319117e-06  0.00029083141  38.7435        248.489        14.9298        131.5566      -381.16025     -112.72201     -72.552992     -31.590695     -15.902414    
     13200           9  -48992.711      4.2235827e-06  0.00028343448  38.7435        248.489        14.9298        131.58283     -381.16339     -112.75547     -72.603512     -31.678963     -15.560546    
     13300           9  -48992.711      4.117152e-06   0.0002762401   38.7435        248.489        14.9298        131.6074      -381.16533     -112.78715     -72.658506     -31.764682     -15.225602    
     13400           9  -48992.711      4.0311408e-06  0.0002705412   38.7435        248.489        14.9298        131.62643     -381.16623     -112.81196     -72.707276     -31.833661     -14.954135    
     13500           9  -48992.711      3.9037597e-06  0.00026236011  38.7435        248.489        14.9298        131.65313     -381.16663     -112.84748     -72.787061     -31.935809     -14.549373    
     13600           9  -48992.711      3.8272284e-06  0.00025758356  38.7435        248.489        14.9298        131.6682      -381.16631     -112.86807     -72.839504     -31.997283     -14.304385    
     13700           9  -48992.711      3.7282395e-06  0.00025155434  38.7435        248.489        14.9298        131.68649     -381.16522     -112.89383     -72.912114     -32.076902     -13.985798    
     13800           9  -48992.711      3.6281899e-06  0.00024557174  38.7435        248.489        14.9298        131.7034      -381.16322     -112.91877     -72.990802     -32.157408     -13.662333    
     13900           9  -48992.711      3.5591724e-06  0.0002414769   38.7435        248.489        14.9298        131.71407     -381.16123     -112.93529     -73.048027     -32.212908     -13.438629    
     14000           9  -48992.711      3.4910316e-06  0.00023743845  38.7435        248.489        14.9298        131.72379     -381.15876     -112.951       -73.106749     -32.267654     -13.217446    
     14100           9  -48992.711      3.3899179e-06  0.00023142293  38.7435        248.489        14.9298        131.73665     -381.15408     -112.97317     -73.197859     -32.348808     -12.88868     
     14200           9  -48992.711      3.3251147e-06  0.00022753984  38.7435        248.489        14.9298        131.74388     -381.15043     -112.98661     -73.258749     -32.400803     -12.677519    
     14300           9  -48992.711      3.2473118e-06  0.00022284635  38.7435        248.489        14.9298        131.75153     -381.1454      -113.00197     -73.334338     -32.463282     -12.423321    
     14400           9  -48992.711      3.1673093e-06  0.0002179847   38.7435        248.489        14.9298        131.7582      -381.1395      -113.01683     -73.414949     -32.527682     -12.160864    
     14500           9  -48992.711      3.1096417e-06  0.00021446075  38.7435        248.489        14.9298        131.76224     -381.1348      -113.02693     -73.474884     -32.57426      -11.970818    
     14600           9  -48992.711      3.0535538e-06  0.00021101992  38.7435        248.489        14.9298        131.76555     -381.12988     -113.03627     -73.534643     -32.619728     -11.785168    
     14700           9  -48992.711      2.9775277e-06  0.00020633671  38.7435        248.489        14.9298        131.76902     -381.12267     -113.04811     -73.617989     -32.681682     -11.532073    
     14800           9  -48992.711      2.9200818e-06  0.0002027838   38.7435        248.489        14.9298        131.77082     -381.1168      -113.05641     -73.682757     -32.728782     -11.339618    
     14900           9  -48992.711      2.8587346e-06  0.00019897616  38.7435        248.489        14.9298        131.77197     -381.11015     -113.06467     -73.753555     -32.779374     -11.132907    
     15000           9  -48992.711      2.7930485e-06  0.00019488145  38.7435        248.489        14.9298        131.77228     -381.10258     -113.07276     -73.83121      -32.833912     -10.910154    
     15100           9  -48992.711      2.7362335e-06  0.00019132265  38.7435        248.489        14.9298        131.77174     -381.09567     -113.07912     -73.899878     -32.88141      -10.716267    
     15200           9  -48992.711      2.683871e-06   0.00018802702  38.7435        248.489        14.9298        131.77057     -381.08898     -113.08445     -73.96435      -32.925463     -10.536563    
     15300           9  -48992.711      2.6242512e-06  0.00018425441  38.7435        248.489        14.9298        131.76845     -381.08102     -113.08986     -74.039097     -32.975963     -10.330744    
     15400           9  -48992.711      2.5758017e-06  0.0001811716   38.7435        248.489        14.9298        131.76607     -381.07427     -113.09373     -74.100863     -33.017283     -10.16251     
     15500           9  -48992.711      2.5207517e-06  0.00017765008  38.7435        248.489        14.9298        131.76267     -381.0663      -113.09755     -74.172098     -33.064546     -9.9702869    
     15600           9  -48992.711      2.4690066e-06  0.0001743209   38.7435        248.489        14.9298        131.75876     -381.05851     -113.10055     -74.240065     -33.109296     -9.7885181    
     15700           9  -48992.711      2.4243875e-06  0.00017143546  38.7435        248.489        14.9298        131.75483     -381.05158     -113.10267     -74.299426     -33.148144     -9.6309188    
     15800           9  -48992.711      2.3769329e-06  0.00016835201  38.7435        248.489        14.9298        131.75008     -381.04399     -113.10446     -74.363288     -33.189732     -9.4624198    
     15900           9  -48992.711      2.3238129e-06  0.00016488251  38.7435        248.489        14.9298        131.74405     -381.03522     -113.10586     -74.435636     -33.23663      -9.2726952    
     16000           9  -48992.711      2.284225e-06   0.00016228437  38.7435        248.489        14.9298        131.73905     -381.0285      -113.10647     -74.490128     -33.271828     -9.1305179    
     16100           9  -48992.711      2.240857e-06   0.0001594264   38.7435        248.489        14.9298        131.73308     -381.02097     -113.10673     -74.550347     -33.310627     -8.9740054    
     16200           9  -48992.711      2.1944751e-06  0.00015635605  38.7435        248.489        14.9298        131.72611     -381.01271     -113.1065      -74.615337     -33.35241      -8.8057205    
     16300           9  -48992.711      2.1577302e-06  0.00015391351  38.7435        248.489        14.9298        131.72015     -381.00603     -113.10595     -74.667232     -33.385727     -8.6717365    
     16400           9  -48992.711      2.1140143e-06  0.00015099635  38.7435        248.489        14.9298        131.71257     -380.99792     -113.10488     -74.729409     -33.425609     -8.5115827    
     16500           9  -48992.711      2.0717914e-06  0.00014816697  38.7435        248.489        14.9298        131.70471     -380.98991     -113.10338     -74.789893     -33.464389     -8.3561079    
     16600           9  -48992.711      2.0369997e-06  0.00014582689  38.7435        248.489        14.9298        131.69785     -380.9832      -113.1018      -74.840031     -33.496538     -8.2274121    
     16700           9  -48992.711      1.9992722e-06  0.00014328077  38.7435        248.489        14.9298        131.69        -380.9758      -113.09974     -74.89468      -33.531595     -8.0872697    
     16800           9  -48992.711      1.9541251e-06  0.00014022236  38.7435        248.489        14.9298        131.68005     -380.96678     -113.09679     -74.960433     -33.573816     -7.9187642    
     16900           9  -48992.711      1.9232482e-06  0.00013812327  38.7435        248.489        14.9298        131.67289     -380.96051     -113.09446     -75.005616     -33.602865     -7.8030062    
     17000           9  -48992.711      1.8888835e-06  0.00013578039  38.7435        248.489        14.9298        131.66459     -380.95344     -113.09158     -75.056083     -33.635357     -7.6736971    
     17100           9  -48992.711      1.8521504e-06  0.00013326817  38.7435        248.489        14.9298        131.65531     -380.94578     -113.08814     -75.110224     -33.670277     -7.5349197    
     17200           9  -48992.711      1.8167616e-06  0.00013084046  38.7435        248.489        14.9298        131.64598     -380.93829     -113.08448     -75.162555     -33.704102     -7.4006847    
     17300           9  -48992.711      1.785066e-06   0.00012865999  38.7435        248.489        14.9298        131.6373      -380.93151     -113.08091     -75.209555     -33.734551     -7.2800096    
     17400           9  -48992.711      1.75136e-06    0.00012633504  38.7435        248.489        14.9298        131.62773     -380.92421     -113.07682     -75.259656     -33.76709      -7.1512209    
     17500           9  -48992.711      1.7229721e-06  0.00012437205  38.7435        248.489        14.9298        131.61939     -380.91799     -113.07312     -75.301936     -33.794622     -7.0423861    
     17600           9  -48992.711      1.6882471e-06  0.00012196511  38.7435        248.489        14.9298        131.60885     -380.91031     -113.0683      -75.353743     -33.828452     -6.9088159    
     17700           9  -48992.711      1.6567697e-06  0.00011977774  38.7435        248.489        14.9298        131.59897     -380.90328     -113.06363     -75.40078      -33.859266     -6.787312     
     17800           9  -48992.711      1.6313006e-06  0.00011800417  38.7435        248.489        14.9298        131.59074     -380.89753     -113.05964     -75.438881     -33.8843       -6.6887087    
     17900           9  -48992.711      1.6021736e-06  0.00011597203  38.7435        248.489        14.9298        131.58109     -380.89091     -113.05486     -75.482491     -33.913037     -6.5756351    
     18000           9  -48992.711      1.5683116e-06  0.00011360443  38.7435        248.489        14.9298        131.56953     -380.88313     -113.049       -75.53323      -33.946589     -6.4437682    
     18100           9  -48992.711      1.5453812e-06  0.00011199807  38.7435        248.489        14.9298        131.56149     -380.87783     -113.04484     -75.567606     -33.969398     -6.3542224    
     18200           9  -48992.711      1.5225772e-06  0.00011039824  38.7435        248.489        14.9298        131.55334     -380.87252     -113.04056     -75.601801     -33.99215      -6.264973     
     18300           9  -48992.711      1.4913422e-06  0.00010820315  38.7435        248.489        14.9298        131.5419      -380.86519     -113.03445     -75.648645     -34.023425     -6.1424088    
     18400           9  -48992.711      1.4703481e-06  0.00010672534  38.7435        248.489        14.9298        131.53403     -380.86024     -113.03018     -75.680128     -34.044518     -6.0598255    
     18500           9  -48992.711      1.4441276e-06  0.000104877    38.7435        248.489        14.9298        131.52401     -380.85401     -113.02467     -75.719441     -34.070941     -5.9564607    
     18600           9  -48992.711      1.417105e-06   0.00010296906  38.7435        248.489        14.9298        131.51346     -380.84754     -113.01878     -75.75994      -34.098262     -5.8496789    
     18700           9  -48992.711      1.3969491e-06  0.00010154401  38.7435        248.489        14.9298        131.50543     -380.84269     -113.01424     -75.790134     -34.1187       -5.7698641    
     18782           9  -48992.711      1.3749661e-06  9.9987941e-05  38.7435        248.489        14.9298        131.49653     -380.83738     -113.00917     -75.823047     -34.141046     -5.6826549    
Loop time of 270.99 on 2 procs for 9329 steps with 11052 atoms

98.3% CPU use with 2 MPI tasks x 1 OpenMP threads

Minimization stats:
  Stopping criterion = force tolerance
  Energy initial, next-to-last, final = 
     -48992.7340561333  -48992.7112858912  -48992.7112858953
  Force two-norm initial, final = 0.017304037 9.9987941e-05
  Force max component initial, final = 0.002474831 1.3749661e-06
  Final line search alpha, max atom move = 0 0
  Iterations, force evaluations = 9329 9840

MPI task timing breakdown:
Section |  min time  |  avg time  |  max time  |%varavg| %total
---------------------------------------------------------------
Pair    | 228.27     | 228.88     | 229.49     |   4.0 | 84.46
Neigh   | 0          | 0          | 0          |   0.0 |  0.00
Comm    | 5.1762     | 5.751      | 6.3257     |  24.0 |  2.12
Output  | 0.15048    | 0.15964    | 0.16881    |   2.3 |  0.06
Modify  | 26.341     | 26.343     | 26.345     |   0.0 |  9.72
Other   |            | 9.852      |            |       |  3.64

Nlocal:           5526 ave        5544 max        5508 min
Histogram: 1 0 0 0 0 0 0 0 0 1
Nghost:           8594 ave        8631 max        8557 min
Histogram: 1 0 0 0 0 0 0 0 0 1
Neighs:         234645 ave      235422 max      233868 min
Histogram: 1 0 0 0 0 0 0 0 0 1

Total # of neighbors = 469290
Ave neighs/atom = 42.461998
Neighbor list builds = 0
Dangerous builds = 0
write_data /data/home/yazhuo/Project/GBclaw/projects/proj-20260927-164bf2/artifacts/lammps/neb/neb-20260927-045814-1d9965/neb.replica.$i.final.lmp nocoeff
write_data /data/home/yazhuo/Project/GBclaw/projects/proj-20260927-164bf2/artifacts/lammps/neb/neb-20260927-045814-1d9965/neb.replica.9.final.lmp nocoeff
System init for write_data ...
Total wall time: 0:09:07
