LAMMPS (30 Mar 2026)
Processor partition = 0
OMP_NUM_THREADS environment is not set. Defaulting to 1 thread.
  using 1 OpenMP thread(s) per MPI task
clear
OMP_NUM_THREADS environment is not set. Defaulting to 1 thread.
  using 1 OpenMP thread(s) per MPI task
units metal
dimension 3
atom_style atomic
boundary p p p
atom_modify map array
read_data "/data/home/yazhuo/Project/GBclaw/projects/proj-20260927-164bf2/artifacts/lammps/neb/neb-20260927-045814-1d9965/inputs/initial.lmp"
Reading data file ...
  orthogonal box = (-19.37175 -124.2445 -7.4649) to (19.37175 124.2445 7.4649)
  1 by 2 by 1 MPI processor grid
  reading atoms ...
  11052 atoms
  read_data CPU = 0.045 seconds
neighbor 1.0 bin
neigh_modify delay 0 every 1 check yes
pair_style adp
pair_coeff * * "/data/home/yazhuo/Project/GBclaw/src/tools/potentials/NiCr.adp" Ni
group top_boundary empty
0 atoms in group top_boundary
group top_boundary id 5180 5151 5159 5109 5117 5067 5075 5025 5033 4992 5184 5160 5118 5076 5034 5181 5154 5156 5157 5112 5114 5115 5070 5072 5073 5028 5030 5031 4990 4991 5182 5155 5113 5071 5029 5175 5176 5141 5144 5146 5147 5099 5102 5104 5105 5057 5060 5062 5063 5015 5018 5020 5021 4985 4986 5177 5183 5145 5158 5103 5116 5061 5074 5019 5032 5168 5169 5129 5132 5134 5087 5090 5092 5045 5048 5050 5003 5006 5008 4980 5170 5178 5133 5148 5091 5106 5049 5064 5007 5022 11027 11048 10985 11019 10943 10977 10901 10935 10859 10893
100 atoms in group top_boundary
group top_boundary id 10818 10851 11052 11028 10986 10944 10902 10860 11024 11025 11049 10982 10983 11022 10940 10941 10980 10898 10899 10938 10856 10857 10896 10816 10817 10854 11050 11023 10981 10939 10897 10855 11014 11015 11043 11044 10972 10973 11009 11012 10930 10931 10967 10970 10888 10889 10925 10928 10846 10847 10883 10886 10811 10812 10841 10844 11045 11051 11013 11026 10971 10984 10929 10942 10887 10900 10845 10858 11002 11036 11037 10960 10997 11000 10918 10955 10958 10876 10913 10916 10834 10871 10874 10806 10829 10832 11038 11046 11001 11016 10959 10974 10917 10932 10875 10890 10833 10848
198 atoms in group top_boundary
group bottom_boundary empty
0 atoms in group bottom_boundary
group bottom_boundary id 174 125 83 123 84 32 34 10 177 139 175 140 85 87 46 12 47 160 111 124 68 69 126 67 21 33 35 6 7 164 176 128 129 178 127 73 86 88 37 38 9 11 36 152 161 105 110 58 59 109 112 57 70 15 19 20 22 2 3 156 163 114 115 162 165 113 130 63 71 72 74 24 25 5 8 23 39 151 153 104 56 103 106 55 60 13 14 16 1 155 108 154 157 107 116 61 62 64 18 4
100 atoms in group bottom_boundary
group bottom_boundary id 17 26 5345 5390 5303 5343 5304 5247 5249 5214 5190 5215 5391 5359 5360 5307 5263 5305 5264 5216 5218 5331 5344 5378 5288 5289 5346 5287 5235 5248 5250 5203 5204 5188 5189 5202 5392 5347 5348 5349 5293 5306 5252 5253 5308 5251 5208 5217 5219 5325 5330 5372 5379 5278 5279 5329 5332 5277 5290 5229 5233 5234 5236 5194 5195 5186 5187 5193 5205 5380 5381 5333 5334 5335 5350 5283 5292 5238 5239 5291 5294 5237 5254 5199 5206 5207 5209 5324 5371 5373 5276 5323 5326 5275 5280 5227 5228 5230 5192 5185
200 atoms in group bottom_boundary
group bottom_boundary id 5191 5196 5374 5375 5327 5328 5336 5282 5232 5281 5284 5231 5240 5197 5198 5200
216 atoms in group bottom_boundary
group fixed_xy union top_boundary bottom_boundary
414 atoms in group fixed_xy
variable __gb_neb_count_top_boundary equal count(top_boundary)
variable __gb_neb_count_top_boundary delete
variable __gb_neb_count_bottom_boundary equal count(bottom_boundary)
variable __gb_neb_count_bottom_boundary delete
min_style fire
timestep 0.01
fix neb_path all neb 1
fix hold_boundary_xy fixed_xy setforce 0.0 0.0 NULL
thermo 100
thermo_style custom step part pe fmax fnorm lx ly lz pxx pyy pzz pxy pxz pyz
thermo_modify flush yes
variable i equal part
dump neb_dump all custom 1000 /data/home/yazhuo/Project/GBclaw/projects/proj-20260927-164bf2/artifacts/lammps/neb/neb-20260927-045814-1d9965/neb.replica.$i.lammpstrj id type x y z ix iy iz fx fy fz
dump neb_dump all custom 1000 /data/home/yazhuo/Project/GBclaw/projects/proj-20260927-164bf2/artifacts/lammps/neb/neb-20260927-045814-1d9965/neb.replica.0.lammpstrj id type x y z ix iy iz fx fy fz
dump_modify neb_dump sort id
run 0
WARNING: No fixes with time integration, atoms won't move
For more information see https://docs.lammps.org/err0028 (src/verlet.cpp:60)
Neighbor list info ...
  update: every = 1 steps, delay = 0 steps, check = yes
  max neighbors/atom: 2000, page size: 100000
  master list distance cutoff = 6.168302
  ghost atom cutoff = 6.168302
  binsize = 3.084151, bins = 13 81 5
  1 neighbor lists, perpetual/occasional/extra = 1 0 0
  (1) pair adp, perpetual
      attributes: half, newton on
      pair build: half/bin/atomonly/newton
      stencil: half/bin/3d
      bin: standard
Per MPI rank memory allocation (min/avg/max) = 7.422 | 7.43 | 7.438 Mbytes
   Step        Part         PotEng          Fmax          Fnorm            Lx             Ly             Lz            Pxx            Pyy            Pzz            Pxy            Pxz            Pyz      
         0           0  -48992.796      0.0024845783   0.10363051     38.7435        248.489        14.9298        0.19007438     2.918104      -3.7172695      0.3830234      3.2510357e-05 -0.0010155383 
Loop time of 2.7285e-06 on 2 procs for 0 steps with 11052 atoms

73.3% CPU use with 2 MPI tasks x 1 OpenMP threads

MPI task timing breakdown:
Section |  min time  |  avg time  |  max time  |%varavg| %total
---------------------------------------------------------------
Pair    | 0          | 0          | 0          |   0.0 |  0.00
Neigh   | 0          | 0          | 0          |   0.0 |  0.00
Comm    | 0          | 0          | 0          |   0.0 |  0.00
Output  | 0          | 0          | 0          |   0.0 |  0.00
Modify  | 0          | 0          | 0          |   0.0 |  0.00
Other   |            | 2.729e-06  |            |       |100.00

Nlocal:           5526 ave        5544 max        5508 min
Histogram: 1 0 0 0 0 0 0 0 0 1
Nghost:           7959 ave        8011 max        7907 min
Histogram: 1 0 0 0 0 0 0 0 0 1
Neighs:         234603 ave      234962 max      234244 min
Histogram: 1 0 0 0 0 0 0 0 0 1

Total # of neighbors = 469206
Ave neighs/atom = 42.454397
Neighbor list builds = 0
Dangerous builds = 0
neb 0 0.0001 10000 10000 100 final "/data/home/yazhuo/Project/GBclaw/projects/proj-20260927-164bf2/artifacts/lammps/neb/neb-20260927-045814-1d9965/inputs/final.neb.coords" verbosity default
  Parameters for fire:
    dmax  delaystep dtgrow dtshrink alpha0 alphashrink tmax tmin   integrator   halfstepback   abcfire  
     0.1     20      1.1     0.5     0.25     0.99      10  0.02 eulerimplicit      yes          no     
Per MPI rank memory allocation (min/avg/max) = 9.896 | 9.904 | 9.913 Mbytes
   Step        Part         PotEng          Fmax          Fnorm            Lx             Ly             Lz            Pxx            Pyy            Pzz            Pxy            Pxz            Pyz      
         0           0  -48992.796      0.0024845783   0.10363051     38.7435        248.489        14.9298        0.19007438     2.918104      -3.7172695      0.3830234      3.2510357e-05 -0.0010155383 
       100           0  -48992.796      1.5201972e-06  3.2688633e-05  38.7435        248.489        14.9298        0.02847557     2.526524      -3.8497164      0.32573111    -1.0933669e-05 -2.7444661e-05
       200           0  -48992.796      1.6535111e-06  4.716468e-05   38.7435        248.489        14.9298        0.024954932    2.5251705     -3.846331       0.32886871    -8.6560638e-06 -2.0859175e-05
       300           0  -48992.796      6.937177e-07   1.2138925e-05  38.7435        248.489        14.9298        0.023760887    2.5254282     -3.843946       0.33189788    -7.3804724e-06 -1.7321897e-05
       400           0  -48992.796      1.4065743e-06  1.2723714e-05  38.7435        248.489        14.9298        0.02329828     2.5255038     -3.8421361      0.33499129    -6.4633772e-06 -1.4973089e-05
       500           0  -48992.796      4.7481845e-06  3.1354756e-05  38.7435        248.489        14.9298        0.023008474    2.5251887     -3.8405722      0.33811233    -5.7208917e-06 -1.3367967e-05
       600           0  -48992.796      7.6853602e-08  4.2298561e-06  38.7435        248.489        14.9298        0.022756477    2.5248276     -3.8395433      0.34019831    -5.2459378e-06 -1.2522391e-05
       700           0  -48992.796      6.698454e-08   3.9714178e-06  38.7435        248.489        14.9298        0.022503201    2.5244113     -3.8385699      0.34226293    -4.8173153e-06 -1.1868038e-05
       800           0  -48992.796      8.7437704e-07  6.6503063e-06  38.7435        248.489        14.9298        0.022106663    2.5238322     -3.8373419      0.34487258    -4.304368e-06  -1.1193519e-05
       900           0  -48992.796      1.3466903e-07  3.5399632e-06  38.7435        248.489        14.9298        0.021735667    2.5233914     -3.8364191      0.34677071    -3.9428965e-06 -1.0769487e-05
      1000           0  -48992.796      4.3993607e-08  3.2965457e-06  38.7435        248.489        14.9298        0.021288228    2.5229366     -3.8354404      0.34874974    -3.5815575e-06 -1.0371615e-05
      1100           0  -48992.796      4.4796252e-08  3.1057912e-06  38.7435        248.489        14.9298        0.020726277    2.5224614     -3.8343542      0.3508831     -3.2072738e-06 -9.9768743e-06
      1200           0  -48992.796      3.9067001e-08  2.9646196e-06  38.7435        248.489        14.9298        0.020228993    2.5221075     -3.833482       0.35254496    -2.9265218e-06 -9.6866085e-06
      1300           0  -48992.796      3.7554289e-08  2.8380844e-06  38.7435        248.489        14.9298        0.019715253    2.5217909     -3.8326409      0.35410549    -2.6711605e-06 -9.4244034e-06
      1400           0  -48992.796      3.5903175e-08  2.6984115e-06  38.7435        248.489        14.9298        0.019066019    2.521447      -3.8316435      0.35590415    -2.3870899e-06 -9.1320912e-06
      1500           0  -48992.796      3.7881867e-08  2.5731388e-06  38.7435        248.489        14.9298        0.018395374    2.5211444     -3.8306717      0.35760485    -2.1288162e-06 -8.8639789e-06
      1600           0  -48992.796      3.3215783e-08  2.4756269e-06  38.7435        248.489        14.9298        0.017831074    2.5209221     -3.8298889      0.35894093    -1.9329078e-06 -8.6582184e-06
      1700           0  -48992.796      3.1892365e-08  2.36205e-06    38.7435        248.489        14.9298        0.017100821    2.52067       -3.828913       0.36056723    -1.7028193e-06 -8.4129365e-06
      1800           0  -48992.796      3.0663792e-08  2.2647038e-06  38.7435        248.489        14.9298        0.016418729    2.5204646     -3.8280327      0.36199971    -1.5079207e-06 -8.2014222e-06
      1900           0  -48992.796      3.2687371e-08  2.1816809e-06  38.7435        248.489        14.9298        0.015785522    2.5202951     -3.827237       0.36326905    -1.3412519e-06 -8.0170098e-06
      2000           0  -48992.796      2.8639399e-08  2.100977e-06   38.7435        248.489        14.9298        0.015152727    2.5201436     -3.8264598      0.36448682    -1.1868486e-06 -7.8427785e-06
      2100           0  -48992.796      3.6450854e-08  2.0173866e-06  38.7435        248.489        14.9298        0.014381723    2.5199796     -3.8255337      0.36591156    -1.0132517e-06 -7.6419349e-06
      2200           0  -48992.796      2.6697285e-08  1.9474523e-06  38.7435        248.489        14.9298        0.013829416    2.5198743     -3.8248823      0.36689772    -8.975689e-07  -7.5048986e-06
      2300           0  -48992.796      2.5692984e-08  1.8688644e-06  38.7435        248.489        14.9298        0.013102982    2.519749      -3.8240387      0.36815739    -7.5511803e-07 -7.331951e-06 
      2400           0  -48992.796      1.9925849e-07  2.0348979e-06  38.7435        248.489        14.9298        0.012299306    2.5196257     -3.8231207      0.36950721    -6.0926272e-07 -7.14892e-06  
      2500           0  -48992.796      2.3904227e-08  1.7318418e-06  38.7435        248.489        14.9298        0.01176195     2.5195513     -3.8225148      0.37038684    -5.1807006e-07 -7.0307523e-06
      2600           0  -48992.796      2.3212536e-08  1.6792572e-06  38.7435        248.489        14.9298        0.011223459    2.5194824     -3.8219132      0.37125215    -4.313201e-07  -6.9156404e-06
      2700           0  -48992.796      2.8516006e-08  1.613809e-06   38.7435        248.489        14.9298        0.010480534    2.519396      -3.8210918      0.37242143    -3.1892727e-07 -6.7608575e-06
      2800           0  -48992.796      2.1608679e-08  1.5586147e-06  38.7435        248.489        14.9298        0.0099411388   2.5193389     -3.820501       0.37325412    -2.42344e-07   -6.6515475e-06
      2900           0  -48992.796      2.0821601e-08  1.4998172e-06  38.7435        248.489        14.9298        0.009293532    2.519276      -3.8197972      0.37423791    -1.5551183e-07 -6.523e-06    
      3000           0  -48992.796      1.021975e-07   1.5214753e-06  38.7435        248.489        14.9298        0.0085836073   2.5192135     -3.8190319      0.37529804    -6.6479512e-08 -6.3850015e-06
      3100           0  -48992.796      2.0974777e-08  1.3938994e-06  38.7435        248.489        14.9298        0.0080867571   2.5191734     -3.8185         0.3760296     -7.8193597e-09 -6.2903099e-06
      3200           0  -48992.796      1.8804935e-08  1.3511745e-06  38.7435        248.489        14.9298        0.0076023049   2.5191369     -3.8179839      0.3767352      4.6562544e-08 -6.1990575e-06
      3300           0  -48992.796      1.9262931e-08  1.298724e-06   38.7435        248.489        14.9298        0.0069799672   2.5190937     -3.8173245      0.3776314      1.1251697e-07 -6.0833121e-06
      3400           0  -48992.796      1.74912e-08    1.2551345e-06  38.7435        248.489        14.9298        0.006470178    2.5190611     -3.8167871      0.37835754     1.6333502e-07 -5.989341e-06 
      3500           0  -48992.796      1.6891426e-08  1.2114661e-06  38.7435        248.489        14.9298        0.0059466431   2.5190299     -3.8162375      0.37909647     2.1263719e-07 -5.8937729e-06
      3600           0  -48992.796      1.919026e-08   1.1660539e-06  38.7435        248.489        14.9298        0.0053715204   2.5189983     -3.8156363      0.37990077     2.6353028e-07 -5.7893907e-06
      3700           0  -48992.796      1.5761006e-08  1.1293288e-06  38.7435        248.489        14.9298        0.004948389    2.5189766     -3.8151956      0.3804879      2.9879877e-07 -5.7128979e-06
      3800           0  -48992.796      1.5297256e-08  1.0957325e-06  38.7435        248.489        14.9298        0.0045353757   2.5189567     -3.8147666      0.38105747     3.3152212e-07 -5.6385735e-06
      3900           0  -48992.796      2.7070688e-07  1.691632e-06   38.7435        248.489        14.9298        0.0038834113   2.5189276     -3.8140916      0.38195        3.7979997e-07 -5.5215005e-06
      4000           0  -48992.796      7.5560674e-08  1.0749969e-06  38.7435        248.489        14.9298        0.003457144    2.5189099     -3.8136518      0.38252945     4.0908679e-07 -5.4448706e-06
      4100           0  -48992.796      1.3646956e-08  9.7652135e-07  38.7435        248.489        14.9298        0.0030502858   2.5188941     -3.8132329      0.38307963     4.3539688e-07 -5.3716977e-06
      4200           0  -48992.796      1.3167899e-08  9.4191726e-07  38.7435        248.489        14.9298        0.0026132037   2.5188781     -3.8127839      0.38366782     4.619104e-07  -5.2927132e-06
      4300           0  -48992.796      2.2799174e-08  9.1117891e-07  38.7435        248.489        14.9298        0.0021376491   2.5188618     -3.8122965      0.38430464     4.8871902e-07 -5.2065789e-06
      4400           0  -48992.796      1.2252538e-08  8.7612807e-07  38.7435        248.489        14.9298        0.0017789452   2.5188502     -3.8119295      0.38478291     5.0752208e-07 -5.1413416e-06
      4500           0  -48992.796      2.8903858e-08  8.5424982e-07  38.7435        248.489        14.9298        0.0013486361   2.5188371     -3.81149        0.38535453     5.285003e-07  -5.0624483e-06
      4600           0  -48992.796      2.0378798e-08  8.2262258e-07  38.7435        248.489        14.9298        0.0010172894   2.5188275     -3.8111521      0.38579316     5.4349283e-07 -5.0010367e-06
      4700           0  -48992.796      1.1046702e-08  7.8954579e-07  38.7435        248.489        14.9298        0.00067003121  2.5188179     -3.8107985      0.38625147     5.5806367e-07 -4.9364823e-06
      4800           0  -48992.796      1.0676212e-08  7.6296429e-07  38.7435        248.489        14.9298        0.00032735909  2.5188089     -3.81045        0.38670247     5.7135276e-07 -4.8720293e-06
      4900           0  -48992.796      1.3032459e-08  7.3521703e-07  38.7435        248.489        14.9298       -6.2159179e-05  2.5187991     -3.8100543      0.38721367     5.851378e-07  -4.7982315e-06
      5000           0  -48992.796      9.9168319e-09  7.0856232e-07  38.7435        248.489        14.9298       -0.000375924    2.5187916     -3.8097359      0.38762439     5.9517862e-07 -4.7380448e-06
      5100           0  -48992.796      9.5583999e-09  6.8287996e-07  38.7435        248.489        14.9298       -0.00070925406  2.518784      -3.809398       0.38805975     6.0482803e-07 -4.6732929e-06
      5200           0  -48992.796      1.0116397e-08  6.5794606e-07  38.7435        248.489        14.9298       -0.0010409633   2.5187768     -3.809062       0.38849205     6.1338601e-07 -4.6080139e-06
      5300           0  -48992.796      8.9174454e-09  6.3700879e-07  38.7435        248.489        14.9298       -0.0013060872   2.5187712     -3.8087938      0.38883693     6.1945726e-07 -4.5551432e-06
      5400           0  -48992.796      8.5969265e-09  6.1404935e-07  38.7435        248.489        14.9298       -0.0016059613   2.5187651     -3.8084905      0.38922637     6.255033e-07  -4.4946252e-06
      5500           0  -48992.796      8.4349161e-09  5.8969302e-07  38.7435        248.489        14.9298       -0.0019259535   2.5187589     -3.8081672      0.38964123     6.309954e-07  -4.4289412e-06
      5600           0  -48992.796      7.9963365e-09  5.7111778e-07  38.7435        248.489        14.9298       -0.002166819    2.5187544     -3.807924       0.38995303     6.3443857e-07 -4.3786321e-06
      5700           0  -48992.796      7.7256873e-09  5.5174379e-07  38.7435        248.489        14.9298       -0.00242064     2.5187497     -3.8076678      0.39028121     6.3745365e-07 -4.3248938e-06
      5800           0  -48992.796      7.664263e-09   5.3029328e-07  38.7435        248.489        14.9298       -0.0027042478   2.5187447     -3.8073818      0.39064743     6.4003317e-07 -4.2639576e-06
      5900           0  -48992.796      7.1674253e-09  5.1184704e-07  38.7435        248.489        14.9298       -0.0029439806   2.5187406     -3.8071401      0.39095663     6.4155217e-07 -4.2115518e-06
      6000           0  -48992.796      6.9233126e-09  4.9439522e-07  38.7435        248.489        14.9298       -0.00317327     2.5187368     -3.806909       0.39125207     6.4243914e-07 -4.1605388e-06
      6100           0  -48992.796      6.6689442e-09  4.7619209e-07  38.7435        248.489        14.9298       -0.0034129315   2.5187329     -3.8066676      0.39156058     6.4277803e-07 -4.1061621e-06
      6200           0  -48992.796      6.455303e-09   4.6094466e-07  38.7435        248.489        14.9298       -0.0036132776   2.5187297     -3.8064659      0.39181827     6.4255468e-07 -4.0598538e-06
      6300           0  -48992.796      6.1908715e-09  4.4197294e-07  38.7435        248.489        14.9298       -0.0038633698   2.5187258     -3.8062141      0.39213968     6.4165938e-07 -4.0013837e-06
      6400           0  -48992.796      5.9586494e-09  4.2544379e-07  38.7435        248.489        14.9298       -0.0040815018   2.5187225     -3.8059946      0.39241978     6.4030262e-07 -3.9488916e-06
      6500           0  -48992.796      5.7748061e-09  4.1232741e-07  38.7435        248.489        14.9298       -0.0042538704   2.5187199     -3.8058213      0.39264099     6.3882959e-07 -3.9065947e-06
      6600           0  -48992.796      5.5695928e-09  3.9765861e-07  38.7435        248.489        14.9298       -0.0044474002   2.5187171     -3.8056266      0.3928892      6.3675372e-07 -3.8584463e-06
      6700           0  -48992.796      5.3274113e-09  3.8034763e-07  38.7435        248.489        14.9298       -0.004675961    2.5187138     -3.8053968      0.39318217     6.3370853e-07 -3.8003932e-06
      6800           0  -48992.796      5.1515746e-09  3.6780351e-07  38.7435        248.489        14.9298       -0.0048415244   2.5187114     -3.8052304      0.39339428     6.3106027e-07 -3.7571192e-06
      6900           0  -48992.796      4.9819018e-09  3.5568516e-07  38.7435        248.489        14.9298       -0.0050016137   2.5187092     -3.8050695      0.39359928     6.2819918e-07 -3.7147732e-06
      7000           0  -48992.796      4.7914192e-09  3.4206517e-07  38.7435        248.489        14.9298       -0.0051819242   2.5187067     -3.8048883      0.39383008     6.2455461e-07 -3.6659478e-06
      7100           0  -48992.796      4.6362448e-09  3.309993e-07   38.7435        248.489        14.9298       -0.0053278913   2.5187047     -3.8047417      0.39401685     6.2126209e-07 -3.6253243e-06
      7200           0  -48992.796      4.4456915e-09  3.1739033e-07  38.7435        248.489        14.9298       -0.0055078786   2.5187023     -3.8045609      0.39424706     6.1678683e-07 -3.5745798e-06
      7300           0  -48992.796      4.2850314e-09  3.059045e-07   38.7435        248.489        14.9298       -0.0056601564   2.5187003     -3.8044079      0.39444177     6.1263611e-07 -3.5303356e-06
      7400           0  -48992.796      4.1425376e-09  2.9574122e-07  38.7435        248.489        14.9298       -0.0057942651   2.5186985     -3.8042733      0.39461319     6.0867251e-07 -3.4909239e-06
      7500           0  -48992.796      3.9995576e-09  2.8552647e-07  38.7435        248.489        14.9298       -0.0059294651   2.5186967     -3.8041375      0.39478596     6.0440604e-07 -3.449993e-06 
      7600           0  -48992.796      3.9297937e-09  2.7317601e-07  38.7435        248.489        14.9298       -0.0060940246   2.5186946     -3.8039723      0.3949962      5.9881563e-07 -3.3989745e-06
      7700           0  -48992.796      3.7014969e-09  2.6424329e-07  38.7435        248.489        14.9298       -0.0062112164   2.5186931     -3.8038546      0.39514588     5.9453324e-07 -3.3620011e-06
      7800           0  -48992.796      3.5769182e-09  2.5534633e-07  38.7435        248.489        14.9298       -0.0063290517   2.5186916     -3.8037364      0.39529636     5.899962e-07  -3.3238983e-06
      7900           0  -48992.796      3.4738968e-09  2.456904e-07   38.7435        248.489        14.9298       -0.006457589    2.51869       -3.8036073      0.39546047     5.8475663e-07 -3.2815226e-06
      8000           0  -48992.796      3.3194172e-09  2.3696624e-07  38.7435        248.489        14.9298       -0.0065724757   2.5186885     -3.803492       0.39560713     5.7980386e-07 -3.2425434e-06
      8100           0  -48992.796      3.2066543e-09  2.2891127e-07  38.7435        248.489        14.9298       -0.0066792102   2.5186872     -3.8033849      0.39574336     5.7497005e-07 -3.2055244e-06
      8200           0  -48992.796      3.3589459e-09  2.2049537e-07  38.7435        248.489        14.9298       -0.0067929202   2.5186858     -3.8032708      0.39588848     5.6955186e-07 -3.165407e-06 
      8300           0  -48992.796      2.9840125e-09  2.130189e-07   38.7435        248.489        14.9298       -0.0068897775   2.5186846     -3.8031736      0.39601207     5.6474248e-07 -3.1302541e-06
      8400           0  -48992.796      2.8750194e-09  2.0523711e-07  38.7435        248.489        14.9298       -0.0069929154   2.5186833     -3.8030701      0.39614366     5.5936837e-07 -3.0920262e-06
      8500           0  -48992.796      2.7903043e-09  1.9919183e-07  38.7435        248.489        14.9298       -0.0070730298   2.5186823     -3.8029898      0.39624586     5.5504134e-07 -3.0617661e-06
      8600           0  -48992.796      2.7050508e-09  1.9310506e-07  38.7435        248.489        14.9298       -0.0071537093   2.5186813     -3.8029088      0.39634878     5.5050502e-07 -3.0304862e-06
      8700           0  -48992.796      2.6809929e-09  1.8522057e-07  38.7435        248.489        14.9298       -0.0072590689   2.51868       -3.8028031      0.39648316     5.4434976e-07 -2.9890875e-06
      8800           0  -48992.796      1.2363485e-08  1.8766975e-07  38.7435        248.489        14.9298       -0.007355276    2.5186789     -3.8027066      0.39660586     5.3845786e-07 -2.9499697e-06
      8900           0  -48992.796      2.4222399e-09  1.7291322e-07  38.7435        248.489        14.9298       -0.0074213948   2.5186781     -3.8026402      0.39669018     5.3426689e-07 -2.9224048e-06
      9000           0  -48992.796      2.3374636e-09  1.6655616e-07  38.7435        248.489        14.9298       -0.007506068    2.518677      -3.8025553      0.39679815     5.2869433e-07 -2.8865952e-06
      9100           0  -48992.796      9.0858634e-09  1.6589936e-07  38.7435        248.489        14.9298       -0.0075927786   2.518676      -3.8024683      0.39690872     5.2278665e-07 -2.8490359e-06
      9200           0  -48992.796      2.1735323e-09  1.5514743e-07  38.7435        248.489        14.9298       -0.0076570448   2.5186752     -3.8024039      0.39699066     5.1824233e-07 -2.8203608e-06
      9300           0  -48992.796      2.1052085e-09  1.502675e-07   38.7435        248.489        14.9298       -0.0077217448   2.5186744     -3.802339       0.39707315     5.1353017e-07 -2.7910968e-06
      9400           0  -48992.796      2.2050434e-09  1.4452739e-07  38.7435        248.489        14.9298       -0.007799281    2.5186735     -3.8022612      0.397172       5.0769173e-07 -2.7551773e-06
      9453           0  -48992.796      1.9946711e-09  1.4238893e-07  38.7435        248.489        14.9298       -0.0078261567   2.5186732     -3.8022342      0.39720626     5.0562006e-07 -2.7423474e-06
Loop time of 275.698 on 2 procs for 9453 steps with 11052 atoms

98.7% CPU use with 2 MPI tasks x 1 OpenMP threads

Minimization stats:
  Stopping criterion = force tolerance
  Energy initial, next-to-last, final = 
     -48992.7960760947  -48992.7964209008  -48992.7964209013
  Force two-norm initial, final = 0.10363051 1.4238893e-07
  Force max component initial, final = 0.0024845783 1.9946711e-09
  Final line search alpha, max atom move = 0 0
  Iterations, force evaluations = 9453 9970

MPI task timing breakdown:
Section |  min time  |  avg time  |  max time  |%varavg| %total
---------------------------------------------------------------
Pair    | 231.39     | 232        | 232.62     |   4.0 | 84.15
Neigh   | 0          | 0          | 0          |   0.0 |  0.00
Comm    | 5.447      | 6.1221     | 6.7972     |  27.3 |  2.22
Output  | 0.15606    | 0.16258    | 0.16911    |   1.6 |  0.06
Modify  | 19.249     | 19.259     | 19.27      |   0.2 |  6.99
Other   |            | 18.15      |            |       |  6.58

Nlocal:           5526 ave        5544 max        5508 min
Histogram: 1 0 0 0 0 0 0 0 0 1
Nghost:           7959 ave        8011 max        7907 min
Histogram: 1 0 0 0 0 0 0 0 0 1
Neighs:         234603 ave      234962 max      234244 min
Histogram: 1 0 0 0 0 0 0 0 0 1

Total # of neighbors = 469206
Ave neighs/atom = 42.454397
Neighbor list builds = 0
Dangerous builds = 0
  Parameters for fire:
    dmax  delaystep dtgrow dtshrink alpha0 alphashrink tmax tmin   integrator   halfstepback   abcfire  
     0.1     20      1.1     0.5     0.25     0.99      10  0.02 eulerimplicit      yes          no     
Per MPI rank memory allocation (min/avg/max) = 9.896 | 9.904 | 9.913 Mbytes
   Step        Part         PotEng          Fmax          Fnorm            Lx             Ly             Lz            Pxx            Pyy            Pzz            Pxy            Pxz            Pyz      
      9453           0  -48992.796      1.9946711e-09  1.4238893e-07  38.7435        248.489        14.9298       -0.0078261567   2.5186732     -3.8022342      0.39720626     5.0562006e-07 -2.7423474e-06
      9500           0  -48992.796      4.8312125e-09  1.4110615e-07  38.7435        248.489        14.9298       -0.0078687596   2.5186727     -3.8021915      0.39726057     5.0227564e-07 -2.7220266e-06
      9600           0  -48992.796      2.6976748e-07  1.3051171e-06  38.7435        248.489        14.9298       -0.0079420423   2.5186718     -3.802118       0.39735399     4.9636512e-07 -2.6861148e-06
      9700           0  -48992.796      6.2494253e-09  1.3315809e-07  38.7435        248.489        14.9298       -0.0079942422   2.5186712     -3.8020656      0.39742053     4.9198826e-07 -2.6601472e-06
      9800           0  -48992.796      5.6445839e-08  2.9929539e-07  38.7435        248.489        14.9298       -0.0080557637   2.5186704     -3.8020039      0.39749895     4.8670928e-07 -2.6286415e-06
      9900           0  -48992.796      1.2176862e-07  5.9904825e-07  38.7435        248.489        14.9298       -0.0081195124   2.5186697     -3.80194        0.39758021     4.8106349e-07 -2.5950734e-06
     10000           0  -48992.796      1.9674886e-09  1.1612921e-07  38.7435        248.489        14.9298       -0.0081777062   2.518669      -3.8018816      0.39765438     4.7572175e-07 -2.5639371e-06
     10100           0  -48992.796      7.1902222e-09  1.1658835e-07  38.7435        248.489        14.9298       -0.0082325136   2.5186683     -3.8018266      0.39772424     4.7055042e-07 -2.5337726e-06
     10200           0  -48992.796      5.8744493e-08  2.9229254e-07  38.7435        248.489        14.9298       -0.0082882427   2.5186677     -3.8017707      0.39779526     4.6511069e-07 -2.5021979e-06
     10300           0  -48992.796      1.728417e-09   1.045382e-07   38.7435        248.489        14.9298       -0.0083305731   2.5186672     -3.8017283      0.39784921     4.6088224e-07 -2.4778822e-06
     10400           0  -48992.796      1.5276619e-09  1.0130925e-07  38.7435        248.489        14.9298       -0.008371842    2.5186667     -3.8016869      0.39790181     4.5663321e-07 -2.4535278e-06
     10500           0  -48992.796      4.7090397e-08  2.3904531e-07  38.7435        248.489        14.9298       -0.0084271193   2.518666      -3.8016315      0.39797226     4.5079643e-07 -2.4201629e-06
     10600           0  -48992.796      3.0842083e-09  9.4887988e-08  38.7435        248.489        14.9298       -0.0084706294   2.5186655     -3.8015878      0.39802771     4.4605144e-07 -2.3932312e-06
     10700           0  -48992.796      1.37263e-09    9.0769399e-08  38.7435        248.489        14.9298       -0.0085116069   2.518665      -3.8015467      0.39807993     4.414662e-07  -2.3671571e-06
     10800           0  -48992.796      1.6989768e-08  1.1775129e-07  38.7435        248.489        14.9298       -0.0085565295   2.5186645     -3.8015017      0.39813718     4.3631101e-07 -2.3382236e-06
     10900           0  -48992.796      1.4328724e-09  8.4549395e-08  38.7435        248.489        14.9298       -0.0085957698   2.518664      -3.8014623      0.39818719     4.3165941e-07 -2.312026e-06 
     11000           0  -48992.796      1.453118e-08   1.057752e-07   38.7435        248.489        14.9298       -0.0086352678   2.5186636     -3.8014227      0.39823752     4.2685685e-07 -2.2851689e-06
     11100           0  -48992.796      3.602903e-09   8.0423195e-08  38.7435        248.489        14.9298       -0.0086711873   2.5186631     -3.8013867      0.39828329     4.2237389e-07 -2.2602262e-06
     11200           0  -48992.796      2.0568571e-08  1.338988e-07   38.7435        248.489        14.9298       -0.0087187229   2.5186626     -3.801339       0.39834388     4.1626101e-07 -2.2262082e-06
     11300           0  -48992.796      1.0822555e-09  7.3005958e-08  38.7435        248.489        14.9298       -0.0087469709   2.5186622     -3.8013107      0.39837987     4.1252836e-07 -2.2054946e-06
     11400           0  -48992.796      4.7107103e-09  7.3617799e-08  38.7435        248.489        14.9298       -0.0087842785   2.5186618     -3.8012733      0.39842741     4.0745954e-07 -2.1775891e-06
     11500           0  -48992.796      9.5289157e-10  6.8020577e-08  38.7435        248.489        14.9298       -0.0088126341   2.5186615     -3.8012448      0.39846354     4.035209e-07  -2.1557188e-06
     11600           0  -48992.796      9.2384533e-10  6.5944247e-08  38.7435        248.489        14.9298       -0.0088402256   2.5186611     -3.8012172      0.3984987      3.9957692e-07 -2.1340486e-06
     11700           0  -48992.796      1.1197106e-09  6.3502081e-08  38.7435        248.489        14.9298       -0.0088751676   2.5186607     -3.8011821      0.39854323     3.9446599e-07 -2.1060396e-06
     11800           0  -48992.796      3.5507761e-09  6.3195569e-08  38.7435        248.489        14.9298       -0.0089069922   2.5186603     -3.8011502      0.39858378     3.8968074e-07 -2.0797927e-06
     11900           0  -48992.796      8.2772222e-10  5.9083443e-08  38.7435        248.489        14.9298       -0.0089312313   2.5186601     -3.8011259      0.39861467     3.8594872e-07 -2.059308e-06 
     12000           0  -48992.796      1.2737819e-09  5.7192452e-08  38.7435        248.489        14.9298       -0.0089605404   2.5186597     -3.8010965      0.39865201     3.8131018e-07 -2.0340594e-06
     12100           0  -48992.796      2.8860361e-09  5.6394966e-08  38.7435        248.489        14.9298       -0.0089893258   2.5186594     -3.8010676      0.39868869     3.7661572e-07 -2.0084184e-06
     12200           0  -48992.796      2.0121018e-09  5.3901147e-08  38.7435        248.489        14.9298       -0.0090112828   2.5186591     -3.8010456      0.39871667     3.7294785e-07 -1.9884904e-06
     12300           0  -48992.796      7.7589854e-10  5.1221879e-08  38.7435        248.489        14.9298       -0.0090360076   2.5186588     -3.8010208      0.39874818     3.6872721e-07 -1.9655107e-06
     12400           0  -48992.796      6.9495187e-10  4.9596902e-08  38.7435        248.489        14.9298       -0.009057082    2.5186586     -3.8009997      0.39877503     3.6503676e-07 -1.9455535e-06
     12500           0  -48992.796      1.0376469e-06  2.1415842e-05  38.7435        248.489        14.9298       -0.0090856041   2.5186562     -3.8009725      0.39882814     3.5926039e-07 -1.9141665e-06
     12600           0  -48992.796      3.8103998e-07  2.2829684e-06  38.7435        248.489        14.9298       -0.0091077471   2.5186582     -3.8009487      0.3988373      3.55921e-07   -1.8961259e-06
     12700           0  -48992.796      3.8373178e-09  6.5188506e-08  38.7435        248.489        14.9298       -0.0091279987   2.5186577     -3.8009286      0.39886546     3.5198182e-07 -1.8748822e-06
     12800           0  -48992.796      8.6766883e-08  5.2618186e-07  38.7435        248.489        14.9298       -0.0091523514   2.5186576     -3.800904       0.39889511     3.4730826e-07 -1.8494468e-06
     12900           0  -48992.796      1.490273e-08   1.0128704e-07  38.7435        248.489        14.9298       -0.0091695046   2.5186573     -3.8008869      0.39891815     3.4382758e-07 -1.8306839e-06
     13000           0  -48992.796      3.34826e-09    4.4962315e-08  38.7435        248.489        14.9298       -0.0091864088   2.518657      -3.80087        0.39893987     3.4037118e-07 -1.8122951e-06
     13100           0  -48992.796      2.2306981e-08  1.26518e-07    38.7435        248.489        14.9298       -0.0092064133   2.5186568     -3.8008499      0.39896522     3.3620573e-07 -1.7896013e-06
     13200           0  -48992.796      6.1879953e-10  3.7082894e-08  38.7435        248.489        14.9298       -0.0092238324   2.5186566     -3.8008324      0.3989875      3.3245608e-07 -1.7694524e-06
     13300           0  -48992.796      9.6541431e-10  3.6302245e-08  38.7435        248.489        14.9298       -0.0092409388   2.5186564     -3.8008153      0.3990093      3.2870268e-07 -1.7493051e-06
     13400           0  -48992.796      1.4130715e-09  3.5569084e-08  38.7435        248.489        14.9298       -0.0092548027   2.5186562     -3.8008014      0.39902697     3.2557795e-07 -1.7324281e-06
     13500           0  -48992.796      3.6355873e-07  1.9560351e-06  38.7435        248.489        14.9298       -0.0092751695   2.5186557     -3.8007813      0.39905458     3.208089e-07  -1.7068377e-06
     13600           0  -48992.796      4.0775952e-09  3.8346e-08     38.7435        248.489        14.9298       -0.0092879657   2.5186559     -3.8007681      0.39906922     3.1784105e-07 -1.6909446e-06
     13700           0  -48992.796      3.1237942e-08  1.6191053e-07  38.7435        248.489        14.9298       -0.0093042042   2.5186557     -3.8007519      0.39908992     3.1389313e-07 -1.6700056e-06
     13800           0  -48992.796      1.2252575e-07  7.2265677e-07  38.7435        248.489        14.9298       -0.0093206849   2.5186555     -3.8007353      0.39911086     3.0978487e-07 -1.6477721e-06
     13900           0  -48992.796      2.8397968e-09  3.240309e-08   38.7435        248.489        14.9298       -0.0093320481   2.5186553     -3.8007239      0.3991254      3.0687511e-07 -1.6322735e-06
     14000           0  -48992.796      5.2526129e-10  2.805256e-08   38.7435        248.489        14.9298       -0.0093432713   2.5186552     -3.8007127      0.3991397      3.0395476e-07 -1.6165468e-06
     14100           0  -48992.796      1.3008593e-07  6.5777113e-07  38.7435        248.489        14.9298       -0.0093599008   2.518655      -3.800696       0.39916086     2.9952141e-07 -1.5928587e-06
     14200           0  -48992.796      5.4373118e-09  3.7800584e-08  38.7435        248.489        14.9298       -0.0093705232   2.5186549     -3.8006853      0.39917442     2.9659019e-07 -1.5771808e-06
     14300           0  -48992.796      2.9278597e-08  1.500058e-07   38.7435        248.489        14.9298       -0.0093832504   2.5186547     -3.8006726      0.39919064     2.9301052e-07 -1.5580317e-06
     14400           0  -48992.796      2.8103752e-08  1.5324981e-07  38.7435        248.489        14.9298       -0.0093962982   2.5186546     -3.8006595      0.39920726     2.8923914e-07 -1.5378954e-06
     14500           0  -48992.796      1.5431591e-09  2.4623332e-08  38.7435        248.489        14.9298       -0.0094056778   2.5186545     -3.8006501      0.39921921     2.8646791e-07 -1.5230641e-06
     14600           0  -48992.796      1.1890434e-09  2.3443358e-08  38.7435        248.489        14.9298       -0.0094147785   2.5186544     -3.800641       0.39923081     2.8373288e-07 -1.5083754e-06
     14700           0  -48992.796      3.1880437e-08  1.6888307e-07  38.7435        248.489        14.9298       -0.0094270756   2.5186542     -3.8006286      0.39924648     2.7990385e-07 -1.4881219e-06
     14800           0  -48992.796      3.2314935e-10  2.1027574e-08  38.7435        248.489        14.9298       -0.009436333    2.5186541     -3.8006193      0.39925827     2.7697892e-07 -1.4723262e-06
     14900           0  -48992.796      8.0055925e-10  2.0607612e-08  38.7435        248.489        14.9298       -0.0094461817   2.518654      -3.8006095      0.39927082     2.7379135e-07 -1.4553555e-06
     15000           0  -48992.796      6.8351088e-09  3.7325527e-08  38.7435        248.489        14.9298       -0.0094566761   2.5186539     -3.8005989      0.39928419     2.7028588e-07 -1.4365762e-06
     15100           0  -48992.796      6.7580785e-10  1.9059196e-08  38.7435        248.489        14.9298       -0.0094657034   2.5186538     -3.8005899      0.3992957      2.6719892e-07 -1.4202302e-06
     15200           0  -48992.796      4.9425124e-10  1.8318684e-08  38.7435        248.489        14.9298       -0.0094739769   2.5186537     -3.8005816      0.39930624     2.6429679e-07 -1.4048486e-06
     15300           0  -48992.796      4.1754929e-09  2.615527e-08   38.7435        248.489        14.9298       -0.0094833359   2.5186536     -3.8005722      0.39931816     2.6093362e-07 -1.3867165e-06
     15400           0  -48992.796      2.7176325e-10  1.6920981e-08  38.7435        248.489        14.9298       -0.0094908878   2.5186535     -3.8005646      0.39932779     2.5814969e-07 -1.3720188e-06
     15500           0  -48992.796      2.2199052e-09  1.9270394e-08  38.7435        248.489        14.9298       -0.0094994062   2.5186534     -3.8005561      0.39933864     2.549405e-07  -1.3548732e-06
     15600           0  -48992.796      2.4316148e-09  1.9331117e-08  38.7435        248.489        14.9298       -0.0095073457   2.5186533     -3.8005481      0.39934876     2.5186376e-07 -1.3384939e-06
     15700           0  -48992.796      2.416028e-10   1.5164913e-08  38.7435        248.489        14.9298       -0.0095141357   2.5186532     -3.8005413      0.39935741     2.49169e-07   -1.3241157e-06
     15800           0  -48992.796      4.6500406e-10  1.4766742e-08  38.7435        248.489        14.9298       -0.0095212968   2.5186531     -3.8005341      0.39936653     2.462705e-07  -1.3085632e-06
     15900           0  -48992.796      2.0693961e-10  1.4017079e-08  38.7435        248.489        14.9298       -0.0095292337   2.518653      -3.8005262      0.39937665     2.4295559e-07 -1.2910175e-06
     16000           0  -48992.796      2.2611721e-10  1.3592133e-08  38.7435        248.489        14.9298       -0.0095350898   2.5186529     -3.8005203      0.39938411     2.404493e-07  -1.2778163e-06
     16100           0  -48992.796      6.7166736e-10  1.3458008e-08  38.7435        248.489        14.9298       -0.0095414456   2.5186529     -3.8005139      0.39939221     2.3766252e-07 -1.2628783e-06
     16200           0  -48992.796      1.1722638e-09  1.3719386e-08  38.7435        248.489        14.9298       -0.0095481694   2.5186528     -3.8005072      0.39940077     2.3465675e-07 -1.2468105e-06
     16300           0  -48992.796      2.0360056e-10  1.2207067e-08  38.7435        248.489        14.9298       -0.0095534389   2.5186527     -3.8005019      0.39940749     2.3222618e-07 -1.2339996e-06
     16400           0  -48992.796      1.6563502e-10  1.1719407e-08  38.7435        248.489        14.9298       -0.0095596405   2.5186527     -3.8004957      0.39941539     2.292966e-07  -1.218467e-06 
     16500           0  -48992.796      1.9206798e-09  1.4408949e-08  38.7435        248.489        14.9298       -0.0095655559   2.5186526     -3.8004898      0.39942293     2.264488e-07  -1.2031416e-06
     16600           0  -48992.796      2.510816e-10   1.0970783e-08  38.7435        248.489        14.9298       -0.0095703727   2.5186525     -3.8004849      0.39942907     2.2405026e-07 -1.1904685e-06
     16700           0  -48992.796      2.430831e-10   1.0579855e-08  38.7435        248.489        14.9298       -0.0095755359   2.5186525     -3.8004797      0.39943564     2.2142297e-07 -1.1765896e-06
     16800           0  -48992.796      1.404877e-09   1.2024836e-08  38.7435        248.489        14.9298       -0.0095816293   2.5186524     -3.8004736      0.39944341     2.1824826e-07 -1.1596347e-06
     16900           0  -48992.796      1.7363305e-10  9.780058e-09   38.7435        248.489        14.9298       -0.0095857396   2.5186524     -3.8004695      0.39944865     2.1605688e-07 -1.1479177e-06
     17000           0  -48992.796      4.1604211e-10  9.6088921e-09  38.7435        248.489        14.9298       -0.0095902597   2.5186523     -3.800465       0.3994544      2.1357733e-07 -1.1348409e-06
     17100           0  -48992.796      7.3367018e-10  9.6812201e-09  38.7435        248.489        14.9298       -0.0095950248   2.5186522     -3.8004602      0.39946048     2.1091061e-07 -1.1205899e-06
     17200           0  -48992.796      1.2220236e-10  8.7092622e-09  38.7435        248.489        14.9298       -0.0095995493   2.5186522     -3.8004557      0.39946624     2.0828736e-07 -1.1066583e-06
     17300           0  -48992.796      3.1874419e-10  8.5513316e-09  38.7435        248.489        14.9298       -0.0096035442   2.5186521     -3.8004517      0.39947133     2.0592372e-07 -1.0942088e-06
     17400           0  -48992.796      1.9963115e-09  1.2688124e-08  38.7435        248.489        14.9298       -0.0096077317   2.5186521     -3.8004475      0.39947667     2.0339189e-07 -1.0806513e-06
     17500           0  -48992.796      1.0972844e-10  7.8313098e-09  38.7435        248.489        14.9298       -0.0096112083   2.5186521     -3.800444       0.3994811      2.0124327e-07 -1.0691839e-06
     17600           0  -48992.796      2.8375817e-10  7.6399538e-09  38.7435        248.489        14.9298       -0.0096153991   2.518652      -3.8004398      0.39948644     1.9857269e-07 -1.0548752e-06
     17700           0  -48992.796      2.1579003e-09  1.2748861e-08  38.7435        248.489        14.9298       -0.0096191356   2.518652      -3.800436       0.3994912      1.9613814e-07 -1.0419275e-06
     17800           0  -48992.796      1.2456823e-10  7.0312465e-09  38.7435        248.489        14.9298       -0.0096221148   2.5186519     -3.800433       0.39949499     1.9412678e-07 -1.0313978e-06
     17900           0  -48992.796      5.417664e-10   7.2503532e-09  38.7435        248.489        14.9298       -0.0096254739   2.5186519     -3.8004297      0.39949927     1.9183917e-07 -1.0190671e-06
     18000           0  -48992.796      1.783407e-09   1.0779069e-08  38.7435        248.489        14.9298       -0.0096293128   2.5186518     -3.8004258      0.39950417     1.8912397e-07 -1.004812e-06 
     18100           0  -48992.796      1.5380144e-10  6.3166324e-09  38.7435        248.489        14.9298       -0.009631871    2.5186518     -3.8004233      0.39950742     1.8729107e-07 -9.9500973e-07
     18200           0  -48992.796      3.5344567e-10  6.3193837e-09  38.7435        248.489        14.9298       -0.0096343816   2.5186518     -3.8004207      0.39951062     1.8545045e-07 -9.8506067e-07
     18300           0  -48992.796      4.2015527e-08  2.0345372e-07  38.7435        248.489        14.9298       -0.0096377651   2.5186517     -3.8004173      0.39951494     1.8288652e-07 -9.7151501e-07
     18400           0  -48992.796      2.7179839e-10  5.810523e-09   38.7435        248.489        14.9298       -0.0096400024   2.5186517     -3.8004151      0.39951779     1.8115395e-07 -9.6233643e-07
     18500           0  -48992.796      9.2483973e-10  7.0518043e-09  38.7435        248.489        14.9298       -0.0096427555   2.5186517     -3.8004123      0.39952129     1.7897535e-07 -9.5082624e-07
     18600           0  -48992.796      3.4947924e-08  1.6901929e-07  38.7435        248.489        14.9298       -0.0096455439   2.5186516     -3.8004095      0.39952485     1.7669911e-07 -9.3883145e-07
     18700           0  -48992.796      2.4064668e-10  5.2190087e-09  38.7435        248.489        14.9298       -0.0096475908   2.5186516     -3.8004075      0.39952745     1.7500676e-07 -9.2974167e-07
     18782           0  -48992.796      1.9582705e-10  5.0119438e-09  38.7435        248.489        14.9298       -0.0096497915   2.5186516     -3.8004053      0.39953026     1.7312677e-07 -9.1982753e-07
Loop time of 270.99 on 2 procs for 9329 steps with 11052 atoms

98.7% CPU use with 2 MPI tasks x 1 OpenMP threads

Minimization stats:
  Stopping criterion = force tolerance
  Energy initial, next-to-last, final = 
     -48992.7964209013  -48992.7964209022  -48992.7964209019
  Force two-norm initial, final = 1.4238893e-07 5.0119438e-09
  Force max component initial, final = 1.9946711e-09 1.9582705e-10
  Final line search alpha, max atom move = 0 0
  Iterations, force evaluations = 9329 9840

MPI task timing breakdown:
Section |  min time  |  avg time  |  max time  |%varavg| %total
---------------------------------------------------------------
Pair    | 228.37     | 229.14     | 229.91     |   5.1 | 84.56
Neigh   | 0          | 0          | 0          |   0.0 |  0.00
Comm    | 5.2584     | 6.0856     | 6.9128     |  33.5 |  2.25
Output  | 0.15626    | 0.16476    | 0.17326    |   2.1 |  0.06
Modify  | 18.208     | 18.218     | 18.229     |   0.3 |  6.72
Other   |            | 17.38      |            |       |  6.41

Nlocal:           5526 ave        5544 max        5508 min
Histogram: 1 0 0 0 0 0 0 0 0 1
Nghost:           7959 ave        8011 max        7907 min
Histogram: 1 0 0 0 0 0 0 0 0 1
Neighs:         234603 ave      234962 max      234244 min
Histogram: 1 0 0 0 0 0 0 0 0 1

Total # of neighbors = 469206
Ave neighs/atom = 42.454397
Neighbor list builds = 0
Dangerous builds = 0
write_data /data/home/yazhuo/Project/GBclaw/projects/proj-20260927-164bf2/artifacts/lammps/neb/neb-20260927-045814-1d9965/neb.replica.$i.final.lmp nocoeff
write_data /data/home/yazhuo/Project/GBclaw/projects/proj-20260927-164bf2/artifacts/lammps/neb/neb-20260927-045814-1d9965/neb.replica.0.final.lmp nocoeff
System init for write_data ...
Total wall time: 0:09:07
