LAMMPS (30 Mar 2026)
Processor partition = 10
OMP_NUM_THREADS environment is not set. Defaulting to 1 thread.
  using 1 OpenMP thread(s) per MPI task
clear
OMP_NUM_THREADS environment is not set. Defaulting to 1 thread.
  using 1 OpenMP thread(s) per MPI task
units metal
dimension 3
atom_style atomic
boundary p p p
atom_modify map array
read_data "/data/home/yazhuo/Project/GBclaw/projects/proj-20260927-164bf2/artifacts/lammps/neb/neb-20260927-045814-1d9965/inputs/initial.lmp"
Reading data file ...
  orthogonal box = (-19.37175 -124.2445 -7.4649) to (19.37175 124.2445 7.4649)
  1 by 2 by 1 MPI processor grid
  reading atoms ...
  11052 atoms
  read_data CPU = 0.045 seconds
neighbor 1.0 bin
neigh_modify delay 0 every 1 check yes
pair_style adp
pair_coeff * * "/data/home/yazhuo/Project/GBclaw/src/tools/potentials/NiCr.adp" Ni
group top_boundary empty
0 atoms in group top_boundary
group top_boundary id 5180 5151 5159 5109 5117 5067 5075 5025 5033 4992 5184 5160 5118 5076 5034 5181 5154 5156 5157 5112 5114 5115 5070 5072 5073 5028 5030 5031 4990 4991 5182 5155 5113 5071 5029 5175 5176 5141 5144 5146 5147 5099 5102 5104 5105 5057 5060 5062 5063 5015 5018 5020 5021 4985 4986 5177 5183 5145 5158 5103 5116 5061 5074 5019 5032 5168 5169 5129 5132 5134 5087 5090 5092 5045 5048 5050 5003 5006 5008 4980 5170 5178 5133 5148 5091 5106 5049 5064 5007 5022 11027 11048 10985 11019 10943 10977 10901 10935 10859 10893
100 atoms in group top_boundary
group top_boundary id 10818 10851 11052 11028 10986 10944 10902 10860 11024 11025 11049 10982 10983 11022 10940 10941 10980 10898 10899 10938 10856 10857 10896 10816 10817 10854 11050 11023 10981 10939 10897 10855 11014 11015 11043 11044 10972 10973 11009 11012 10930 10931 10967 10970 10888 10889 10925 10928 10846 10847 10883 10886 10811 10812 10841 10844 11045 11051 11013 11026 10971 10984 10929 10942 10887 10900 10845 10858 11002 11036 11037 10960 10997 11000 10918 10955 10958 10876 10913 10916 10834 10871 10874 10806 10829 10832 11038 11046 11001 11016 10959 10974 10917 10932 10875 10890 10833 10848
198 atoms in group top_boundary
group bottom_boundary empty
0 atoms in group bottom_boundary
group bottom_boundary id 174 125 83 123 84 32 34 10 177 139 175 140 85 87 46 12 47 160 111 124 68 69 126 67 21 33 35 6 7 164 176 128 129 178 127 73 86 88 37 38 9 11 36 152 161 105 110 58 59 109 112 57 70 15 19 20 22 2 3 156 163 114 115 162 165 113 130 63 71 72 74 24 25 5 8 23 39 151 153 104 56 103 106 55 60 13 14 16 1 155 108 154 157 107 116 61 62 64 18 4
100 atoms in group bottom_boundary
group bottom_boundary id 17 26 5345 5390 5303 5343 5304 5247 5249 5214 5190 5215 5391 5359 5360 5307 5263 5305 5264 5216 5218 5331 5344 5378 5288 5289 5346 5287 5235 5248 5250 5203 5204 5188 5189 5202 5392 5347 5348 5349 5293 5306 5252 5253 5308 5251 5208 5217 5219 5325 5330 5372 5379 5278 5279 5329 5332 5277 5290 5229 5233 5234 5236 5194 5195 5186 5187 5193 5205 5380 5381 5333 5334 5335 5350 5283 5292 5238 5239 5291 5294 5237 5254 5199 5206 5207 5209 5324 5371 5373 5276 5323 5326 5275 5280 5227 5228 5230 5192 5185
200 atoms in group bottom_boundary
group bottom_boundary id 5191 5196 5374 5375 5327 5328 5336 5282 5232 5281 5284 5231 5240 5197 5198 5200
216 atoms in group bottom_boundary
group fixed_xy union top_boundary bottom_boundary
414 atoms in group fixed_xy
variable __gb_neb_count_top_boundary equal count(top_boundary)
variable __gb_neb_count_top_boundary delete
variable __gb_neb_count_bottom_boundary equal count(bottom_boundary)
variable __gb_neb_count_bottom_boundary delete
min_style fire
timestep 0.01
fix neb_path all neb 1
fix hold_boundary_xy fixed_xy setforce 0.0 0.0 NULL
thermo 100
thermo_style custom step part pe fmax fnorm lx ly lz pxx pyy pzz pxy pxz pyz
thermo_modify flush yes
variable i equal part
dump neb_dump all custom 1000 /data/home/yazhuo/Project/GBclaw/projects/proj-20260927-164bf2/artifacts/lammps/neb/neb-20260927-045814-1d9965/neb.replica.$i.lammpstrj id type x y z ix iy iz fx fy fz
dump neb_dump all custom 1000 /data/home/yazhuo/Project/GBclaw/projects/proj-20260927-164bf2/artifacts/lammps/neb/neb-20260927-045814-1d9965/neb.replica.10.lammpstrj id type x y z ix iy iz fx fy fz
dump_modify neb_dump sort id
run 0
WARNING: No fixes with time integration, atoms won't move
For more information see https://docs.lammps.org/err0028 (src/verlet.cpp:60)
Neighbor list info ...
  update: every = 1 steps, delay = 0 steps, check = yes
  max neighbors/atom: 2000, page size: 100000
  master list distance cutoff = 6.168302
  ghost atom cutoff = 6.168302
  binsize = 3.084151, bins = 13 81 5
  1 neighbor lists, perpetual/occasional/extra = 1 0 0
  (1) pair adp, perpetual
      attributes: half, newton on
      pair build: half/bin/atomonly/newton
      stencil: half/bin/3d
      bin: standard
Per MPI rank memory allocation (min/avg/max) = 7.422 | 7.43 | 7.438 Mbytes
   Step        Part         PotEng          Fmax          Fnorm            Lx             Ly             Lz            Pxx            Pyy            Pzz            Pxy            Pxz            Pyz      
         0          10  -48992.796      0.0024845783   0.10363051     38.7435        248.489        14.9298        0.19007438     2.918104      -3.7172695      0.3830234      3.2510357e-05 -0.0010155383 
Loop time of 2.8985e-06 on 2 procs for 0 steps with 11052 atoms

120.8% CPU use with 2 MPI tasks x 1 OpenMP threads

MPI task timing breakdown:
Section |  min time  |  avg time  |  max time  |%varavg| %total
---------------------------------------------------------------
Pair    | 0          | 0          | 0          |   0.0 |  0.00
Neigh   | 0          | 0          | 0          |   0.0 |  0.00
Comm    | 0          | 0          | 0          |   0.0 |  0.00
Output  | 0          | 0          | 0          |   0.0 |  0.00
Modify  | 0          | 0          | 0          |   0.0 |  0.00
Other   |            | 2.899e-06  |            |       |100.00

Nlocal:           5526 ave        5544 max        5508 min
Histogram: 1 0 0 0 0 0 0 0 0 1
Nghost:           7959 ave        8011 max        7907 min
Histogram: 1 0 0 0 0 0 0 0 0 1
Neighs:         234603 ave      234962 max      234244 min
Histogram: 1 0 0 0 0 0 0 0 0 1

Total # of neighbors = 469206
Ave neighs/atom = 42.454397
Neighbor list builds = 0
Dangerous builds = 0
neb 0 0.0001 10000 10000 100 final "/data/home/yazhuo/Project/GBclaw/projects/proj-20260927-164bf2/artifacts/lammps/neb/neb-20260927-045814-1d9965/inputs/final.neb.coords" verbosity default
  Parameters for fire:
    dmax  delaystep dtgrow dtshrink alpha0 alphashrink tmax tmin   integrator   halfstepback   abcfire  
     0.1     20      1.1     0.5     0.25     0.99      10  0.02 eulerimplicit      yes          no     
Per MPI rank memory allocation (min/avg/max) = 9.901 | 9.909 | 9.917 Mbytes
   Step        Part         PotEng          Fmax          Fnorm            Lx             Ly             Lz            Pxx            Pyy            Pzz            Pxy            Pxz            Pyz      
         0          10  -48992.071      0.31512893     2.3317807      38.7435        248.489        14.9298        101.87582     -338.43332     -150.31151     -54.472609     -6.6771639      56.240885    
       100          10  -48992.711      0.00070006935  0.012456521    38.7435        248.489        14.9298        134.59348     -382.31043     -118.33939     -52.146284     -49.805111      44.689699    
       200          10  -48992.711      0.00014816579  0.010842463    38.7435        248.489        14.9298        132.04593     -378.34643     -116.71202     -56.535721     -45.857867      32.585863    
       300          10  -48992.711      0.00019217131  0.0086330156   38.7435        248.489        14.9298        132.10017     -378.2723      -115.70137     -61.731049     -43.969516      28.045034    
       400          10  -48992.711      0.00043279528  0.0064082123   38.7435        248.489        14.9298        132.76434     -379.83593     -114.72587     -68.530204     -43.337814      27.511859    
       500          10  -48992.711      0.00077736314  0.0049949891   38.7435        248.489        14.9298        133.15452     -383.41707     -113.55472     -78.285732     -44.035887      30.455965    
       600          10  -48992.712      0.0012080125   0.0064979268   38.7435        248.489        14.9298        132.46058     -388.65859     -112.47015     -88.956802     -45.671465      34.851266    
       700          10  -48992.713      0.0018929114   0.011173615    38.7435        248.489        14.9298        129.4228      -398.55816     -111.13322     -104.90052     -48.707878      41.041882    
       800          10  -48992.72       0.0025848265   0.018138641    38.7435        248.489        14.9298        116.18134     -424.56473     -108.59737     -139.57304     -55.896049      50.603482    
       900          10  -48992.728      0.0016962454   0.014607802    38.7435        248.489        14.9298        99.089967     -447.77869     -105.0278      -173.70436     -62.163977      55.862445    
      1000          10  -48992.734      0.000629618    0.0077789343   38.7435        248.489        14.9298        86.659404     -460.57795     -100.28506     -203.08018     -65.611238      58.546774    
      1100          10  -48992.737      0.00015804534  0.0038869182   38.7435        248.489        14.9298        80.998501     -465.0371      -96.496593     -221.78519     -66.597673      59.394021    
      1200          10  -48992.738      4.7548463e-05  0.0023195778   38.7435        248.489        14.9298        79.415951     -465.66595     -94.968472     -228.33301     -66.452683      58.589191    
      1300          10  -48992.739      3.0998477e-05  0.0018016331   38.7435        248.489        14.9298        78.784749     -465.6704      -94.166568     -231.50053     -66.044528      57.200914    
      1400          10  -48992.739      2.0820696e-05  0.0017646919   38.7435        248.489        14.9298        78.539924     -465.41546     -93.677813     -233.22011     -65.380309      55.040253    
      1500          10  -48992.739      2.3009463e-05  0.00179658     38.7435        248.489        14.9298        78.539867     -465.04615     -93.455844     -233.78752     -64.622551      52.580394    
      1600          10  -48992.739      2.6217234e-05  0.0017745053   38.7435        248.489        14.9298        78.612358     -464.70262     -93.371578     -233.82919     -63.967877      50.445602    
      1700          10  -48992.739      2.7391817e-05  0.0016875563   38.7435        248.489        14.9298        78.738419     -464.2367      -93.329238     -233.59028     -63.124373      47.677674    
      1800          10  -48992.739      2.7826246e-05  0.001570517    38.7435        248.489        14.9298        78.860201     -463.78921     -93.322763     -233.21066     -62.35588       45.135976    
      1900          10  -48992.739      2.7432131e-05  0.0014462454   38.7435        248.489        14.9298        78.964442     -463.369       -93.328522     -232.79351     -61.668099      42.841267    
      2000          10  -48992.738      2.7012872e-05  0.0013159706   38.7435        248.489        14.9298        79.054797     -462.94728     -93.337606     -232.34634     -61.012         40.629356    
      2100          10  -48992.738      2.5015232e-05  0.0011549707   38.7435        248.489        14.9298        79.140762     -462.43724     -93.344842     -231.79474     -60.263558      38.067582    
      2200          10  -48992.738      2.3261026e-05  0.001042707    38.7435        248.489        14.9298        79.180454     -462.08459     -93.342972     -231.42223     -59.76897       36.340643    
      2300          10  -48992.738      1.7344622e-05  0.00089773299  38.7435        248.489        14.9298        79.195294     -461.65805     -93.325478     -231.00611     -59.181879      34.233593    
      2400          10  -48992.738      1.2586788e-05  0.00074590537  38.7435        248.489        14.9298        79.13963      -461.28712     -93.274365     -230.73993     -58.639417      32.178404    
      2500          10  -48992.738      1.1649401e-05  0.00065698754  38.7435        248.489        14.9298        79.040575     -461.14569     -93.212357     -230.7593      -58.357719      31.01262     
      2600          10  -48992.738      1.6463799e-05  0.00058930695  38.7435        248.489        14.9298        78.879863     -461.12503     -93.121301     -230.99795     -58.150796      30.040367    
      2700          10  -48992.738      3.0745369e-05  0.00055562539  38.7435        248.489        14.9298        78.56088      -461.31987     -92.944848     -231.72777     -57.989328      29.036851    
      2800          10  -48992.738      3.5775215e-05  0.0005760942   38.7435        248.489        14.9298        78.279091     -461.61136     -92.786137     -232.51464     -57.947671      28.52915     
      2900          10  -48992.738      3.719071e-05   0.0006473071   38.7435        248.489        14.9298        77.926319     -462.07558     -92.577465     -233.63487     -57.945126      28.086773    
      3000          10  -48992.739      2.9161542e-05  0.00073995359  38.7435        248.489        14.9298        77.610448     -462.57897     -92.364546     -234.79053     -57.925926      27.635656    
      3100          10  -48992.739      2.0335381e-05  0.00080685629  38.7435        248.489        14.9298        77.460327     -462.87194     -92.24376      -235.42656     -57.871831      27.255096    
      3200          10  -48992.739      1.1030157e-05  0.00086679852  38.7435        248.489        14.9298        77.3756       -463.08869     -92.155832     -235.85675     -57.773388      26.787504    
      3300          10  -48992.739      1.1586619e-05  0.00093075134  38.7435        248.489        14.9298        77.344997     -463.26406     -92.086499     -236.12574     -57.576344      26.018209    
      3400          10  -48992.739      1.1921771e-05  0.00096210697  38.7435        248.489        14.9298        77.369274     -463.33213     -92.06154      -236.13387     -57.359285      25.242628    
      3500          10  -48992.739      1.2130742e-05  0.00097447032  38.7435        248.489        14.9298        77.425539     -463.34295     -92.059222     -235.97925     -57.090794      24.31842     
      3600          10  -48992.739      1.2200925e-05  0.00096493161  38.7435        248.489        14.9298        77.51128      -463.29532     -92.077221     -235.65226     -56.749331      23.164891    
      3700          10  -48992.739      1.2148394e-05  0.00094438737  38.7435        248.489        14.9298        77.582588     -463.228       -92.099819     -235.33066     -56.473188      22.236557    
      3800          10  -48992.739      1.2844974e-05  0.00091512629  38.7435        248.489        14.9298        77.654116     -463.14116     -92.126509     -234.96759     -56.188127      21.276606    
      3900          10  -48992.739      1.3444173e-05  0.00085307659  38.7435        248.489        14.9298        77.764187     -462.96887     -92.172879     -234.32305     -55.716573      19.676676    
      4000          10  -48992.739      1.3136813e-05  0.0008037587   38.7435        248.489        14.9298        77.830321     -462.83754     -92.203325     -233.87056     -55.40079       18.591368    
      4100          10  -48992.739      1.3654805e-05  0.00075314102  38.7435        248.489        14.9298        77.885892     -462.70291     -92.230145     -233.42934     -55.099659      17.541159    
      4200          10  -48992.739      1.2808571e-05  0.00069374127  38.7435        248.489        14.9298        77.936327     -462.55093     -92.255377     -232.95445     -54.781357      16.411194    
      4300          10  -48992.738      1.1793052e-05  0.00062655161  38.7435        248.489        14.9298        77.977516     -462.38252     -92.276666     -232.45129     -54.447933      15.198168    
      4400          10  -48992.738      1.1169597e-05  0.00057542973  38.7435        248.489        14.9298        77.998257     -462.25574     -92.287558     -232.08832     -54.209467      14.306348    
      4500          10  -48992.738      9.8596494e-06  0.00051382214  38.7435        248.489        14.9298        78.011345     -462.106       -92.29432      -231.67751     -53.941847      13.274272    
      4600          10  -48992.738      8.9329266e-06  0.00046761367  38.7435        248.489        14.9298        78.012269     -461.99402     -92.294379     -231.38391     -53.752376      12.51626     
      4700          10  -48992.738      8.1374631e-06  0.00042124259  38.7435        248.489        14.9298        78.004637     -461.88074     -92.289396     -231.10066     -53.571927      11.764248    
      4800          10  -48992.738      7.0888028e-06  0.00037753537  38.7435        248.489        14.9298        77.988786     -461.77408     -92.279492     -230.84766     -53.413438      11.069838    
      4900          10  -48992.738      5.9526967e-06  0.00033176552  38.7435        248.489        14.9298        77.960833     -461.6604      -92.2621       -230.5953      -53.259264      10.346087    
      5000          10  -48992.738      5.3445679e-06  0.0002988936   38.7435        248.489        14.9298        77.9309       -461.57551     -92.243353     -230.42127     -53.15677       9.8196597    
      5100          10  -48992.738      4.6966636e-06  0.00026811949  38.7435        248.489        14.9298        77.892545     -461.49213     -92.219096     -230.26514     -53.069596      9.3187183    
      5200          10  -48992.738      4.0738141e-06  0.00024245412  38.7435        248.489        14.9298        77.848114     -461.41662     -92.190657     -230.14016     -53.006151      8.8844935    
      5300          10  -48992.738      3.9953279e-06  0.00022576855  38.7435        248.489        14.9298        77.808471     -461.36195     -92.165013     -230.06238     -52.972533      8.5857474    
      5400          10  -48992.738      3.8741061e-06  0.00021073031  38.7435        248.489        14.9298        77.759811     -461.30618     -92.133191     -229.9973      -52.952439      8.2998292    
      5500          10  -48992.738      3.7101572e-06  0.00019895833  38.7435        248.489        14.9298        77.703992     -461.25388     -92.0962       -229.95438     -52.952111      8.0575506    
      5600          10  -48992.737      3.5656792e-06  0.00019252953  38.7435        248.489        14.9298        77.659767     -461.21942     -92.066505     -229.93963     -52.9661        7.9187099    
      5700          10  -48992.737      3.3952119e-06  0.00018743316  38.7435        248.489        14.9298        77.611522     -461.18757     -92.033742     -229.93945     -52.993419      7.8119183    
      5800          10  -48992.737      3.1854975e-06  0.00018314194  38.7435        248.489        14.9298        77.556062     -461.15738     -91.995576     -229.95712     -53.038716      7.7403692    
      5900          10  -48992.737      2.9949873e-06  0.00018012443  38.7435        248.489        14.9298        77.50832      -461.13616     -91.962254     -229.9858      -53.088562      7.7185383    
      6000          10  -48992.737      2.803457e-06   0.00017733366  38.7435        248.489        14.9298        77.462293     -461.11934     -91.929685     -230.02393     -53.145403      7.7295099    
      6100          10  -48992.737      2.5954894e-06  0.00017418856  38.7435        248.489        14.9298        77.414102     -461.10527     -91.895091     -230.07403     -53.213705      7.7731142    
      6200          10  -48992.737      2.4274805e-06  0.00017117347  38.7435        248.489        14.9298        77.373966     -461.09617     -91.865868     -230.12321     -53.277174      7.8336627    
      6300          10  -48992.737      2.2557291e-06  0.00016674744  38.7435        248.489        14.9298        77.324345     -461.08797     -91.829186     -230.19261     -53.363478      7.9375856    
      6400          10  -48992.737      2.100944e-06   0.00016210711  38.7435        248.489        14.9298        77.281773     -461.08357     -91.79715      -230.25956     -53.444488      8.0528993    
      6500          10  -48992.737      2.0769562e-06  0.00015789181  38.7435        248.489        14.9298        77.248763     -461.08174     -91.771909     -230.31588     -53.511638      8.1588186    
      6600          10  -48992.737      2.0686739e-06  0.00015258693  38.7435        248.489        14.9298        77.212471     -461.08127     -91.743731     -230.38196     -53.589666      8.2916322    
      6700          10  -48992.737      2.0313856e-06  0.0001455349   38.7435        248.489        14.9298        77.170828     -461.0827      -91.710775     -230.46289     -53.684556      8.4654748    
      6800          10  -48992.737      1.9863531e-06  0.00013987612  38.7435        248.489        14.9298        77.141604     -461.085       -91.687192     -230.52284     -53.754556      8.6016628    
      6900          10  -48992.737      1.929853e-06   0.00013402325  38.7435        248.489        14.9298        77.114162     -461.08807     -91.66467      -230.58122     -53.822723      8.740098     
      7000          10  -48992.737      1.8519873e-06  0.00012700781  38.7435        248.489        14.9298        77.084262     -461.09245     -91.63967      -230.64696     -53.899546      8.9026764    
      7100          10  -48992.737      1.7787524e-06  0.00012102492  38.7435        248.489        14.9298        77.060883     -461.09663     -91.619748     -230.69971     -53.961356      9.0384213    
      7200          10  -48992.737      1.6775106e-06  0.00011334363  38.7435        248.489        14.9298        77.033081     -461.10243     -91.595594     -230.76364     -54.036595      9.2093739    
      7300          10  -48992.737      1.5832669e-06  0.00010661246  38.7435        248.489        14.9298        77.010513     -461.10779     -91.575552     -230.81623     -54.098921      9.3559563    
      7400          10  -48992.737      1.4947794e-06  0.00010055337  38.7435        248.489        14.9298        76.991353     -461.1128      -91.558205     -230.86107     -54.152483      9.4855802    
      7500          10  -48992.738      1.4012394e-06  9.4359902e-05  38.7435        248.489        14.9298        76.972707     -461.11805     -91.54101      -230.90463     -54.204963      9.6159681    
      7600          10  -48992.738      1.2826694e-06  8.6754912e-05  38.7435        248.489        14.9298        76.950913     -461.12463     -91.52048      -230.95503     -54.266404      9.7731641    
      7700          10  -48992.738      1.1958159e-06  8.1325835e-05  38.7435        248.489        14.9298        76.936009     -461.12938     -91.506137     -230.98883     -54.30823       9.8833072    
      7800          10  -48992.738      1.1072125e-06  7.5894421e-05  38.7435        248.489        14.9298        76.921511     -461.13417     -91.491941     -231.02093     -54.348526      9.991989     
      7900          10  -48992.738      1.0097845e-06  7.0030296e-05  38.7435        248.489        14.9298        76.906241     -461.13935     -91.476708     -231.05357     -54.390257      10.107538    
      8000          10  -48992.738      9.2265371e-07  6.4871683e-05  38.7435        248.489        14.9298        76.893055     -461.14391     -91.46331      -231.08047     -54.425427      10.20762     
      8100          10  -48992.738      8.4219743e-07  6.0175734e-05  38.7435        248.489        14.9298        76.881175     -461.14805     -91.45104      -231.10343     -54.456186      10.297474    
      8200          10  -48992.738      7.575475e-07   5.5300737e-05  38.7435        248.489        14.9298        76.868891     -461.15232     -91.438146     -231.1256      -54.4868        10.389443    
      8300          10  -48992.738      7.0238679e-07  5.1271872e-05  38.7435        248.489        14.9298        76.858711     -461.15583     -91.427301     -231.14252     -54.511031      10.464382    
      8400          10  -48992.738      6.5745824e-07  4.7127951e-05  38.7435        248.489        14.9298        76.848129     -461.15941     -91.415878     -231.15853     -54.534926      10.5405      
      8500          10  -48992.738      6.215987e-07   4.4025358e-05  38.7435        248.489        14.9298        76.840081     -461.16207     -91.40709      -231.16946     -54.552077      10.596797    
      8600          10  -48992.738      5.8482964e-07  4.101423e-05   38.7435        248.489        14.9298        76.832113     -461.16462     -91.398307     -231.17912     -54.568069      10.650837    
      8700          10  -48992.738      5.3612304e-07  3.7269424e-05  38.7435        248.489        14.9298        76.821895     -461.16775     -91.386931     -231.18963     -54.586966      10.717148    
      8800          10  -48992.738      4.9130729e-07  3.405151e-05   38.7435        248.489        14.9298        76.812724     -461.17039     -91.376623     -231.1971      -54.60222       10.773266    
      8900          10  -48992.738      4.6050152e-07  3.1959329e-05  38.7435        248.489        14.9298        76.806495     -461.17208     -91.369575     -231.20104     -54.611582      10.80927     
      9000          10  -48992.738      4.2124164e-07  2.9429181e-05  38.7435        248.489        14.9298        76.798586     -461.17407     -91.360585     -231.20468     -54.622258      10.852294    
      9100          10  -48992.738      3.8148124e-07  2.7018382e-05  38.7435        248.489        14.9298        76.790549     -461.17593     -91.351409     -231.20676     -54.631647      10.892634    
      9200          10  -48992.738      3.5244412e-07  2.5352542e-05  38.7435        248.489        14.9298        76.784618     -461.17717     -91.344621     -231.20723     -54.637612      10.920076    
      9300          10  -48992.738      3.2369834e-07  2.3781054e-05  38.7435        248.489        14.9298        76.77866      -461.17832     -91.337793     -231.2068      -54.642765      10.945546    
      9400          10  -48992.738      2.9668234e-07  2.2038209e-05  38.7435        248.489        14.9298        76.771523     -461.17953     -91.329612     -231.20505     -54.64781       10.973141    
      9453          10  -48992.738      2.908864e-07   2.1469445e-05  38.7435        248.489        14.9298        76.769047     -461.1799      -91.326774     -231.20414     -54.649276      10.981956    
Loop time of 275.698 on 2 procs for 9453 steps with 11052 atoms

98.9% CPU use with 2 MPI tasks x 1 OpenMP threads

Minimization stats:
  Stopping criterion = force tolerance
  Energy initial, next-to-last, final = 
     -48992.0711547969  -48992.7376262527  -48992.7376262614
  Force two-norm initial, final = 2.3317807 2.1469445e-05
  Force max component initial, final = 0.31512893 2.908864e-07
  Final line search alpha, max atom move = 0 0
  Iterations, force evaluations = 9453 9970

MPI task timing breakdown:
Section |  min time  |  avg time  |  max time  |%varavg| %total
---------------------------------------------------------------
Pair    | 215.44     | 217.47     | 219.5      |  13.8 | 78.88
Neigh   | 0          | 0          | 0          |   0.0 |  0.00
Comm    | 2.347      | 4.418      | 6.4889     |  98.5 |  1.60
Output  | 0.14644    | 0.15374    | 0.16105    |   1.9 |  0.06
Modify  | 43.215     | 43.224     | 43.234     |   0.1 | 15.68
Other   |            | 10.43      |            |       |  3.78

Nlocal:           5526 ave        5544 max        5508 min
Histogram: 1 0 0 0 0 0 0 0 0 1
Nghost:           8594 ave        8631 max        8557 min
Histogram: 1 0 0 0 0 0 0 0 0 1
Neighs:         234672 ave      235458 max      233886 min
Histogram: 1 0 0 0 0 0 0 0 0 1

Total # of neighbors = 469344
Ave neighs/atom = 42.466884
Neighbor list builds = 0
Dangerous builds = 0
  Parameters for fire:
    dmax  delaystep dtgrow dtshrink alpha0 alphashrink tmax tmin   integrator   halfstepback   abcfire  
     0.1     20      1.1     0.5     0.25     0.99      10  0.02 eulerimplicit      yes          no     
Per MPI rank memory allocation (min/avg/max) = 9.901 | 9.909 | 9.917 Mbytes
   Step        Part         PotEng          Fmax          Fnorm            Lx             Ly             Lz            Pxx            Pyy            Pzz            Pxy            Pxz            Pyz      
      9453          10  -48992.738      2.908864e-07   2.1469445e-05  38.7435        248.489        14.9298        76.769047     -461.1799      -91.326774     -231.20414     -54.649276      10.981956    
      9500          10  -48992.746      0.0014197677   0.015856581    38.7435        248.489        14.9298        68.6744       -476.27617     -88.803116     -255.0733      -61.099859      24.302384    
      9600          10  -48992.754      0.00048907378  0.013124       38.7435        248.489        14.9298        62.660275     -491.50905     -83.621925     -290.41734     -67.004651      43.107087    
      9700          10  -48992.758      0.00033607264  0.012149012    38.7435        248.489        14.9298        61.628755     -497.22964     -80.689007     -308.22082     -69.432449      53.533875    
      9800          10  -48992.762      0.00024051961  0.010885295    38.7435        248.489        14.9298        61.311683     -501.98443     -77.744164     -325.489       -71.636534      64.136964    
      9900          10  -48992.765      0.00020304133  0.0094830735   38.7435        248.489        14.9298        61.389935     -505.45456     -75.038373     -340.70692     -73.467341      73.671177    
     10000          10  -48992.767      0.00016585759  0.008082413    38.7435        248.489        14.9298        61.849485     -507.3625      -72.968601     -351.80566     -74.642558      80.775194    
     10100          10  -48992.768      0.00012298028  0.0066292238   38.7435        248.489        14.9298        62.794769     -508.00963     -71.754501     -358.11707     -75.076808      85.222018    
     10200          10  -48992.769      8.0555965e-05  0.0053889132   38.7435        248.489        14.9298        64.24972      -507.74339     -71.623536     -358.92218     -74.683117      86.643144    
     10300          10  -48992.769      7.7870162e-05  0.0048092254   38.7435        248.489        14.9298        65.491769     -507.19712     -72.267181     -355.91992     -73.859134      85.518897    
     10400          10  -48992.769      7.6721081e-05  0.0043980397   38.7435        248.489        14.9298        66.604149     -506.62171     -73.296951     -351.08594     -72.781186      83.022084    
     10500          10  -48992.769      5.8611656e-05  0.0036848505   38.7435        248.489        14.9298        67.729143     -506.05107     -74.821954     -343.94863     -71.251801      78.726087    
     10600          10  -48992.768      3.7522008e-05  0.0029366901   38.7435        248.489        14.9298        68.29864      -505.85471     -75.837634     -339.2334      -70.21175       75.547803    
     10700          10  -48992.768      2.6985818e-05  0.0022390099   38.7435        248.489        14.9298        68.648136     -505.86031     -76.552599     -335.97007     -69.452603      73.17192     
     10800          10  -48992.768      1.6951897e-05  0.0016097782   38.7435        248.489        14.9298        68.909865     -506.01978     -77.079601     -333.64164     -68.874587      71.385311    
     10900          10  -48992.768      1.4728172e-05  0.0012231316   38.7435        248.489        14.9298        69.098095     -506.22477     -77.379441     -332.3917      -68.553986      70.452107    
     11000          10  -48992.768      1.5374695e-05  0.00096748841  38.7435        248.489        14.9298        69.288719     -506.43757     -77.598744     -331.54205     -68.357249      69.947446    
     11100          10  -48992.767      1.4898122e-05  0.0008104111   38.7435        248.489        14.9298        69.478928     -506.60507     -77.772114     -330.90608     -68.255577      69.747474    
     11200          10  -48992.767      1.2824541e-05  0.00066788809  38.7435        248.489        14.9298        69.760544     -506.7586      -78.018735     -330.00448     -68.191644      69.692235    
     11300          10  -48992.767      1.0983792e-05  0.00061395354  38.7435        248.489        14.9298        69.938555     -506.80943     -78.189749     -329.36688     -68.176928      69.709698    
     11400          10  -48992.767      9.2746551e-06  0.00057502662  38.7435        248.489        14.9298        70.174165     -506.83828     -78.444695     -328.40594     -68.174957      69.751882    
     11500          10  -48992.767      9.5760683e-06  0.0005622585   38.7435        248.489        14.9298        70.345845     -506.83871     -78.654913     -327.61421     -68.185909      69.794841    
     11600          10  -48992.767      9.3428812e-06  0.00055237475  38.7435        248.489        14.9298        70.501474     -506.82895     -78.865042     -326.83203     -68.207789      69.852188    
     11700          10  -48992.767      8.4495513e-06  0.00053171147  38.7435        248.489        14.9298        70.67759      -506.81174     -79.126803     -325.88378     -68.254292      69.964897    
     11800          10  -48992.767      7.5760656e-06  0.00050161243  38.7435        248.489        14.9298        70.816619     -506.79844     -79.350161     -325.11223     -68.317281      70.125875    
     11900          10  -48992.767      6.9013229e-06  0.00047456075  38.7435        248.489        14.9298        70.91022      -506.79211     -79.506374     -324.603       -68.37899       70.29464     
     12000          10  -48992.767      6.0473408e-06  0.0004403498   38.7435        248.489        14.9298        71.012241     -506.78882     -79.678163     -324.08122     -68.468374      70.554277    
     12100          10  -48992.767      5.2565862e-06  0.00040964079  38.7435        248.489        14.9298        71.10376      -506.78859     -79.829519     -323.66329     -68.570152      70.866974    
     12200          10  -48992.767      4.7237696e-06  0.0003901988   38.7435        248.489        14.9298        71.169714     -506.7889      -79.935363     -323.39696     -68.65523       71.13875     
     12300          10  -48992.767      4.2106237e-06  0.00037278075  38.7435        248.489        14.9298        71.241316     -506.78815     -80.04678      -323.13995     -68.756822      71.472894    
     12400          10  -48992.767      4.1343757e-06  0.00036086229  38.7435        248.489        14.9298        71.300674     -506.78549     -80.136797     -322.9486      -68.846862      71.776125    
     12500          10  -48992.767      5.4866274e-06  0.0003495145   38.7435        248.489        14.9298        71.388394     -506.77697     -80.268085     -322.69189     -68.988058      72.261647    
     12600          10  -48992.766      4.2707833e-06  0.00034056579  38.7435        248.489        14.9298        71.435457     -506.76966     -80.33874      -322.56386     -69.06801       72.541032    
     12700          10  -48992.766      4.2828955e-06  0.00033386615  38.7435        248.489        14.9298        71.487671     -506.7593      -80.418033     -322.42857     -69.160744      72.868326    
     12800          10  -48992.766      4.2691711e-06  0.00032576046  38.7435        248.489        14.9298        71.544724     -506.74525     -80.506548     -322.29006     -69.268756      73.253548    
     12900          10  -48992.766      4.242973e-06   0.00031965295  38.7435        248.489        14.9298        71.58333      -506.73421     -80.567823     -322.20381     -69.347135      73.535664    
     13000          10  -48992.766      4.2057689e-06  0.00031322471  38.7435        248.489        14.9298        71.618686     -506.72302     -80.624992     -322.13224     -69.42374       73.813518    
     13100          10  -48992.766      4.1483251e-06  0.00030504465  38.7435        248.489        14.9298        71.657441     -506.70955     -80.688877     -322.06526     -69.514618      74.145998    
     13200          10  -48992.766      4.0877939e-06  0.00029755484  38.7435        248.489        14.9298        71.6887       -506.69769     -80.741283     -322.02292     -69.594446      74.440669    
     13300          10  -48992.766      4.0203688e-06  0.00028997645  38.7435        248.489        14.9298        71.717153     -506.68604     -80.789671     -321.99587     -69.673284      74.734047    
     13400          10  -48992.766      3.9605358e-06  0.00028375216  38.7435        248.489        14.9298        71.738673     -506.67652     -80.826657     -321.98441     -69.73757       74.975051    
     13500          10  -48992.766      3.8639677e-06  0.00027443606  38.7435        248.489        14.9298        71.768252     -506.66216     -80.878142     -321.98416     -69.834018      75.339497    
     13600          10  -48992.766      3.8018086e-06  0.00026885256  38.7435        248.489        14.9298        71.78469      -506.65333     -80.907183     -321.99357     -69.89274       75.563004    
     13700          10  -48992.766      3.7175028e-06  0.00026163516  38.7435        248.489        14.9298        71.804466     -506.64164     -80.942691     -322.01582     -69.96948       75.856742    
     13800          10  -48992.766      3.6284566e-06  0.00025439336  38.7435        248.489        14.9298        71.822645     -506.62952     -80.976125     -322.04971     -70.047842      76.158459    
     13900          10  -48992.766      3.5651774e-06  0.00024945979  38.7435        248.489        14.9298        71.834059     -506.62099     -80.997714     -322.07969     -70.102302      76.369099    
     14000          10  -48992.766      3.5014522e-06  0.00024460976  38.7435        248.489        14.9298        71.844396     -506.61245     -81.017805     -322.11445     -70.156361      76.578868    
     14100          10  -48992.766      3.4049691e-06  0.00023745727  38.7435        248.489        14.9298        71.857936     -506.5996      -81.045297     -322.1756      -70.237106      76.893325    
     14200          10  -48992.766      3.3421154e-06  0.00023290533  38.7435        248.489        14.9298        71.865419     -506.59126     -81.061379     -322.22094     -70.289216      77.096919    
     14300          10  -48992.766      3.2657918e-06  0.00022745635  38.7435        248.489        14.9298        71.873169     -506.58119     -81.079115     -322.28161     -70.352194      77.343544    
     14400          10  -48992.766      3.1864537e-06  0.00022186737  38.7435        248.489        14.9298        71.879692     -506.57076     -81.095497     -322.3512      -70.4175        77.599871    
     14500          10  -48992.766      3.1288092e-06  0.00021785309  38.7435        248.489        14.9298        71.883467     -506.56319     -81.106117     -322.40593     -70.464966      77.786494    
     14600          10  -48992.766      3.0724185e-06  0.00021395365  38.7435        248.489        14.9298        71.886387     -506.5558      -81.115486     -322.4628      -70.511478      77.969584    
     14700          10  -48992.766      2.9955352e-06  0.00020867689  38.7435        248.489        14.9298        71.889122     -506.54573     -81.126626     -322.5457      -70.575122      78.220409    
     14800          10  -48992.766      2.9371581e-06  0.0002046998   38.7435        248.489        14.9298        71.890229     -506.53808     -81.13382      -322.61279     -70.623703      78.412051    
     14900          10  -48992.766      2.8746043e-06  0.00020046174  38.7435        248.489        14.9298        71.890498     -506.52987     -81.140358     -322.68853     -70.676063      78.618719    
     15000          10  -48992.766      2.8074316e-06  0.00019593293  38.7435        248.489        14.9298        71.889708     -506.52102     -81.146001     -322.77431     -70.732701      78.842367    
     15100          10  -48992.766      2.749218e-06   0.0001920255   38.7435        248.489        14.9298        71.888103     -506.51334     -81.149729     -322.85236     -70.782184      79.037799    
     15200          10  -48992.766      2.6955043e-06  0.00018843116  38.7435        248.489        14.9298        71.885854     -506.50622     -81.152213     -322.92741     -70.828205      79.219548    
     15300          10  -48992.766      2.6343019e-06  0.00018434521  38.7435        248.489        14.9298        71.882377     -506.49809     -81.153909     -323.01643     -70.8811        79.428404    
     15400          10  -48992.766      2.5845544e-06  0.00018102987  38.7435        248.489        14.9298        71.878813     -506.49146     -81.154376     -323.09157     -70.924486      79.599657    
     15500          10  -48992.766      2.5280333e-06  0.00017726707  38.7435        248.489        14.9298        71.873963     -506.4839      -81.153931     -323.17987     -70.974224      79.795889    
     15600          10  -48992.766      2.4749213e-06  0.00017373264  38.7435        248.489        14.9298        71.8686       -506.47677     -81.152527     -323.26571     -71.021422      79.981987    
     15700          10  -48992.766      2.429147e-06   0.0001706865   38.7435        248.489        14.9298        71.863342     -506.47061     -81.150545     -323.3419      -71.062473      80.143747    
     15800          10  -48992.766      2.380493e-06   0.00016744752  38.7435        248.489        14.9298        71.857104     -506.46403     -81.147659     -323.42508     -71.106497      80.317093    
     15900          10  -48992.766      2.3260726e-06  0.00016382182  38.7435        248.489        14.9298        71.849319     -506.45666     -81.143458     -323.52075     -71.156231      80.512753    
     16000          10  -48992.766      2.2855513e-06  0.00016111925  38.7435        248.489        14.9298        71.84295      -506.45114     -81.139644     -323.59381     -71.193616      80.6597      
     16100          10  -48992.766      2.2411974e-06  0.00015815776  38.7435        248.489        14.9298        71.835424     -506.44509     -81.134811     -323.67548     -71.234883      80.821767    
     16200          10  -48992.766      2.1938067e-06  0.00015498901  38.7435        248.489        14.9298        71.826725     -506.43861     -81.128866     -323.76471     -71.279385      80.996367    
     16300          10  -48992.766      2.1562999e-06  0.0001524772   38.7435        248.489        14.9298        71.819349     -506.43346     -81.12358      -323.83674     -71.314913      81.135627    
     16400          10  -48992.766      2.1117207e-06  0.00014948708  38.7435        248.489        14.9298        71.810023     -506.42732     -81.116641     -323.92391     -71.357491      81.302359    
     16500          10  -48992.766      2.0687103e-06  0.000146597    38.7435        248.489        14.9298        71.800431     -506.42138     -81.109249     -324.00962     -71.398941      81.464497    
     16600          10  -48992.766      2.0333059e-06  0.0001442136   38.7435        248.489        14.9298        71.792091     -506.41647     -81.102646     -324.08132     -71.433335      81.598903    
     16700          10  -48992.766      1.9949504e-06  0.000141627    38.7435        248.489        14.9298        71.782606     -506.41114     -81.094972     -324.16013     -71.470875      81.745458    
     16800          10  -48992.766      1.9491014e-06  0.00013852864  38.7435        248.489        14.9298        71.77065      -506.40475     -81.08508      -324.25583     -71.516128      81.921931    
     16900          10  -48992.766      1.9177773e-06  0.0001364073   38.7435        248.489        14.9298        71.76208      -506.40037     -81.077856     -324.32215     -71.547289      82.043324    
     17000          10  -48992.766      1.8829449e-06  0.00013404418  38.7435        248.489        14.9298        71.752176     -506.39549     -81.069395     -324.39674     -71.582167      82.179071    
     17100          10  -48992.766      1.845747e-06   0.00013151562  38.7435        248.489        14.9298        71.741156     -506.39026     -81.059849     -324.47736     -71.619679      82.324924    
     17200          10  -48992.766      1.8099448e-06  0.00012907681  38.7435        248.489        14.9298        71.730117     -506.38522     -81.050166     -324.55584     -71.656039      82.466158    
     17300          10  -48992.766      1.7779073e-06  0.0001268901   38.7435        248.489        14.9298        71.719874     -506.38069     -81.041085     -324.62681     -71.68879       82.593251    
     17400          10  -48992.766      1.743866e-06   0.00012456225  38.7435        248.489        14.9298        71.708612     -506.37586     -81.031005     -324.70294     -71.723808      82.729017    
     17500          10  -48992.766      1.7152188e-06  0.00012259948  38.7435        248.489        14.9298        71.69883      -506.37179     -81.022175     -324.76758     -71.753452      82.843845    
     17600          10  -48992.766      1.6802036e-06  0.00012019602  38.7435        248.489        14.9298        71.686503     -506.36681     -81.010965     -324.84724     -71.789895      82.984887    
     17700          10  -48992.766      1.6484891e-06  0.00011801482  38.7435        248.489        14.9298        71.674975     -506.36228     -81.000401     -324.92001     -71.823105      83.113296    
     17800          10  -48992.766      1.6228461e-06  0.00011624808  38.7435        248.489        14.9298        71.665401     -506.35861     -80.991573     -324.97926     -71.850096      83.217577    
     17900          10  -48992.766      1.5935386e-06  0.00011422564  38.7435        248.489        14.9298        71.654188     -506.35441     -80.981182     -325.0474      -71.881091      83.337239    
     18000          10  -48992.766      1.5594913e-06  0.00011187187  38.7435        248.489        14.9298        71.640796     -506.34951     -80.968698     -325.12711     -71.917295      83.47689     
     18100          10  -48992.766      1.5364503e-06  0.00011027632  38.7435        248.489        14.9298        71.631507     -506.34619     -80.959998     -325.18138     -71.941914      83.571782    
     18200          10  -48992.766      1.5135477e-06  0.00010868828  38.7435        248.489        14.9298        71.622094     -506.34288     -80.951149     -325.23557     -71.966479      83.666406    
     18300          10  -48992.766      1.4821954e-06  0.0001065111   38.7435        248.489        14.9298        71.608915     -506.33835     -80.938709     -325.31014     -72.000255      83.796421    
     18400          10  -48992.766      1.4611347e-06  0.00010504626  38.7435        248.489        14.9298        71.59987      -506.3353      -80.930139     -325.36048     -72.023041      83.88407     
     18500          10  -48992.766      1.4348432e-06  0.0001032154   38.7435        248.489        14.9298        71.588365     -506.33148     -80.919206     -325.42358     -72.051591      83.993824    
     18600          10  -48992.766      1.4077622e-06  0.00010132685  38.7435        248.489        14.9298        71.576266     -506.32754     -80.907669     -325.48886     -72.081119      84.10726     
     18700          10  -48992.766      1.3875725e-06  9.99169e-05    38.7435        248.489        14.9298        71.56708      -506.32459     -80.898888     -325.53771     -72.103212      84.192084    
     18782          10  -48992.766      1.365561e-06   9.8378128e-05  38.7435        248.489        14.9298        71.556908     -506.32138     -80.889138     -325.59113     -72.127373      84.284799    
Loop time of 270.99 on 2 procs for 9329 steps with 11052 atoms

98.9% CPU use with 2 MPI tasks x 1 OpenMP threads

Minimization stats:
  Stopping criterion = force tolerance
  Energy initial, next-to-last, final = 
     -48992.7376262614  -48992.7661700181  -48992.7661700594
  Force two-norm initial, final = 2.1469445e-05 9.8378128e-05
  Force max component initial, final = 2.908864e-07 1.365561e-06
  Final line search alpha, max atom move = 0 0
  Iterations, force evaluations = 9329 9840

MPI task timing breakdown:
Section |  min time  |  avg time  |  max time  |%varavg| %total
---------------------------------------------------------------
Pair    | 211.8      | 213.92     | 216.05     |  14.5 | 78.94
Neigh   | 0          | 0          | 0          |   0.0 |  0.00
Comm    | 2.2668     | 4.4278     | 6.5888     | 102.7 |  1.63
Output  | 0.14206    | 0.14951    | 0.15697    |   1.9 |  0.06
Modify  | 42.384     | 42.393     | 42.403     |   0.1 | 15.64
Other   |            | 10.1       |            |       |  3.73

Nlocal:           5526 ave        5544 max        5508 min
Histogram: 1 0 0 0 0 0 0 0 0 1
Nghost:           8594 ave        8631 max        8557 min
Histogram: 1 0 0 0 0 0 0 0 0 1
Neighs:         234657 ave      235404 max      233910 min
Histogram: 1 0 0 0 0 0 0 0 0 1

Total # of neighbors = 469314
Ave neighs/atom = 42.464169
Neighbor list builds = 0
Dangerous builds = 0
write_data /data/home/yazhuo/Project/GBclaw/projects/proj-20260927-164bf2/artifacts/lammps/neb/neb-20260927-045814-1d9965/neb.replica.$i.final.lmp nocoeff
write_data /data/home/yazhuo/Project/GBclaw/projects/proj-20260927-164bf2/artifacts/lammps/neb/neb-20260927-045814-1d9965/neb.replica.10.final.lmp nocoeff
System init for write_data ...
Total wall time: 0:09:07
