LAMMPS (30 Mar 2026)
Processor partition = 1
OMP_NUM_THREADS environment is not set. Defaulting to 1 thread.
  using 1 OpenMP thread(s) per MPI task
clear
OMP_NUM_THREADS environment is not set. Defaulting to 1 thread.
  using 1 OpenMP thread(s) per MPI task
units metal
dimension 3
atom_style atomic
boundary p p p
atom_modify map array
read_data "/data/home/yazhuo/Project/GBclaw/projects/proj-20260927-164bf2/artifacts/lammps/neb/neb-20260927-045814-1d9965/inputs/initial.lmp"
Reading data file ...
  orthogonal box = (-19.37175 -124.2445 -7.4649) to (19.37175 124.2445 7.4649)
  1 by 2 by 1 MPI processor grid
  reading atoms ...
  11052 atoms
  read_data CPU = 0.046 seconds
neighbor 1.0 bin
neigh_modify delay 0 every 1 check yes
pair_style adp
pair_coeff * * "/data/home/yazhuo/Project/GBclaw/src/tools/potentials/NiCr.adp" Ni
group top_boundary empty
0 atoms in group top_boundary
group top_boundary id 5180 5151 5159 5109 5117 5067 5075 5025 5033 4992 5184 5160 5118 5076 5034 5181 5154 5156 5157 5112 5114 5115 5070 5072 5073 5028 5030 5031 4990 4991 5182 5155 5113 5071 5029 5175 5176 5141 5144 5146 5147 5099 5102 5104 5105 5057 5060 5062 5063 5015 5018 5020 5021 4985 4986 5177 5183 5145 5158 5103 5116 5061 5074 5019 5032 5168 5169 5129 5132 5134 5087 5090 5092 5045 5048 5050 5003 5006 5008 4980 5170 5178 5133 5148 5091 5106 5049 5064 5007 5022 11027 11048 10985 11019 10943 10977 10901 10935 10859 10893
100 atoms in group top_boundary
group top_boundary id 10818 10851 11052 11028 10986 10944 10902 10860 11024 11025 11049 10982 10983 11022 10940 10941 10980 10898 10899 10938 10856 10857 10896 10816 10817 10854 11050 11023 10981 10939 10897 10855 11014 11015 11043 11044 10972 10973 11009 11012 10930 10931 10967 10970 10888 10889 10925 10928 10846 10847 10883 10886 10811 10812 10841 10844 11045 11051 11013 11026 10971 10984 10929 10942 10887 10900 10845 10858 11002 11036 11037 10960 10997 11000 10918 10955 10958 10876 10913 10916 10834 10871 10874 10806 10829 10832 11038 11046 11001 11016 10959 10974 10917 10932 10875 10890 10833 10848
198 atoms in group top_boundary
group bottom_boundary empty
0 atoms in group bottom_boundary
group bottom_boundary id 174 125 83 123 84 32 34 10 177 139 175 140 85 87 46 12 47 160 111 124 68 69 126 67 21 33 35 6 7 164 176 128 129 178 127 73 86 88 37 38 9 11 36 152 161 105 110 58 59 109 112 57 70 15 19 20 22 2 3 156 163 114 115 162 165 113 130 63 71 72 74 24 25 5 8 23 39 151 153 104 56 103 106 55 60 13 14 16 1 155 108 154 157 107 116 61 62 64 18 4
100 atoms in group bottom_boundary
group bottom_boundary id 17 26 5345 5390 5303 5343 5304 5247 5249 5214 5190 5215 5391 5359 5360 5307 5263 5305 5264 5216 5218 5331 5344 5378 5288 5289 5346 5287 5235 5248 5250 5203 5204 5188 5189 5202 5392 5347 5348 5349 5293 5306 5252 5253 5308 5251 5208 5217 5219 5325 5330 5372 5379 5278 5279 5329 5332 5277 5290 5229 5233 5234 5236 5194 5195 5186 5187 5193 5205 5380 5381 5333 5334 5335 5350 5283 5292 5238 5239 5291 5294 5237 5254 5199 5206 5207 5209 5324 5371 5373 5276 5323 5326 5275 5280 5227 5228 5230 5192 5185
200 atoms in group bottom_boundary
group bottom_boundary id 5191 5196 5374 5375 5327 5328 5336 5282 5232 5281 5284 5231 5240 5197 5198 5200
216 atoms in group bottom_boundary
group fixed_xy union top_boundary bottom_boundary
414 atoms in group fixed_xy
variable __gb_neb_count_top_boundary equal count(top_boundary)
variable __gb_neb_count_top_boundary delete
variable __gb_neb_count_bottom_boundary equal count(bottom_boundary)
variable __gb_neb_count_bottom_boundary delete
min_style fire
timestep 0.01
fix neb_path all neb 1
fix hold_boundary_xy fixed_xy setforce 0.0 0.0 NULL
thermo 100
thermo_style custom step part pe fmax fnorm lx ly lz pxx pyy pzz pxy pxz pyz
thermo_modify flush yes
variable i equal part
dump neb_dump all custom 1000 /data/home/yazhuo/Project/GBclaw/projects/proj-20260927-164bf2/artifacts/lammps/neb/neb-20260927-045814-1d9965/neb.replica.$i.lammpstrj id type x y z ix iy iz fx fy fz
dump neb_dump all custom 1000 /data/home/yazhuo/Project/GBclaw/projects/proj-20260927-164bf2/artifacts/lammps/neb/neb-20260927-045814-1d9965/neb.replica.1.lammpstrj id type x y z ix iy iz fx fy fz
dump_modify neb_dump sort id
run 0
WARNING: No fixes with time integration, atoms won't move
For more information see https://docs.lammps.org/err0028 (src/verlet.cpp:60)
Neighbor list info ...
  update: every = 1 steps, delay = 0 steps, check = yes
  max neighbors/atom: 2000, page size: 100000
  master list distance cutoff = 6.168302
  ghost atom cutoff = 6.168302
  binsize = 3.084151, bins = 13 81 5
  1 neighbor lists, perpetual/occasional/extra = 1 0 0
  (1) pair adp, perpetual
      attributes: half, newton on
      pair build: half/bin/atomonly/newton
      stencil: half/bin/3d
      bin: standard
Per MPI rank memory allocation (min/avg/max) = 7.422 | 7.43 | 7.438 Mbytes
   Step        Part         PotEng          Fmax          Fnorm            Lx             Ly             Lz            Pxx            Pyy            Pzz            Pxy            Pxz            Pyz      
         0           1  -48992.796      0.0024845783   0.10363051     38.7435        248.489        14.9298        0.19007438     2.918104      -3.7172695      0.3830234      3.2510357e-05 -0.0010155383 
Loop time of 2.348e-06 on 2 procs for 0 steps with 11052 atoms

63.9% CPU use with 2 MPI tasks x 1 OpenMP threads

MPI task timing breakdown:
Section |  min time  |  avg time  |  max time  |%varavg| %total
---------------------------------------------------------------
Pair    | 0          | 0          | 0          |   0.0 |  0.00
Neigh   | 0          | 0          | 0          |   0.0 |  0.00
Comm    | 0          | 0          | 0          |   0.0 |  0.00
Output  | 0          | 0          | 0          |   0.0 |  0.00
Modify  | 0          | 0          | 0          |   0.0 |  0.00
Other   |            | 2.348e-06  |            |       |100.00

Nlocal:           5526 ave        5544 max        5508 min
Histogram: 1 0 0 0 0 0 0 0 0 1
Nghost:           7959 ave        8011 max        7907 min
Histogram: 1 0 0 0 0 0 0 0 0 1
Neighs:         234603 ave      234962 max      234244 min
Histogram: 1 0 0 0 0 0 0 0 0 1

Total # of neighbors = 469206
Ave neighs/atom = 42.454397
Neighbor list builds = 0
Dangerous builds = 0
neb 0 0.0001 10000 10000 100 final "/data/home/yazhuo/Project/GBclaw/projects/proj-20260927-164bf2/artifacts/lammps/neb/neb-20260927-045814-1d9965/inputs/final.neb.coords" verbosity default
  Parameters for fire:
    dmax  delaystep dtgrow dtshrink alpha0 alphashrink tmax tmin   integrator   halfstepback   abcfire  
     0.1     20      1.1     0.5     0.25     0.99      10  0.02 eulerimplicit      yes          no     
Per MPI rank memory allocation (min/avg/max) = 9.896 | 9.904 | 9.913 Mbytes
   Step        Part         PotEng          Fmax          Fnorm            Lx             Ly             Lz            Pxx            Pyy            Pzz            Pxy            Pxz            Pyz      
         0           1  -48992.759      0.073530689    0.63982407     38.7435        248.489        14.9298        6.4283772     -23.725752     -22.32244      -4.8720422     -0.23233252    -9.1564872    
       100           1  -48992.795      0.00014136598  0.0028289239   38.7435        248.489        14.9298        0.38847431    -3.0432183     -5.2437596     -0.2675448     -0.58994143    -24.213417    
       200           1  -48992.795      8.7101191e-05  0.0024623346   38.7435        248.489        14.9298        0.38108124    -2.0008551     -5.0498307      0.037724038    1.6070944     -30.062519    
       300           1  -48992.795      6.1788854e-05  0.0021470005   38.7435        248.489        14.9298        0.36758424    -1.3878263     -4.9283104      0.20641439     3.3537616     -34.921233    
       400           1  -48992.795      0.00037870136  0.0022942424   38.7435        248.489        14.9298        0.35496898    -0.94685432    -4.8382163      0.32800959     4.9227972     -39.400941    
       500           1  -48992.795      0.0013991358   0.0062703765   38.7435        248.489        14.9298        0.343148      -0.6201802     -4.7697442      0.426898       6.3393879     -43.518862    
       600           1  -48992.795      6.736947e-05   0.0013712121   38.7435        248.489        14.9298        0.33138846    -0.43116021    -4.7203951      0.47077904     7.2691881     -46.259849    
       700           1  -48992.795      4.3522385e-05  0.0012115673   38.7435        248.489        14.9298        0.32150298    -0.27970427    -4.6829218      0.51518653     8.0991104     -48.738147    
       800           1  -48992.795      0.00060381613  0.0025705175   38.7435        248.489        14.9298        0.30942863    -0.1207744     -4.6424075      0.56588416     9.0631125     -51.673688    
       900           1  -48992.795      3.6892714e-05  0.0010163793   38.7435        248.489        14.9298        0.30085644    -0.025469605   -4.6158694      0.59674721     9.7195418     -53.737614    
      1000           1  -48992.795      3.1643744e-05  0.00090716945  38.7435        248.489        14.9298        0.29307206     0.057645125   -4.5929604      0.62755428     10.353868     -55.791514    
      1100           1  -48992.795      0.0001867266   0.0010755952   38.7435        248.489        14.9298        0.28505088     0.1372004     -4.5704019      0.65746237     10.978039     -57.863142    
      1200           1  -48992.795      3.9649788e-05  0.00078821284  38.7435        248.489        14.9298        0.28000131     0.1880139     -4.5561171      0.67927277     11.429538     -59.422873    
      1300           1  -48992.795      1.5750649e-05  0.00070703044  38.7435        248.489        14.9298        0.27562527     0.23188464    -4.5437557      0.69793001     11.821974     -60.812885    
      1400           1  -48992.795      2.9220162e-05  0.00063205142  38.7435        248.489        14.9298        0.27096222     0.27934769    -4.5304058      0.71712789     12.233979     -62.311478    
      1500           1  -48992.795      0.00067125601  0.0026130351   38.7435        248.489        14.9298        0.26703682     0.32144197    -4.5186435      0.73301587     12.583671     -63.62485     
      1600           1  -48992.795      3.339957e-05   0.00052285623  38.7435        248.489        14.9298        0.26433944     0.35273165    -4.5101339      0.74401546     12.832407     -64.588821    
      1700           1  -48992.795      0.00013600426  0.00067547183  38.7435        248.489        14.9298        0.26157812     0.38882872    -4.5005811      0.75567663     13.105365     -65.683784    
      1800           1  -48992.795      4.8395783e-05  0.00044745215  38.7435        248.489        14.9298        0.2596507      0.41890832    -4.4929352      0.76437454     13.319233     -66.57752     
      1900           1  -48992.795      0.00060085654  0.0023256051   38.7435        248.489        14.9298        0.25834536     0.44436454    -4.4867635      0.77089108     13.489095     -67.316252    
      2000           1  -48992.795      2.726319e-05   0.000360364    38.7435        248.489        14.9298        0.2574545      0.4677924     -4.4813888      0.77606743     13.63475      -67.97721     
      2100           1  -48992.795      0.0013611955   0.0052584494   38.7435        248.489        14.9298        0.25688491     0.49411275    -4.4756714      0.78078209     13.784112     -68.691123    
      2200           1  -48992.795      1.355707e-05   0.00029626523  38.7435        248.489        14.9298        0.25675196     0.51165132    -4.4721594      0.78320699     13.874636     -69.148214    
      2300           1  -48992.795      7.6575614e-05  0.00038473374  38.7435        248.489        14.9298        0.25693645     0.53337207    -4.4680777      0.78534474     13.975817     -69.689706    
      2400           1  -48992.795      0.0071631725   0.027939045    38.7435        248.489        14.9298        0.25786217     0.55594143    -4.4639673      0.78647442     14.067097     -70.219404    
      2500           1  -48992.795      4.7129607e-05  0.00028203394  38.7435        248.489        14.9298        0.25826249     0.56956154    -4.4622236      0.78659702     14.117758     -70.539038    
      2600           1  -48992.795      2.6160354e-05  0.00023134129  38.7435        248.489        14.9298        0.25918388     0.58250375    -4.4605574      0.78630457     14.161798     -70.837744    
      2700           1  -48992.795      0.0009582381   0.0037252066   38.7435        248.489        14.9298        0.26090729     0.59842658    -4.4590782      0.78534588     14.213835     -71.224283    
      2800           1  -48992.795      2.01979e-05    0.00020378912  38.7435        248.489        14.9298        0.26253162     0.60831464    -4.4587199      0.78433302     14.247016     -71.493713    
      2900           1  -48992.795      0.00011412851  0.00047347171  38.7435        248.489        14.9298        0.26493495     0.61822312    -4.4591277      0.78285446     14.283594     -71.812179    
      3000           1  -48992.795      0.0036072855   0.014113818    38.7435        248.489        14.9298        0.26820527     0.62673657    -4.4605407      0.78093032     14.320717     -72.15883     
      3100           1  -48992.795      0.00035375863  0.0013883194   38.7435        248.489        14.9298        0.27069719     0.63136177    -4.4621745      0.77936159     14.344793     -72.398363    
      3200           1  -48992.795      1.7440748e-05  0.00019370664  38.7435        248.489        14.9298        0.27338617     0.63511997    -4.464152       0.77761905     14.366438     -72.627092    
      3300           1  -48992.795      0.00029142697  0.0011495865   38.7435        248.489        14.9298        0.27709013     0.63927887    -4.4669946      0.77504606     14.391144     -72.910518    
      3400           1  -48992.795      3.3004277e-05  0.00020615424  38.7435        248.489        14.9298        0.28028713     0.64228105    -4.4695605      0.772627       14.408473     -73.131607    
      3500           1  -48992.795      2.8124126e-05  0.00018640882  38.7435        248.489        14.9298        0.28369454     0.6451487     -4.4723589      0.76984681     14.423449     -73.347047    
      3600           1  -48992.795      0.00048917176  0.0019225432   38.7435        248.489        14.9298        0.28756373     0.6481581     -4.4755756      0.76643605     14.4365       -73.568969    
      3700           1  -48992.795      9.3258665e-06  0.00013584185  38.7435        248.489        14.9298        0.29048103     0.6503337     -4.4780202      0.76368654     14.443828     -73.721959    
      3800           1  -48992.795      2.6874365e-06  0.00012291838  38.7435        248.489        14.9298        0.29338294     0.65245912    -4.4804542      0.76080927     14.449162     -73.862799    
      3900           1  -48992.795      0.0086216273   0.034359026    38.7435        248.489        14.9298        0.2985014      0.65627283    -4.4839096      0.75591218     14.454012     -74.067921    
      4000           1  -48992.795      0.0023037049   0.0092465063   38.7435        248.489        14.9298        0.30129769     0.65845426    -4.4865206      0.75244577     14.454844     -74.190399    
      4100           1  -48992.795      1.452863e-05   0.00010534753  38.7435        248.489        14.9298        0.30420779     0.66040516    -4.4895114      0.74889022     14.453948     -74.298609    
      4200           1  -48992.795      6.9447063e-05  0.0002873817   38.7435        248.489        14.9298        0.3075009      0.66290697    -4.4922438      0.74491443     14.451239     -74.40567     
      4300           1  -48992.795      0.00067480241  0.002720667    38.7435        248.489        14.9298        0.3111385      0.66574007    -4.4952456      0.74035899     14.446325     -74.511496    
      4400           1  -48992.795      2.2231997e-05  0.00010903516  38.7435        248.489        14.9298        0.31391951     0.66793685    -4.4975387      0.73676124     14.441315     -74.584059    
      4500           1  -48992.795      0.00086569381  0.003483842    38.7435        248.489        14.9298        0.31730471     0.67067967    -4.5002956      0.73227107     14.433937     -74.663253    
      4600           1  -48992.795      0.00059325596  0.0023983878   38.7435        248.489        14.9298        0.31994096     0.6728324     -4.502462       0.72868364     14.427278     -74.718462    
      4700           1  -48992.795      2.2552216e-05  0.0001021817   38.7435        248.489        14.9298        0.32273896     0.67514972    -4.5047508      0.72479733     14.419414     -74.770939    
      4800           1  -48992.795      3.6467958e-05  0.00015224819  38.7435        248.489        14.9298        0.3255388      0.67749391    -4.5070302      0.72084426     14.410844     -74.817644    
      4900           1  -48992.795      0.00035108196  0.0014219728   38.7435        248.489        14.9298        0.32876967     0.68021833    -4.5096565      0.71620705     14.400188     -74.864788    
      5000           1  -48992.795      1.3762282e-05  6.7815395e-05  38.7435        248.489        14.9298        0.33141221     0.6824473     -4.5118071      0.71235935     14.39095      -74.89832     
      5100           1  -48992.795      2.0702465e-05  8.9951905e-05  38.7435        248.489        14.9298        0.33426238     0.68484867    -4.5141275      0.70816554     14.380564     -74.929886    
      5200           1  -48992.795      0.00016713722  0.00067319728  38.7435        248.489        14.9298        0.33714689     0.68726295    -4.5164803      0.70388152     14.369694     -74.957288    
      5300           1  -48992.795      9.0621046e-06  4.9918532e-05  38.7435        248.489        14.9298        0.33948997     0.68920328    -4.5183973      0.70037774     14.360664     -74.976464    
      5400           1  -48992.795      3.6626569e-05  0.00014952479  38.7435        248.489        14.9298        0.34218309     0.69140454    -4.5206078      0.69633144     14.350137     -74.995473    
      5500           1  -48992.795      8.6478909e-05  0.00034666408  38.7435        248.489        14.9298        0.34511206     0.69375237    -4.5230233      0.69191417     14.338589     -75.012783    
      5600           1  -48992.795      2.1227321e-06  3.2849609e-05  38.7435        248.489        14.9298        0.34735831     0.69551181    -4.5248851      0.68851987     14.329717     -75.023913    
      5700           1  -48992.795      1.5260675e-05  6.6418635e-05  38.7435        248.489        14.9298        0.34976591     0.69735512    -4.5268909      0.68487947     14.320238     -75.034042    
      5800           1  -48992.795      8.5280716e-05  0.0003426355   38.7435        248.489        14.9298        0.35250953     0.69939476    -4.5291906      0.68073306     14.309529     -75.043563    
      5900           1  -48992.795      2.2128951e-06  2.887142e-05   38.7435        248.489        14.9298        0.35487649     0.70109516    -4.5311886      0.67716162     14.300414     -75.050262    
      6000           1  -48992.795      4.0516279e-06  3.0248051e-05  38.7435        248.489        14.9298        0.35718399     0.70269822    -4.5331486      0.67368808     14.291672     -75.055631    
      6100           1  -48992.795      3.0697917e-05  0.000123156    38.7435        248.489        14.9298        0.35964479     0.70434443    -4.5352533      0.66999544     14.282536     -75.060265    
      6200           1  -48992.795      5.1804301e-06  3.0673096e-05  38.7435        248.489        14.9298        0.36174299     0.70569353    -4.5370601      0.66685859     14.274923     -75.063455    
      6300           1  -48992.795      2.9904024e-05  0.00011814799  38.7435        248.489        14.9298        0.36441678     0.70734013    -4.5393789      0.66287868     14.265477     -75.066692    
      6400           1  -48992.795      4.281972e-05   0.00016835737  38.7435        248.489        14.9298        0.36680331     0.70873659    -4.5414652      0.65934539     14.257318     -75.068918    
      6500           1  -48992.795      1.7614764e-06  2.1176146e-05  38.7435        248.489        14.9298        0.36872715     0.70981158    -4.5431582      0.65651126     14.250939     -75.070348    
      6600           1  -48992.795      7.9035611e-06  3.5372888e-05  38.7435        248.489        14.9298        0.37092843     0.71098714    -4.5451076      0.65328435     14.243863     -75.07167     
      6700           1  -48992.795      2.1518951e-05  8.1901794e-05  38.7435        248.489        14.9298        0.3735878      0.71232936    -4.5474802      0.64940964     14.235643     -75.07292     
      6800           1  -48992.795      3.8718816e-06  2.1561559e-05  38.7435        248.489        14.9298        0.37555816     0.71326714    -4.5492504      0.64655676     14.229798     -75.073663    
      6900           1  -48992.795      4.333771e-06   2.2033214e-05  38.7435        248.489        14.9298        0.37749928     0.71414602    -4.5510044      0.64376084     14.224242     -75.074292    
      7000           1  -48992.795      3.9276971e-05  0.00014808076  38.7435        248.489        14.9298        0.37973028     0.71510123    -4.5530326      0.64056566     14.218109     -75.074932    
      7100           1  -48992.795      1.2906109e-06  1.4571125e-05  38.7435        248.489        14.9298        0.38157303     0.71584615    -4.5547176      0.63794146     14.213249     -75.075427    
      7200           1  -48992.795      8.1355803e-06  3.3719101e-05  38.7435        248.489        14.9298        0.38389145     0.71672957    -4.5568494      0.6346585      14.207393     -75.076042    
      7300           1  -48992.795      3.0599049e-05  0.00012053565  38.7435        248.489        14.9298        0.38589615     0.71744464    -4.5587035      0.63183696     14.202568     -75.076593    
      7400           1  -48992.795      2.2039759e-06  1.3866211e-05  38.7435        248.489        14.9298        0.3876956      0.71804946    -4.560376       0.62931749     14.198423     -75.07712     
      7500           1  -48992.795      6.4573234e-06  2.6944262e-05  38.7435        248.489        14.9298        0.38954288     0.71863541    -4.5621007      0.62674367     14.194345     -75.077705    
      7600           1  -48992.795      4.5081973e-05  0.00018046662  38.7435        248.489        14.9298        0.39183832     0.71931569    -4.5642543      0.62356289     14.189525     -75.078509    
      7700           1  -48992.795      4.4481623e-06  1.9515626e-05  38.7435        248.489        14.9298        0.39350676     0.71977716    -4.5658269      0.62126307     14.186197     -75.079156    
      7800           1  -48992.795      7.2077421e-06  2.9622744e-05  38.7435        248.489        14.9298        0.39521303     0.72022233    -4.5674412      0.61892109     14.182937     -75.079874    
      7900           1  -48992.795      3.342071e-05   0.00013402826  38.7435        248.489        14.9298        0.39710875     0.72068593    -4.5692414      0.61633069     14.179484     -75.080744    
      8000           1  -48992.795      6.2481075e-07  7.9368774e-06  38.7435        248.489        14.9298        0.39883487     0.72108069    -4.5708867      0.61398234     14.176493     -75.081603    
      8100           1  -48992.795      5.4032982e-06  2.2566756e-05  38.7435        248.489        14.9298        0.40046626     0.72143098    -4.5724467      0.61177153     14.173795     -75.082474    
      8200           1  -48992.795      5.4441702e-05  0.00022065797  38.7435        248.489        14.9298        0.40223497     0.72178669    -4.5741433      0.60938385     14.17101      -75.08348     
      8300           1  -48992.795      2.0429074e-06  1.0134926e-05  38.7435        248.489        14.9298        0.40376757     0.72207527    -4.5756178      0.60732236     14.168711     -75.084404    
      8400           1  -48992.795      3.531501e-06   1.5266674e-05  38.7435        248.489        14.9298        0.40542641     0.72236852    -4.577218       0.60509847     14.166338     -75.085454    
      8500           1  -48992.795      8.6466662e-07  6.5829519e-06  38.7435        248.489        14.9298        0.40673488     0.72258624    -4.5784832      0.60334956     14.164549     -75.086318    
      8600           1  -48992.795      2.1477363e-07  5.5507743e-06  38.7435        248.489        14.9298        0.40807083     0.72279665    -4.5797776      0.60156852     14.162795     -75.08723     
      8700           1  -48992.795      2.9812071e-05  0.00012156788  38.7435        248.489        14.9298        0.40984419     0.72305813    -4.5814998      0.5992113      14.16058      -75.088484    
      8800           1  -48992.795      0.00036167054  0.0014808781   38.7435        248.489        14.9298        0.41149388     0.72328475    -4.5831038      0.59702633     14.158632     -75.089689    
      8900           1  -48992.795      1.7297166e-06  8.2619382e-06  38.7435        248.489        14.9298        0.41264326     0.72343196    -4.5842267      0.59550582     14.157336     -75.090551    
      9000           1  -48992.795      1.8866169e-05  7.7208545e-05  38.7435        248.489        14.9298        0.41413679     0.72361348    -4.5856858      0.5935357      14.155724     -75.091689    
      9100           1  -48992.795      0.00026348828  0.001080533    38.7435        248.489        14.9298        0.4156917      0.72379042    -4.5872065      0.59149008     14.154131     -75.092895    
      9200           1  -48992.795      8.4191069e-06  3.4704738e-05  38.7435        248.489        14.9298        0.41686008     0.7239149     -4.5883528      0.58995502     14.152989     -75.093813    
      9300           1  -48992.795      7.6190311e-06  3.1466841e-05  38.7435        248.489        14.9298        0.41805178     0.72403559    -4.5895224      0.58839256     14.151871     -75.094756    
      9400           1  -48992.795      3.2953513e-05  0.0001361062   38.7435        248.489        14.9298        0.41950065     0.72417368    -4.5909463      0.58649635     14.150575     -75.09591     
      9453           1  -48992.795      1.9518236e-06  8.6941779e-06  38.7435        248.489        14.9298        0.42000829     0.72421987    -4.5914457      0.58583282     14.150137     -75.096315    
Loop time of 275.698 on 2 procs for 9453 steps with 11052 atoms

98.5% CPU use with 2 MPI tasks x 1 OpenMP threads

Minimization stats:
  Stopping criterion = force tolerance
  Energy initial, next-to-last, final = 
     -48992.7589720262  -48992.7952254855  -48992.7952254865
  Force two-norm initial, final = 0.63982407 8.6941779e-06
  Force max component initial, final = 0.073530689 1.9518236e-06
  Final line search alpha, max atom move = 0 0
  Iterations, force evaluations = 9453 9970

MPI task timing breakdown:
Section |  min time  |  avg time  |  max time  |%varavg| %total
---------------------------------------------------------------
Pair    | 231.08     | 231.08     | 231.09     |   0.0 | 83.82
Neigh   | 0          | 0          | 0          |   0.0 |  0.00
Comm    | 5.4062     | 5.4205     | 5.4348     |   0.6 |  1.97
Output  | 0.14988    | 0.15588    | 0.16188    |   1.5 |  0.06
Modify  | 23.701     | 23.704     | 23.707     |   0.1 |  8.60
Other   |            | 15.33      |            |       |  5.56

Nlocal:           5526 ave        5544 max        5508 min
Histogram: 1 0 0 0 0 0 0 0 0 1
Nghost:           7959 ave        8011 max        7907 min
Histogram: 1 0 0 0 0 0 0 0 0 1
Neighs:         234612 ave      235544 max      233680 min
Histogram: 1 0 0 0 0 0 0 0 0 1

Total # of neighbors = 469224
Ave neighs/atom = 42.456026
Neighbor list builds = 0
Dangerous builds = 0
  Parameters for fire:
    dmax  delaystep dtgrow dtshrink alpha0 alphashrink tmax tmin   integrator   halfstepback   abcfire  
     0.1     20      1.1     0.5     0.25     0.99      10  0.02 eulerimplicit      yes          no     
Per MPI rank memory allocation (min/avg/max) = 9.896 | 9.904 | 9.913 Mbytes
   Step        Part         PotEng          Fmax          Fnorm            Lx             Ly             Lz            Pxx            Pyy            Pzz            Pxy            Pxz            Pyz      
      9453           1  -48992.795      1.9518236e-06  8.6941779e-06  38.7435        248.489        14.9298        0.42000829     0.72421987    -4.5914457      0.58583282     14.150137     -75.096315    
      9500           1  -48992.795      0.00014349513  0.001434304    38.7435        248.489        14.9298        0.42216876     0.71898218    -4.594608       0.58549295     14.16431      -75.17933     
      9600           1  -48992.795      0.0074776027   0.030973258    38.7435        248.489        14.9298        0.44978434     0.61517513    -4.6437091      0.59576754     14.475875     -76.902888    
      9700           1  -48992.795      0.00018905885  0.0023639069   38.7435        248.489        14.9298        0.47253824     0.52843198    -4.6844218      0.6034243      14.730639     -78.307589    
      9800           1  -48992.795      0.0015644764   0.0066940234   38.7435        248.489        14.9298        0.4976279      0.43590086    -4.7288687      0.61131305     15.003409     -79.808692    
      9900           1  -48992.795      0.0033412953   0.013890903    38.7435        248.489        14.9298        0.51911134     0.35864823    -4.7664759      0.61713857     15.232998     -81.064825    
     10000           1  -48992.795      6.7954855e-05  0.00083095019  38.7435        248.489        14.9298        0.53337034     0.31017677    -4.7905086      0.61966732     15.383009     -81.874333    
     10100           1  -48992.795      0.00027693373  0.0011239202   38.7435        248.489        14.9298        0.54119248     0.2870364     -4.8029781      0.61946387     15.466877     -82.312513    
     10200           1  -48992.795      0.0022244003   0.0086935031   38.7435        248.489        14.9298        0.5440248      0.28372795    -4.8062531      0.61703337     15.499058     -82.460922    
     10300           1  -48992.795      5.098796e-05   0.00028470402  38.7435        248.489        14.9298        0.54349902     0.29132805    -4.8040174      0.61414726     15.494946     -82.416252    
     10400           1  -48992.795      3.0974301e-05  0.00031510112  38.7435        248.489        14.9298        0.5416363      0.30377573    -4.7994232      0.61092026     15.475323     -82.288763    
     10500           1  -48992.795      0.0017346897   0.0068097094   38.7435        248.489        14.9298        0.5384629      0.32256465    -4.7921667      0.60659489     15.438862     -82.067238    
     10600           1  -48992.795      0.00011365098  0.00049175789  38.7435        248.489        14.9298        0.53637239     0.33517708    -4.7873834      0.60356242     15.412437     -81.910015    
     10700           1  -48992.795      2.6488874e-05  0.00016926695  38.7435        248.489        14.9298        0.53521689     0.34371592    -4.7843918      0.60114647     15.394666     -81.804233    
     10800           1  -48992.795      0.00061037359  0.002405619    38.7435        248.489        14.9298        0.53497099     0.34894888    -4.7829992      0.59897509     15.385031     -81.74504     
     10900           1  -48992.795      4.2604794e-05  0.00016782509  38.7435        248.489        14.9298        0.53551542     0.35049748    -4.7831814      0.59739659     15.384262     -81.736897    
     11000           1  -48992.795      0.00052092199  0.0020546721   38.7435        248.489        14.9298        0.53654868     0.35020448    -4.7842369      0.59599157     15.388444     -81.756821    
     11100           1  -48992.795      0.00013638417  0.00053370118  38.7435        248.489        14.9298        0.53771692     0.34909413    -4.7855966      0.59478347     15.394564     -81.788185    
     11200           1  -48992.795      0.00057490913  0.0023803081   38.7435        248.489        14.9298        0.53932537     0.34757889    -4.7873113      0.59316064     15.402934     -81.83173     
     11300           1  -48992.795      1.362009e-05   5.9020471e-05  38.7435        248.489        14.9298        0.54013833     0.34707026    -4.7883542      0.5921627      15.406826     -81.851955    
     11400           1  -48992.795      0.000131874    0.00054631712  38.7435        248.489        14.9298        0.54108272     0.34709104    -4.7892522      0.59076514     15.410014     -81.868347    
     11500           1  -48992.795      9.2430714e-07  1.2012286e-05  38.7435        248.489        14.9298        0.54166233     0.34764438    -4.7896857      0.5896539      15.410826     -81.872334    
     11600           1  -48992.795      4.2051596e-06  2.5299862e-05  38.7435        248.489        14.9298        0.54212766     0.34855867    -4.7899317      0.58854304     15.41042      -81.870011    
     11700           1  -48992.795      2.9080569e-05  0.00012243969  38.7435        248.489        14.9298        0.54261404     0.35009403    -4.790064       0.58711392     15.40858      -81.860378    
     11800           1  -48992.795      9.7262648e-05  0.00040505029  38.7435        248.489        14.9298        0.54300247     0.35167398    -4.790095       0.58581178     15.406094     -81.847775    
     11900           1  -48992.795      3.2475909e-06  2.8018297e-05  38.7435        248.489        14.9298        0.54328978     0.35289016    -4.7901091      0.58483008     15.403961     -81.837256    
     12000           1  -48992.795      3.4903859e-05  0.00014641377  38.7435        248.489        14.9298        0.54364453     0.35431021    -4.7901458      0.58366132     15.401312     -81.824597    
     12100           1  -48992.795      7.8038011e-05  0.00032594817  38.7435        248.489        14.9298        0.54400856     0.35562038    -4.7902174      0.58253533     15.398736     -81.812739    
     12200           1  -48992.795      5.4933232e-05  0.00022917422  38.7435        248.489        14.9298        0.54429588     0.35656979    -4.790293       0.58168987     15.396785     -81.804043    
     12300           1  -48992.795      9.1287262e-06  4.3433899e-05  38.7435        248.489        14.9298        0.54462361     0.3576081     -4.7903894      0.58074897     15.394554     -81.794317    
     12400           1  -48992.795      1.905611e-06   2.0243865e-05  38.7435        248.489        14.9298        0.54490032     0.35849281    -4.7904704      0.57995451     15.392562     -81.785737    
     12500           1  -48992.795      0.0017834509   0.0091585896   38.7435        248.489        14.9298        0.54631954     0.3585632     -4.7980263      0.58390903     15.389074     -81.771135    
     12600           1  -48992.795      0.0011551302   0.0056058071   38.7435        248.489        14.9298        0.54539252     0.36098569    -4.7897257      0.57724765     15.387198     -81.76247     
     12700           1  -48992.795      1.5982711e-06  2.3293373e-05  38.7435        248.489        14.9298        0.54575272     0.36170454    -4.7906429      0.57732767     15.384586     -81.7511      
     12800           1  -48992.795      3.1055287e-05  0.00022050076  38.7435        248.489        14.9298        0.54590665     0.36310053    -4.7901481      0.57589249     15.381307     -81.736534    
     12900           1  -48992.795      3.457933e-06   3.3449621e-05  38.7435        248.489        14.9298        0.54614705     0.36387936    -4.7905305      0.57570984     15.378724     -81.725062    
     13000           1  -48992.795      2.0906943e-06  2.4200318e-05  38.7435        248.489        14.9298        0.54631428     0.36478836    -4.7905288      0.5751752      15.376079     -81.71322     
     13100           1  -48992.795      5.8549145e-05  0.00023812452  38.7435        248.489        14.9298        0.5464651      0.3659378     -4.790417       0.5743773      15.372794     -81.698434    
     13200           1  -48992.795      3.7111075e-06  2.5930377e-05  38.7435        248.489        14.9298        0.54660939     0.36694111    -4.7903616      0.57378899     15.369788     -81.68487     
     13300           1  -48992.795      7.0661495e-06  3.5261688e-05  38.7435        248.489        14.9298        0.54673338     0.36795694    -4.7902712      0.57316928     15.366727     -81.671011    
     13400           1  -48992.795      1.3692847e-05  5.8870238e-05  38.7435        248.489        14.9298        0.54682991     0.36879297    -4.7901937      0.57267672     15.364164     -81.659378    
     13500           1  -48992.795      0.00016096749  0.00071251164  38.7435        248.489        14.9298        0.54714503     0.36987242    -4.7905058      0.57277445     15.360185     -81.641353    
     13600           1  -48992.795      3.2095785e-06  2.4249165e-05  38.7435        248.489        14.9298        0.54703664     0.37085159    -4.7899697      0.57149259     15.357733     -81.630052    
     13700           1  -48992.795      2.9177828e-05  0.00011956808  38.7435        248.489        14.9298        0.54712851     0.3718901     -4.7898477      0.57092617     15.354422     -81.614863    
     13800           1  -48992.795      0.0008045515   0.0032492691   38.7435        248.489        14.9298        0.54720898     0.37297959    -4.7896868      0.57031692     15.35095      -81.598857    
     13900           1  -48992.795      7.7812487e-06  3.6881442e-05  38.7435        248.489        14.9298        0.54726349     0.37373081    -4.7896011      0.56994549     15.348481     -81.587432    
     14000           1  -48992.795      4.4746203e-07  2.0086351e-05  38.7435        248.489        14.9298        0.54731101     0.37449453    -4.7894911      0.56955288     15.345987     -81.575851    
     14100           1  -48992.795      3.0691723e-05  0.00012490835  38.7435        248.489        14.9298        0.54737041     0.37565368    -4.7893086      0.56895886     15.342186     -81.558113    
     14200           1  -48992.795      2.098175e-06   2.1138663e-05  38.7435        248.489        14.9298        0.54740877     0.37640586    -4.7891963      0.56860358     15.339686     -81.546389    
     14300           1  -48992.795      1.2100505e-05  5.1880284e-05  38.7435        248.489        14.9298        0.54744574     0.37732747    -4.7890446      0.56816145     15.33662      -81.531957    
     14400           1  -48992.795      9.7612967e-05  0.00039372158  38.7435        248.489        14.9298        0.54747802     0.37829227    -4.7888799      0.56770915     15.333395     -81.516701    
     14500           1  -48992.795      2.2664649e-06  2.0758969e-05  38.7435        248.489        14.9298        0.54749743     0.37899868    -4.7887552      0.56738334     15.331023     -81.505438    
     14600           1  -48992.795      1.9424262e-06  2.0052478e-05  38.7435        248.489        14.9298        0.54751349     0.37969471    -4.7886295      0.56706746     15.32868      -81.494269    
     14700           1  -48992.795      9.9794513e-05  0.00040154057  38.7435        248.489        14.9298        0.54753061     0.38065276    -4.7884517      0.56664007     15.325444     -81.478782    
     14800           1  -48992.795      1.7763396e-06  1.9313094e-05  38.7435        248.489        14.9298        0.54753996     0.38138783    -4.7883119      0.56631796     15.322954     -81.466809    
     14900           1  -48992.795      7.4184584e-06  3.4401349e-05  38.7435        248.489        14.9298        0.54754666     0.38218362    -4.7881572      0.56597434     15.320252     -81.453772    
     15000           1  -48992.795      6.2153953e-05  0.00025036178  38.7435        248.489        14.9298        0.54755004     0.38304811    -4.7879855      0.56560693     15.317311     -81.439519    
     15100           1  -48992.795      6.3385152e-06  3.0478468e-05  38.7435        248.489        14.9298        0.54754977     0.38380605    -4.787832       0.56528953     15.314728     -81.426947    
     15200           1  -48992.795      4.6576968e-06  2.5039394e-05  38.7435        248.489        14.9298        0.547547       0.38451304    -4.7876864      0.56499726     15.312316     -81.415162    
     15300           1  -48992.795      3.8643154e-05  0.00015617424  38.7435        248.489        14.9298        0.54754092     0.38532779    -4.7875159      0.56466473     15.309533     -81.401514    
     15400           1  -48992.795      1.8206076e-06  1.7932494e-05  38.7435        248.489        14.9298        0.54753374     0.38599746    -4.7873736      0.56439461     15.307244     -81.390242    
     15500           1  -48992.795      2.077737e-05   8.4921738e-05  38.7435        248.489        14.9298        0.54752327     0.38676651    -4.7872082      0.56408774     15.304613     -81.377243    
     15600           1  -48992.795      2.277029e-05   9.2786954e-05  38.7435        248.489        14.9298        0.5475112      0.38749733    -4.7870491      0.56379921     15.302112     -81.364837    
     15700           1  -48992.795      1.5879445e-06  1.687798e-05   38.7435        248.489        14.9298        0.54749918     0.38813361    -4.7869091      0.56355026     15.299934     -81.353995    
     15800           1  -48992.795      4.4394521e-06  2.3398064e-05  38.7435        248.489        14.9298        0.54748484     0.38881644    -4.7867575      0.56328522     15.297597     -81.34232     
     15900           1  -48992.795      9.5273547e-07  1.5616583e-05  38.7435        248.489        14.9298        0.547467       0.3895884     -4.7865844      0.56298807     15.294954     -81.329077    
     16000           1  -48992.795      1.7744854e-06  1.6481803e-05  38.7435        248.489        14.9298        0.54745252     0.39016856    -4.7864536      0.56276618     15.292968     -81.319087    
     16100           1  -48992.795      6.4637389e-06  2.9660998e-05  38.7435        248.489        14.9298        0.54743565     0.3908092     -4.7863082      0.56252258     15.290775     -81.308028    
     16200           1  -48992.795      1.1259514e-05  4.737078e-05   38.7435        248.489        14.9298        0.54741651     0.39150001    -4.7861506      0.56226131     15.288412     -81.29607     
     16300           1  -48992.795      1.6078634e-06  1.556772e-05   38.7435        248.489        14.9298        0.54740065     0.39205134    -4.7860242      0.56205367     15.286526     -81.2865      
     16400           1  -48992.795      6.0420978e-07  1.4211932e-05  38.7435        248.489        14.9298        0.54738107     0.39271191    -4.7858723      0.56180578     15.284268     -81.275008    
     16500           1  -48992.795      1.8900771e-05  7.7334939e-05  38.7435        248.489        14.9298        0.54736152     0.3933548     -4.785724       0.56156532     15.282072     -81.263798    
     16600           1  -48992.795      2.5472954e-06  1.6865478e-05  38.7435        248.489        14.9298        0.54734508     0.39388776    -4.7856009      0.5613663      15.280252     -81.254482    
     16700           1  -48992.795      2.4648092e-06  1.6491437e-05  38.7435        248.489        14.9298        0.54732695     0.39446926    -4.7854664      0.56114949     15.278267     -81.244299    
     16800           1  -48992.795      1.4597032e-05  6.035702e-05   38.7435        248.489        14.9298        0.54730503     0.39516977    -4.7853043      0.56088854     15.275878     -81.232008    
     16900           1  -48992.795      1.7767208e-06  1.464769e-05   38.7435        248.489        14.9298        0.54728999     0.39565174    -4.7851929      0.56070899     15.274235     -81.223535    
     17000           1  -48992.795      4.3533747e-06  2.1509119e-05  38.7435        248.489        14.9298        0.54727329     0.39619086    -4.7850684      0.56050806     15.272399     -81.214043    
     17100           1  -48992.795      7.604069e-06   3.2992475e-05  38.7435        248.489        14.9298        0.54725556     0.39677025    -4.7849349      0.56029186     15.270427     -81.203827    
     17200           1  -48992.795      2.762849e-07   1.2300461e-05  38.7435        248.489        14.9298        0.54723876     0.39733133    -4.784806       0.56008208     15.268518     -81.193917    
     17300           1  -48992.795      4.6022389e-06  2.2280922e-05  38.7435        248.489        14.9298        0.54722401     0.39783633    -4.7846904      0.55989283     15.266801     -81.184986    
     17400           1  -48992.795      2.8340441e-05  0.00011742169  38.7435        248.489        14.9298        0.54720873     0.39837591    -4.7845673      0.55969005     15.264968     -81.175431    
     17500           1  -48992.795      4.7473215e-07  1.1804885e-05  38.7435        248.489        14.9298        0.54719627     0.39883218    -4.7844638      0.55951795     15.263419     -81.167341    
     17600           1  -48992.795      3.7533671e-06  1.894169e-05   38.7435        248.489        14.9298        0.54718162     0.39939273    -4.7843372      0.55930574     15.261517     -81.157391    
     17700           1  -48992.795      2.8152014e-05  0.00011548515  38.7435        248.489        14.9298        0.54716902     0.3999031     -4.7842227      0.5591116      15.259787     -81.148322    
     17800           1  -48992.795      1.5903137e-06  1.2734898e-05  38.7435        248.489        14.9298        0.54715936     0.40031755    -4.7841304      0.5589532      15.258383     -81.14095     
     17900           1  -48992.795      7.0759858e-06  3.068478e-05   38.7435        248.489        14.9298        0.54714896     0.40079315    -4.7840251      0.55877058     15.256772     -81.132482    
     18000           1  -48992.795      2.2145696e-05  9.0642633e-05  38.7435        248.489        14.9298        0.54713784     0.40134822    -4.7839032      0.55855616     15.254894     -81.122591    
     18100           1  -48992.795      1.969023e-06   1.3100897e-05  38.7435        248.489        14.9298        0.54713097     0.40172538    -4.7838211      0.55840959     15.253618     -81.115864    
     18200           1  -48992.795      4.4644159e-06  2.0748507e-05  38.7435        248.489        14.9298        0.54712471     0.40210144    -4.7837398      0.55826268     15.252347     -81.109152    
     18300           1  -48992.795      0.00052183306  0.002127182    38.7435        248.489        14.9298        0.54711885     0.40261983    -4.7836271      0.5580595      15.250601     -81.099923    
     18400           1  -48992.795      3.4212918e-06  1.699935e-05   38.7435        248.489        14.9298        0.54711277     0.40296652    -4.7835554      0.55792162     15.249425     -81.093696    
     18500           1  -48992.795      1.145561e-05   4.7477766e-05  38.7435        248.489        14.9298        0.54710813     0.40340273    -4.7834638      0.55774786     15.247953     -81.085895    
     18600           1  -48992.795      0.00042906828  0.0017474965   38.7435        248.489        14.9298        0.54710556     0.40385473    -4.7833687      0.55756692     15.246432     -81.077826    
     18700           1  -48992.795      3.0034119e-06  1.535746e-05   38.7435        248.489        14.9298        0.54710236     0.4041907     -4.7833009      0.55743068     15.245295     -81.07179     
     18782           1  -48992.795      2.4175238e-06  1.3466669e-05  38.7435        248.489        14.9298        0.54710087     0.40455919    -4.783226       0.55728079     15.244053     -81.065188    
Loop time of 270.99 on 2 procs for 9329 steps with 11052 atoms

98.5% CPU use with 2 MPI tasks x 1 OpenMP threads

Minimization stats:
  Stopping criterion = force tolerance
  Energy initial, next-to-last, final = 
     -48992.7952254865  -48992.7950212479    -48992.79502125
  Force two-norm initial, final = 8.6941779e-06 1.3466669e-05
  Force max component initial, final = 1.9518236e-06 2.4175238e-06
  Final line search alpha, max atom move = 0 0
  Iterations, force evaluations = 9329 9840

MPI task timing breakdown:
Section |  min time  |  avg time  |  max time  |%varavg| %total
---------------------------------------------------------------
Pair    | 227.86     | 227.94     | 228.02     |   0.5 | 84.11
Neigh   | 0          | 0          | 0          |   0.0 |  0.00
Comm    | 5.2632     | 5.3349     | 5.4066     |   3.1 |  1.97
Output  | 0.15113    | 0.15959    | 0.16804    |   2.1 |  0.06
Modify  | 23.019     | 23.022     | 23.025     |   0.1 |  8.50
Other   |            | 14.53      |            |       |  5.36

Nlocal:           5526 ave        5544 max        5508 min
Histogram: 1 0 0 0 0 0 0 0 0 1
Nghost:           7959 ave        8011 max        7907 min
Histogram: 1 0 0 0 0 0 0 0 0 1
Neighs:         234594 ave      235420 max      233768 min
Histogram: 1 0 0 0 0 0 0 0 0 1

Total # of neighbors = 469188
Ave neighs/atom = 42.452769
Neighbor list builds = 0
Dangerous builds = 0
write_data /data/home/yazhuo/Project/GBclaw/projects/proj-20260927-164bf2/artifacts/lammps/neb/neb-20260927-045814-1d9965/neb.replica.$i.final.lmp nocoeff
write_data /data/home/yazhuo/Project/GBclaw/projects/proj-20260927-164bf2/artifacts/lammps/neb/neb-20260927-045814-1d9965/neb.replica.1.final.lmp nocoeff
System init for write_data ...
Total wall time: 0:09:07
