LAMMPS (30 Mar 2026)
Processor partition = 11
OMP_NUM_THREADS environment is not set. Defaulting to 1 thread.
  using 1 OpenMP thread(s) per MPI task
clear
OMP_NUM_THREADS environment is not set. Defaulting to 1 thread.
  using 1 OpenMP thread(s) per MPI task
units metal
dimension 3
atom_style atomic
boundary p p p
atom_modify map array
read_data "/data/home/yazhuo/Project/GBclaw/projects/proj-20260927-164bf2/artifacts/lammps/neb/neb-20260927-045814-1d9965/inputs/initial.lmp"
Reading data file ...
  orthogonal box = (-19.37175 -124.2445 -7.4649) to (19.37175 124.2445 7.4649)
  1 by 2 by 1 MPI processor grid
  reading atoms ...
  11052 atoms
  read_data CPU = 0.045 seconds
neighbor 1.0 bin
neigh_modify delay 0 every 1 check yes
pair_style adp
pair_coeff * * "/data/home/yazhuo/Project/GBclaw/src/tools/potentials/NiCr.adp" Ni
group top_boundary empty
0 atoms in group top_boundary
group top_boundary id 5180 5151 5159 5109 5117 5067 5075 5025 5033 4992 5184 5160 5118 5076 5034 5181 5154 5156 5157 5112 5114 5115 5070 5072 5073 5028 5030 5031 4990 4991 5182 5155 5113 5071 5029 5175 5176 5141 5144 5146 5147 5099 5102 5104 5105 5057 5060 5062 5063 5015 5018 5020 5021 4985 4986 5177 5183 5145 5158 5103 5116 5061 5074 5019 5032 5168 5169 5129 5132 5134 5087 5090 5092 5045 5048 5050 5003 5006 5008 4980 5170 5178 5133 5148 5091 5106 5049 5064 5007 5022 11027 11048 10985 11019 10943 10977 10901 10935 10859 10893
100 atoms in group top_boundary
group top_boundary id 10818 10851 11052 11028 10986 10944 10902 10860 11024 11025 11049 10982 10983 11022 10940 10941 10980 10898 10899 10938 10856 10857 10896 10816 10817 10854 11050 11023 10981 10939 10897 10855 11014 11015 11043 11044 10972 10973 11009 11012 10930 10931 10967 10970 10888 10889 10925 10928 10846 10847 10883 10886 10811 10812 10841 10844 11045 11051 11013 11026 10971 10984 10929 10942 10887 10900 10845 10858 11002 11036 11037 10960 10997 11000 10918 10955 10958 10876 10913 10916 10834 10871 10874 10806 10829 10832 11038 11046 11001 11016 10959 10974 10917 10932 10875 10890 10833 10848
198 atoms in group top_boundary
group bottom_boundary empty
0 atoms in group bottom_boundary
group bottom_boundary id 174 125 83 123 84 32 34 10 177 139 175 140 85 87 46 12 47 160 111 124 68 69 126 67 21 33 35 6 7 164 176 128 129 178 127 73 86 88 37 38 9 11 36 152 161 105 110 58 59 109 112 57 70 15 19 20 22 2 3 156 163 114 115 162 165 113 130 63 71 72 74 24 25 5 8 23 39 151 153 104 56 103 106 55 60 13 14 16 1 155 108 154 157 107 116 61 62 64 18 4
100 atoms in group bottom_boundary
group bottom_boundary id 17 26 5345 5390 5303 5343 5304 5247 5249 5214 5190 5215 5391 5359 5360 5307 5263 5305 5264 5216 5218 5331 5344 5378 5288 5289 5346 5287 5235 5248 5250 5203 5204 5188 5189 5202 5392 5347 5348 5349 5293 5306 5252 5253 5308 5251 5208 5217 5219 5325 5330 5372 5379 5278 5279 5329 5332 5277 5290 5229 5233 5234 5236 5194 5195 5186 5187 5193 5205 5380 5381 5333 5334 5335 5350 5283 5292 5238 5239 5291 5294 5237 5254 5199 5206 5207 5209 5324 5371 5373 5276 5323 5326 5275 5280 5227 5228 5230 5192 5185
200 atoms in group bottom_boundary
group bottom_boundary id 5191 5196 5374 5375 5327 5328 5336 5282 5232 5281 5284 5231 5240 5197 5198 5200
216 atoms in group bottom_boundary
group fixed_xy union top_boundary bottom_boundary
414 atoms in group fixed_xy
variable __gb_neb_count_top_boundary equal count(top_boundary)
variable __gb_neb_count_top_boundary delete
variable __gb_neb_count_bottom_boundary equal count(bottom_boundary)
variable __gb_neb_count_bottom_boundary delete
min_style fire
timestep 0.01
fix neb_path all neb 1
fix hold_boundary_xy fixed_xy setforce 0.0 0.0 NULL
thermo 100
thermo_style custom step part pe fmax fnorm lx ly lz pxx pyy pzz pxy pxz pyz
thermo_modify flush yes
variable i equal part
dump neb_dump all custom 1000 /data/home/yazhuo/Project/GBclaw/projects/proj-20260927-164bf2/artifacts/lammps/neb/neb-20260927-045814-1d9965/neb.replica.$i.lammpstrj id type x y z ix iy iz fx fy fz
dump neb_dump all custom 1000 /data/home/yazhuo/Project/GBclaw/projects/proj-20260927-164bf2/artifacts/lammps/neb/neb-20260927-045814-1d9965/neb.replica.11.lammpstrj id type x y z ix iy iz fx fy fz
dump_modify neb_dump sort id
run 0
WARNING: No fixes with time integration, atoms won't move
For more information see https://docs.lammps.org/err0028 (src/verlet.cpp:60)
Neighbor list info ...
  update: every = 1 steps, delay = 0 steps, check = yes
  max neighbors/atom: 2000, page size: 100000
  master list distance cutoff = 6.168302
  ghost atom cutoff = 6.168302
  binsize = 3.084151, bins = 13 81 5
  1 neighbor lists, perpetual/occasional/extra = 1 0 0
  (1) pair adp, perpetual
      attributes: half, newton on
      pair build: half/bin/atomonly/newton
      stencil: half/bin/3d
      bin: standard
Per MPI rank memory allocation (min/avg/max) = 7.422 | 7.43 | 7.438 Mbytes
   Step        Part         PotEng          Fmax          Fnorm            Lx             Ly             Lz            Pxx            Pyy            Pzz            Pxy            Pxz            Pyz      
         0          11  -48992.796      0.0024845783   0.10363051     38.7435        248.489        14.9298        0.19007438     2.918104      -3.7172695      0.3830234      3.2510357e-05 -0.0010155383 
Loop time of 2.5e-06 on 2 procs for 0 steps with 11052 atoms

100.0% CPU use with 2 MPI tasks x 1 OpenMP threads

MPI task timing breakdown:
Section |  min time  |  avg time  |  max time  |%varavg| %total
---------------------------------------------------------------
Pair    | 0          | 0          | 0          |   0.0 |  0.00
Neigh   | 0          | 0          | 0          |   0.0 |  0.00
Comm    | 0          | 0          | 0          |   0.0 |  0.00
Output  | 0          | 0          | 0          |   0.0 |  0.00
Modify  | 0          | 0          | 0          |   0.0 |  0.00
Other   |            | 2.5e-06    |            |       |100.00

Nlocal:           5526 ave        5544 max        5508 min
Histogram: 1 0 0 0 0 0 0 0 0 1
Nghost:           7959 ave        8011 max        7907 min
Histogram: 1 0 0 0 0 0 0 0 0 1
Neighs:         234603 ave      234962 max      234244 min
Histogram: 1 0 0 0 0 0 0 0 0 1

Total # of neighbors = 469206
Ave neighs/atom = 42.454397
Neighbor list builds = 0
Dangerous builds = 0
neb 0 0.0001 10000 10000 100 final "/data/home/yazhuo/Project/GBclaw/projects/proj-20260927-164bf2/artifacts/lammps/neb/neb-20260927-045814-1d9965/inputs/final.neb.coords" verbosity default
  Parameters for fire:
    dmax  delaystep dtgrow dtshrink alpha0 alphashrink tmax tmin   integrator   halfstepback   abcfire  
     0.1     20      1.1     0.5     0.25     0.99      10  0.02 eulerimplicit      yes          no     
Per MPI rank memory allocation (min/avg/max) = 9.901 | 9.909 | 9.917 Mbytes
   Step        Part         PotEng          Fmax          Fnorm            Lx             Ly             Lz            Pxx            Pyy            Pzz            Pxy            Pxz            Pyz      
         0          11  -48992.159      0.30979944     2.1936094      38.7435        248.489        14.9298        115.56864     -383.8712      -155.7147      -60.581454     -7.1934535      62.586327    
       100          11  -48992.74       0.0031538441   0.030725596    38.7435        248.489        14.9298        125.87446     -506.90601     -122.20657     -150.39179     -78.406266      122.02851    
       200          11  -48992.754      0.0013195878   0.018723709    38.7435        248.489        14.9298        95.339842     -517.21        -107.07702     -228.91723     -81.523807      120.04768    
       300          11  -48992.76       0.00044859872  0.012960207    38.7435        248.489        14.9298        83.246055     -518.14978     -96.46558      -274.79825     -80.581224      115.00369    
       400          11  -48992.764      0.00019547879  0.010069737    38.7435        248.489        14.9298        77.881726     -517.57636     -89.183156     -304.6923      -80.001437      113.6736     
       500          11  -48992.766      0.00013659587  0.0081493135   38.7435        248.489        14.9298        75.046488     -516.80269     -84.022617     -325.62124     -79.739584      114.06162    
       600          11  -48992.767      0.00011112484  0.0070795467   38.7435        248.489        14.9298        73.714378     -516.29662     -81.160191     -337.22482     -79.621553      114.69247    
       700          11  -48992.768      8.6613714e-05  0.0056738798   38.7435        248.489        14.9298        72.804142     -515.70778     -78.936412     -346.09766     -79.463294      115.1854     
       800          11  -48992.769      6.9683497e-05  0.003232967    38.7435        248.489        14.9298        72.138272     -514.24592     -77.331527     -351.51907     -79.071204      114.56988    
       900          11  -48992.769      9.9383123e-05  0.0036669864   38.7435        248.489        14.9298        71.234612     -513.16723     -77.073483     -351.31326     -78.889566      112.98855    
      1000          11  -48992.769      6.9424118e-05  0.0034624654   38.7435        248.489        14.9298        69.711588     -513.05591     -76.076979     -354.95249     -78.954542      112.44447    
      1100          11  -48992.77       5.4541221e-05  0.0033314873   38.7435        248.489        14.9298        68.47394      -512.98894     -74.264937     -362.2169      -78.96407       112.96919    
      1200          11  -48992.77       4.8733122e-05  0.0031540948   38.7435        248.489        14.9298        67.704515     -512.70625     -72.998893     -367.06387     -78.925022      113.21758    
      1300          11  -48992.77       4.5249348e-05  0.0029499135   38.7435        248.489        14.9298        67.068575     -512.44238     -71.892211     -371.27265     -78.886251      113.4509     
      1400          11  -48992.771      4.031076e-05   0.002645231    38.7435        248.489        14.9298        66.42548      -512.13848     -70.729265     -375.63824     -78.829265      113.66122    
      1500          11  -48992.771      3.5072727e-05  0.0023133079   38.7435        248.489        14.9298        65.884248     -511.84395     -69.754595     -379.2047      -78.75304       113.72619    
      1600          11  -48992.771      3.0951646e-05  0.002044752    38.7435        248.489        14.9298        65.488732     -511.60732     -69.075022     -381.61156     -78.673967      113.65399    
      1700          11  -48992.771      2.6065255e-05  0.0017238503   38.7435        248.489        14.9298        65.033713     -511.31611     -68.347752     -384.07911     -78.552445      113.40108    
      1800          11  -48992.771      2.2049206e-05  0.0014606529   38.7435        248.489        14.9298        64.651877     -511.05974     -67.795137     -385.84435     -78.422026      113.02175    
      1900          11  -48992.772      1.873385e-05   0.0012482006   38.7435        248.489        14.9298        64.325792     -510.83509     -67.3691       -387.11349     -78.289934      112.56928    
      2000          11  -48992.772      1.7784938e-05  0.0010664714   38.7435        248.489        14.9298        64.02393      -510.62402     -67.015073     -388.07885     -78.150431      112.03751    
      2100          11  -48992.772      1.6842546e-05  0.00088588204  38.7435        248.489        14.9298        63.686315     -510.38555     -66.665671     -388.91244     -77.975494      111.30968    
      2200          11  -48992.772      1.594137e-05   0.00078019916  38.7435        248.489        14.9298        63.464364     -510.22841     -66.462122     -389.31829     -77.85092       110.75554    
      2300          11  -48992.772      1.4001849e-05  0.0006638616   38.7435        248.489        14.9298        63.19883      -510.0422      -66.24255      -389.66409     -77.694362      110.01966    
      2400          11  -48992.772      1.0422231e-05  0.00054297754  38.7435        248.489        14.9298        62.945806     -509.87184     -66.048764     -389.875       -77.541189      109.25636    
      2500          11  -48992.772      7.5816312e-06  0.00046452716  38.7435        248.489        14.9298        62.805586     -509.78654     -65.936995     -389.97474     -77.457646      108.82177    
      2600          11  -48992.772      5.8887605e-06  0.00040019366  38.7435        248.489        14.9298        62.691406     -509.72976     -65.828769     -390.09482     -77.393245      108.48092    
      2700          11  -48992.772      6.4398009e-06  0.00041908874  38.7435        248.489        14.9298        62.58053      -509.70321     -65.670863     -390.36427     -77.338058      108.20112    
      2800          11  -48992.772      7.6735416e-06  0.00051089423  38.7435        248.489        14.9298        62.519514     -509.71941     -65.533049     -390.70007     -77.316115      108.11931    
      2900          11  -48992.772      1.0013482e-05  0.00064456115  38.7435        248.489        14.9298        62.442366     -509.76081     -65.318869     -391.32672     -77.296611      108.09703    
      3000          11  -48992.772      1.1827854e-05  0.00075044905  38.7435        248.489        14.9298        62.368312     -509.81289     -65.048808     -392.16623     -77.276002      108.13009    
      3100          11  -48992.772      1.1747594e-05  0.00076711636  38.7435        248.489        14.9298        62.324425     -509.84713     -64.853196     -392.77687     -77.256279      108.15578    
      3200          11  -48992.772      1.0802547e-05  0.00074506989  38.7435        248.489        14.9298        62.287105     -509.87571     -64.667099     -393.3447      -77.228368      108.15673    
      3300          11  -48992.772      9.5430813e-06  0.00071578374  38.7435        248.489        14.9298        62.244592     -509.90433     -64.444483     -393.99053     -77.175399      108.09443    
      3400          11  -48992.772      8.0219532e-06  0.00066953443  38.7435        248.489        14.9298        62.212893     -509.92053     -64.281553     -394.42414     -77.114356      107.97115    
      3500          11  -48992.772      6.7685529e-06  0.00061725691  38.7435        248.489        14.9298        62.181646     -509.93137     -64.135082     -394.76947     -77.033679      107.76668    
      3600          11  -48992.772      5.5666083e-06  0.00056791556  38.7435        248.489        14.9298        62.147919     -509.93676     -64.001108     -395.02075     -76.92229       107.43975    
      3700          11  -48992.772      5.7533978e-06  0.00053181531  38.7435        248.489        14.9298        62.122863     -509.9372      -63.920816     -395.11965     -76.824975      107.12816    
      3800          11  -48992.772      5.9775378e-06  0.0005046887   38.7435        248.489        14.9298        62.097946     -509.93523     -63.85707      -395.14787     -76.717731      106.76589    
      3900          11  -48992.772      6.3067568e-06  0.0004782667   38.7435        248.489        14.9298        62.057181     -509.92844     -63.784748     -395.06125     -76.525061      106.07916    
      4000          11  -48992.772      6.4972081e-06  0.00046661379  38.7435        248.489        14.9298        62.029316     -509.92221     -63.755449     -394.92227     -76.384696      105.55623    
      4100          11  -48992.772      6.6531736e-06  0.00045931092  38.7435        248.489        14.9298        62.001875     -509.91514     -63.740013     -394.73255     -76.241109      105.00488    
      4200          11  -48992.772      6.7799916e-06  0.00045587956  38.7435        248.489        14.9298        61.971281     -509.90706     -63.735337     -394.47571     -76.078525      104.36311    
      4300          11  -48992.772      6.8631228e-06  0.00045277611  38.7435        248.489        14.9298        61.936866     -509.89796     -63.742674     -394.14188     -75.893943      103.6137     
      4400          11  -48992.772      6.8847141e-06  0.00045007475  38.7435        248.489        14.9298        61.910196     -509.89108     -63.755722     -393.85812     -75.751058      103.01849    
      4500          11  -48992.772      6.8559717e-06  0.00044392289  38.7435        248.489        14.9298        61.877471     -509.88304     -63.778424     -393.48921     -75.57768       102.2784     
      4600          11  -48992.772      6.7923233e-06  0.00043735061  38.7435        248.489        14.9298        61.85183      -509.87704     -63.800403     -393.18791     -75.444096      101.69371    
      4700          11  -48992.772      6.6831655e-06  0.00042807024  38.7435        248.489        14.9298        61.824632     -509.87092     -63.827006     -392.85966     -75.305471      101.07178    
      4800          11  -48992.772      6.5325614e-06  0.0004160679   38.7435        248.489        14.9298        61.797496     -509.86518     -63.855965     -392.52797     -75.171461      100.45435    
      4900          11  -48992.772      6.3084183e-06  0.00039854856  38.7435        248.489        14.9298        61.766442     -509.859       -63.891263     -392.14634     -75.024272      99.754437    
      5000          11  -48992.772      6.0880905e-06  0.00038229548  38.7435        248.489        14.9298        61.741364     -509.85426     -63.920873     -391.83914     -74.911116      99.19737     
      5100          11  -48992.772      5.816236e-06   0.00036248767  38.7435        248.489        14.9298        61.714717     -509.84948     -63.952849     -391.51653     -74.797403      98.617047    
      5200          11  -48992.772      5.5081527e-06  0.00034021722  38.7435        248.489        14.9298        61.6883       -509.84492     -63.984626     -391.20261     -74.692248      98.056412    
      5300          11  -48992.772      5.2372857e-06  0.00032122622  38.7435        248.489        14.9298        61.667318     -509.8414      -64.009581     -390.95913     -74.614809      97.623958    
      5400          11  -48992.772      4.9070167e-06  0.00029832924  38.7435        248.489        14.9298        61.643763     -509.83756     -64.036954     -390.69376     -74.534942      97.154651    
      5500          11  -48992.772      4.529452e-06   0.0002724825   38.7435        248.489        14.9298        61.61892      -509.83354     -64.064728     -390.42474     -74.459738      96.681252    
      5600          11  -48992.772      4.2307895e-06  0.00025255262  38.7435        248.489        14.9298        61.600456     -509.83056     -64.084361     -390.23354     -74.410569      96.346355    
      5700          11  -48992.772      3.9051734e-06  0.0002310905   38.7435        248.489        14.9298        61.581234     -509.82745     -64.103652     -390.04364     -74.365934      96.015097    
      5800          11  -48992.772      3.5312222e-06  0.00020680086  38.7435        248.489        14.9298        61.560085     -509.82398     -64.123228     -389.84694     -74.325232      95.67374     
      5900          11  -48992.772      3.2097894e-06  0.00018648248  38.7435        248.489        14.9298        61.542502     -509.82104     -64.137932     -389.69449     -74.298677      95.41077     
      6000          11  -48992.772      2.9002017e-06  0.00016726383  38.7435        248.489        14.9298        61.525943     -509.81819     -64.150269     -389.56116     -74.280124      95.18236     
      6100          11  -48992.772      2.5769514e-06  0.0001476006   38.7435        248.489        14.9298        61.508915     -509.81517     -64.161196     -389.43554     -74.268         94.969004    
      6200          11  -48992.772      2.3090751e-06  0.00013178844  38.7435        248.489        14.9298        61.494902     -509.8126      -64.168675     -389.34174     -74.263593      94.811336    
      6300          11  -48992.772      1.9801389e-06  0.00011294349  38.7435        248.489        14.9298        61.477678     -509.80934     -64.175811     -389.23909     -74.265203      94.641117    
      6400          11  -48992.772      1.7148953e-06  9.7593732e-05  38.7435        248.489        14.9298        61.462902     -509.80643     -64.179874     -389.1633      -74.27315       94.518039    
      6500          11  -48992.772      1.5680047e-06  8.6405683e-05  38.7435        248.489        14.9298        61.451374     -509.80408     -64.181609     -389.11251     -74.2836        94.437603    
      6600          11  -48992.772      1.4052963e-06  7.4959454e-05  38.7435        248.489        14.9298        61.438568     -509.80139     -64.181988     -389.06487     -74.299484      94.364678    
      6700          11  -48992.772      1.2166694e-06  6.323769e-05   38.7435        248.489        14.9298        61.423606     -509.79815     -64.180231     -389.02139     -74.32367       94.302264    
      6800          11  -48992.772      1.0867067e-06  5.6279819e-05  38.7435        248.489        14.9298        61.41286      -509.79574     -64.177393     -388.99864     -74.344735      94.273316    
      6900          11  -48992.772      9.6419509e-07  5.0840498e-05  38.7435        248.489        14.9298        61.402516     -509.79337     -64.173416     -388.98329     -74.367671      94.257742    
      7000          11  -48992.772      8.4002331e-07  4.6342263e-05  38.7435        248.489        14.9298        61.390898     -509.79065     -64.167458     -388.97366     -74.396313      94.254554    
      7100          11  -48992.772      7.7306547e-07  4.3971618e-05  38.7435        248.489        14.9298        61.381497     -509.78841     -64.161473     -388.97167     -74.421498      94.26286     
      7200          11  -48992.772      6.9201848e-07  4.2419066e-05  38.7435        248.489        14.9298        61.369876     -509.7856      -64.152697     -388.97586     -74.454679      94.285636    
      7300          11  -48992.772      6.4918918e-07  4.2029115e-05  38.7435        248.489        14.9298        61.35999      -509.78319     -64.144036     -388.985       -74.484398      94.315554    
      7400          11  -48992.772      6.6687063e-07  4.2163998e-05  38.7435        248.489        14.9298        61.351219     -509.78103     -64.135489     -388.99698     -74.511602      94.349428    
      7500          11  -48992.772      6.7758267e-07  4.2559621e-05  38.7435        248.489        14.9298        61.342293     -509.77884     -64.12602      -389.01248     -74.539812      94.390201    
      7600          11  -48992.772      6.8123396e-07  4.3156305e-05  38.7435        248.489        14.9298        61.331284     -509.77614     -64.11336      -389.03562     -74.57495       94.448142    
      7700          11  -48992.772      6.7764321e-07  4.3523556e-05  38.7435        248.489        14.9298        61.323321     -509.77419     -64.103583     -389.05472     -74.600337      94.494619    
      7800          11  -48992.772      6.6919905e-07  4.3775226e-05  38.7435        248.489        14.9298        61.315194     -509.77223     -64.093149     -389.07582     -74.626004      94.545173    
      7900          11  -48992.772      6.5464906e-07  4.385176e-05   38.7435        248.489        14.9298        61.306168     -509.77007     -64.081089     -389.10075     -74.654004      94.604272    
      8000          11  -48992.772      6.3721663e-07  4.3705024e-05  38.7435        248.489        14.9298        61.29794      -509.76814     -64.069729     -389.12445     -74.678881      94.660144    
      8100          11  -48992.772      6.1753243e-07  4.3367319e-05  38.7435        248.489        14.9298        61.290144     -509.76634     -64.058706     -389.14745     -74.701743      94.714233    
      8200          11  -48992.772      5.9311797e-07  4.2781259e-05  38.7435        248.489        14.9298        61.281659     -509.76442     -64.046482     -389.17275     -74.725705      94.773767    
      8300          11  -48992.772      5.6975815e-07  4.2089386e-05  38.7435        248.489        14.9298        61.274272     -509.76279     -64.035696     -389.19475     -74.745691      94.825702    
      8400          11  -48992.772      5.4257506e-07  4.1163704e-05  38.7435        248.489        14.9298        61.266234     -509.76106     -64.023858     -389.21843     -74.766455      94.881884    
      8500          11  -48992.772      5.1996913e-07  4.0310955e-05  38.7435        248.489        14.9298        61.259858     -509.75972     -64.014421     -389.23687     -74.782148      94.925933    
      8600          11  -48992.772      4.960343e-07   3.9336757e-05  38.7435        248.489        14.9298        61.253313     -509.75838     -64.004715     -389.25538     -74.797515      94.970462    
      8700          11  -48992.772      4.6324121e-07  3.7896529e-05  38.7435        248.489        14.9298        61.244567     -509.75663     -63.991751     -389.27927     -74.816837      95.028567    
      8800          11  -48992.772      4.3229246e-07  3.642647e-05   38.7435        248.489        14.9298        61.236371     -509.75506     -63.979648     -389.30061     -74.83366       95.081248    
      8900          11  -48992.772      4.2510414e-07  3.5334906e-05  38.7435        248.489        14.9298        61.230616     -509.75399     -63.971195     -389.31492     -74.844723      95.117068    
      9000          11  -48992.772      4.1354979e-07  3.3854981e-05  38.7435        248.489        14.9298        61.223098     -509.75263     -63.960223     -389.33271     -74.858267      95.162302    
      9100          11  -48992.772      3.991224e-07   3.2251669e-05  38.7435        248.489        14.9298        61.215219     -509.75127     -63.948831     -389.35018     -74.871357      95.207661    
      9200          11  -48992.772      3.8686935e-07  3.1013398e-05  38.7435        248.489        14.9298        61.209259     -509.75027     -63.940296     -389.36256     -74.880527      95.240519    
      9300          11  -48992.772      3.7328394e-07  2.9730327e-05  38.7435        248.489        14.9298        61.203152     -509.74927     -63.931633     -389.37448     -74.889276      95.272835    
      9400          11  -48992.772      3.5546717e-07  2.8152877e-05  38.7435        248.489        14.9298        61.195685     -509.74811     -63.921165     -389.38795     -74.89909       95.310396    
      9453          11  -48992.772      3.4893222e-07  2.7597282e-05  38.7435        248.489        14.9298        61.193059     -509.74771     -63.917517     -389.3924      -74.902316      95.323089    
Loop time of 275.698 on 2 procs for 9453 steps with 11052 atoms

99.0% CPU use with 2 MPI tasks x 1 OpenMP threads

Minimization stats:
  Stopping criterion = force tolerance
  Energy initial, next-to-last, final = 
     -48992.1594344407  -48992.7721533386  -48992.7721533418
  Force two-norm initial, final = 2.1936094 2.7597282e-05
  Force max component initial, final = 0.30979944 3.4893222e-07
  Final line search alpha, max atom move = 0 0
  Iterations, force evaluations = 9453 9970

MPI task timing breakdown:
Section |  min time  |  avg time  |  max time  |%varavg| %total
---------------------------------------------------------------
Pair    | 214.66     | 217.62     | 220.58     |  20.1 | 78.93
Neigh   | 0          | 0          | 0          |   0.0 |  0.00
Comm    | 2.296      | 5.2395     | 8.183      | 128.6 |  1.90
Output  | 0.14432    | 0.15138    | 0.15845    |   1.8 |  0.05
Modify  | 36.488     | 36.498     | 36.507     |   0.2 | 13.24
Other   |            | 16.19      |            |       |  5.87

Nlocal:           5526 ave        5544 max        5508 min
Histogram: 1 0 0 0 0 0 0 0 0 1
Nghost:           8594 ave        8631 max        8557 min
Histogram: 1 0 0 0 0 0 0 0 0 1
Neighs:         234672 ave      235448 max      233896 min
Histogram: 1 0 0 0 0 0 0 0 0 1

Total # of neighbors = 469344
Ave neighs/atom = 42.466884
Neighbor list builds = 0
Dangerous builds = 0
  Parameters for fire:
    dmax  delaystep dtgrow dtshrink alpha0 alphashrink tmax tmin   integrator   halfstepback   abcfire  
     0.1     20      1.1     0.5     0.25     0.99      10  0.02 eulerimplicit      yes          no     
Per MPI rank memory allocation (min/avg/max) = 9.901 | 9.909 | 9.917 Mbytes
   Step        Part         PotEng          Fmax          Fnorm            Lx             Ly             Lz            Pxx            Pyy            Pzz            Pxy            Pxz            Pyz      
      9453          11  -48992.772      3.4893222e-07  2.7597282e-05  38.7435        248.489        14.9298        61.193059     -509.74771     -63.917517     -389.3924      -74.902316      95.323089    
      9500          11  -48992.773      0.00025907494  0.011672339    38.7435        248.489        14.9298        61.02881      -511.06521     -62.574015     -396.31553     -75.555192      99.190756    
      9600          11  -48992.774      0.00024723853  0.011696919    38.7435        248.489        14.9298        61.921876     -512.1502      -59.268606     -411.55009     -76.429031      107.93821    
      9700          11  -48992.775      0.00022221124  0.011117458    38.7435        248.489        14.9298        62.656997     -512.41951     -57.141221     -420.82638     -76.791349      113.24172    
      9800          11  -48992.775      0.00018995818  0.010065868    38.7435        248.489        14.9298        63.46469      -512.4615      -54.904073     -430.13741     -76.88715       118.25527    
      9900          11  -48992.776      0.00015880968  0.0088594794   38.7435        248.489        14.9298        64.203297     -512.3066      -52.892916     -437.95584     -76.586716      121.89556    
     10000          11  -48992.776      0.00013155628  0.0076617494   38.7435        248.489        14.9298        64.778216     -512.08509     -51.322591     -443.55428     -75.969542      123.83493    
     10100          11  -48992.776      0.0001031493   0.0062769708   38.7435        248.489        14.9298        65.214116     -511.87196     -50.088961     -447.49662     -75.121769      124.47051    
     10200          11  -48992.776      6.4901096e-05  0.0043837961   38.7435        248.489        14.9298        65.530076     -511.69673     -49.160725     -449.92067     -74.080929      123.91783    
     10300          11  -48992.776      3.4436997e-05  0.0028710906   38.7435        248.489        14.9298        65.672941     -511.61511     -48.783636     -450.34972     -73.241321      122.66006    
     10400          11  -48992.776      2.8639846e-05  0.0021090739   38.7435        248.489        14.9298        65.737343     -511.594       -48.748979     -449.43584     -72.429926      120.77137    
     10500          11  -48992.776      3.7984052e-05  0.0022575652   38.7435        248.489        14.9298        65.734129     -511.66673     -49.145142     -446.53154     -71.391872      117.47937    
     10600          11  -48992.776      4.0523729e-05  0.0022930804   38.7435        248.489        14.9298        65.686595     -511.79172     -49.633124     -443.63233     -70.624675      114.62732    
     10700          11  -48992.776      3.5702805e-05  0.0021180464   38.7435        248.489        14.9298        65.626258     -511.93939     -50.087935     -440.97842     -69.944692      111.99302    
     10800          11  -48992.777      2.7323827e-05  0.001845574    38.7435        248.489        14.9298        65.561051     -512.1123      -50.499934     -438.45593     -69.24782       109.31202    
     10900          11  -48992.777      2.0718723e-05  0.0016511899   38.7435        248.489        14.9298        65.515463     -512.26        -50.77225      -436.62548     -68.679036      107.17965    
     11000          11  -48992.777      1.8899027e-05  0.0015179301   38.7435        248.489        14.9298        65.485018     -512.40105     -50.986347     -435.04497     -68.140589      105.20012    
     11100          11  -48992.777      1.8268651e-05  0.0014369149   38.7435        248.489        14.9298        65.473198     -512.52293     -51.155141     -433.7374      -67.679267      103.50936    
     11200          11  -48992.777      1.727327e-05   0.0013639208   38.7435        248.489        14.9298        65.481944     -512.67895     -51.386022     -432.03969     -67.111328      101.37631    
     11300          11  -48992.777      1.6574407e-05  0.0013329935   38.7435        248.489        14.9298        65.500304     -512.7714      -51.545612     -430.9893      -66.798471      100.14592    
     11400          11  -48992.777      1.5534048e-05  0.0012983959   38.7435        248.489        14.9298        65.538538     -512.89551     -51.792566     -429.52583     -66.415217      98.555473    
     11500          11  -48992.777      1.4769075e-05  0.0012704158   38.7435        248.489        14.9298        65.578027     -512.99215     -52.009128     -428.35805     -66.148546      97.377588    
     11600          11  -48992.777      1.4336361e-05  0.0012355149   38.7435        248.489        14.9298        65.624586     -513.08806     -52.240655     -427.19172     -65.910126      96.264448    
     11700          11  -48992.777      1.3994524e-05  0.0011749592   38.7435        248.489        14.9298        65.694708     -513.21134     -52.555733     -425.70556     -65.638713      94.915795    
     11800          11  -48992.777      1.3605907e-05  0.0011032139   38.7435        248.489        14.9298        65.769185     -513.32393     -52.854437     -424.38083     -65.420741      93.760784    
     11900          11  -48992.777      1.3105285e-05  0.0010409812   38.7435        248.489        14.9298        65.832651     -513.40883     -53.084021     -423.41056     -65.272642      92.934699    
     12000          11  -48992.777      1.2360826e-05  0.00096128374  38.7435        248.489        14.9298        65.916847     -513.50951     -53.360035     -422.29519     -65.11281       92.000566    
     12100          11  -48992.777      1.1569955e-05  0.00088271223  38.7435        248.489        14.9298        66.007748     -513.60543     -53.627271     -421.26938     -64.975667      91.155075    
     12200          11  -48992.777      1.097746e-05   0.00082498275  38.7435        248.489        14.9298        66.082421     -513.67627     -53.828364     -420.53291     -64.883496      90.557111    
     12300          11  -48992.777      1.0347615e-05  0.0007634101   38.7435        248.489        14.9298        66.171931     -513.75335     -54.052515     -419.74884     -64.792183      89.931451    
     12400          11  -48992.777      9.8473534e-06  0.00071403285  38.7435        248.489        14.9298        66.252649     -513.81671     -54.242346     -419.11612     -64.724696      89.437641    
     12500          11  -48992.777      9.6321403e-06  0.00065009335  38.7435        248.489        14.9298        66.383269     -513.9093      -54.531479     -418.20629     -64.639223      88.750223    
     12600          11  -48992.777      8.7937524e-06  0.0006074419   38.7435        248.489        14.9298        66.459707     -513.9586      -54.693217     -417.72629     -64.600772      88.401347    
     12700          11  -48992.777      8.3570774e-06  0.00056655635  38.7435        248.489        14.9298        66.550739     -514.01352     -54.879857     -417.19674     -64.564217      88.028878    
     12800          11  -48992.777      7.8713064e-06  0.00052086248  38.7435        248.489        14.9298        66.659611     -514.07434     -55.096112     -416.61636     -64.532183      87.637718    
     12900          11  -48992.777      7.4998355e-06  0.00048856163  38.7435        248.489        14.9298        66.740156     -514.11635     -55.251835     -416.22023     -64.515588      87.381833    
     13000          11  -48992.777      7.1344629e-06  0.00045771242  38.7435        248.489        14.9298        66.819798     -514.15563     -55.402556     -415.85424     -64.504439      87.154094    
     13100          11  -48992.777      6.6943166e-06  0.00042215768  38.7435        248.489        14.9298        66.915065     -514.19982     -55.578655     -415.44933     -64.497471      86.913048    
     13200          11  -48992.777      6.3045057e-06  0.00039201334  38.7435        248.489        14.9298        66.999107     -514.23641     -55.730346     -415.12048     -64.496523      86.72673     
     13300          11  -48992.777      5.9219205e-06  0.0003634791   38.7435        248.489        14.9298        67.082112     -514.27048     -55.87706      -414.82013     -64.499901      86.565012    
     13400          11  -48992.777      5.6131955e-06  0.000341187    38.7435        248.489        14.9298        67.14968      -514.29672     -55.994232     -414.5933      -64.505662      86.449274    
     13500          11  -48992.777      5.1625097e-06  0.00030965348  38.7435        248.489        14.9298        67.250562     -514.33344     -56.165642     -414.28299     -64.51902       86.301932    
     13600          11  -48992.777      4.8946213e-06  0.00029158591  38.7435        248.489        14.9298        67.311536     -514.35422     -56.267277     -414.11168     -64.5298        86.227488    
     13700          11  -48992.777      4.5556454e-06  0.00026941714  38.7435        248.489        14.9298        67.390525     -514.3796      -56.396994     -413.90675     -64.546623      86.146506    
     13800          11  -48992.777      4.2213169e-06  0.00024841737  38.7435        248.489        14.9298        67.470146     -514.40344     -56.525651     -413.71934     -64.566835      86.082478    
     13900          11  -48992.777      3.9946793e-06  0.0002347033   38.7435        248.489        14.9298        67.524692     -514.41876     -56.6127       -413.60181     -64.582572      86.048754    
     14000          11  -48992.777      3.7755333e-06  0.00022186675  38.7435        248.489        14.9298        67.578102     -514.43298     -56.697118     -413.49516     -64.599463      86.023671    
     14100          11  -48992.777      3.4585726e-06  0.00020408089  38.7435        248.489        14.9298        67.656255     -514.45234     -56.819273     -413.3543      -64.626907      86.001469    
     14200          11  -48992.777      3.2612137e-06  0.00019343505  38.7435        248.489        14.9298        67.705482     -514.46362     -56.895404     -413.27517     -64.645946      85.996734    
     14300          11  -48992.777      3.029911e-06   0.0001814683   38.7435        248.489        14.9298        67.76358      -514.47602     -56.984522     -413.19117     -64.670181      86.000363    
     14400          11  -48992.777      2.7987181e-06  0.00017008157  38.7435        248.489        14.9298        67.822027     -514.48745     -57.073401     -413.11739     -64.696624      86.014669    
     14500          11  -48992.777      2.6358069e-06  0.00016240492  38.7435        248.489        14.9298        67.863262     -514.49485     -57.135664     -413.072       -64.716603      86.031512    
     14600          11  -48992.777      2.481013e-06   0.0001553964   38.7435        248.489        14.9298        67.90259      -514.50138     -57.194731     -413.03399     -64.736743      86.05303     
     14700          11  -48992.777      2.277698e-06   0.00014661026  38.7435        248.489        14.9298        67.954546     -514.50916     -57.272317     -412.99216     -64.765135      86.090291    
     14800          11  -48992.777      2.1290146e-06  0.00014048096  38.7435        248.489        14.9298        67.992673     -514.51421     -57.328954     -412.96789     -64.787398      86.124584    
     14900          11  -48992.777      1.974832e-06   0.00013442682  38.7435        248.489        14.9298        68.032248     -514.51884     -57.387517     -412.94865     -64.811893      86.16679     
     15000          11  -48992.777      1.8154091e-06  0.00012849815  38.7435        248.489        14.9298        68.073193     -514.5229      -57.447902     -412.93564     -64.838923      86.21835     
     15100          11  -48992.777      1.6821731e-06  0.000123783    38.7435        248.489        14.9298        68.107322     -514.52566     -57.498111     -412.93058     -64.862945      86.268163    
     15200          11  -48992.777      1.5638373e-06  0.0001197713   38.7435        248.489        14.9298        68.137653     -514.5276      -57.542676     -412.93087     -64.885587      86.318241    
     15300          11  -48992.777      1.433846e-06   0.00011557724  38.7435        248.489        14.9298        68.170797     -514.52911     -57.591356     -412.9368      -64.91193       86.380024    
     15400          11  -48992.777      1.3317266e-06  0.0001124219   38.7435        248.489        14.9298        68.196574     -514.52977     -57.629235     -412.94594     -64.933765      86.433914    
     15500          11  -48992.777      1.227862e-06   0.00010910443  38.7435        248.489        14.9298        68.224567     -514.52995     -57.670438     -412.96079     -64.959014      86.498981    
     15600          11  -48992.777      1.2163545e-06  0.00010622384  38.7435        248.489        14.9298        68.24954      -514.52953     -57.7073       -412.97902     -64.983168      86.563851    
     15700          11  -48992.777      1.2043594e-06  0.00010389664  38.7435        248.489        14.9298        68.269995     -514.52873     -57.737611     -412.99793     -65.004309      86.62259     
     15800          11  -48992.777      1.1896717e-06  0.00010157367  38.7435        248.489        14.9298        68.29063      -514.52744     -57.76834      -413.02113     -65.027099      86.687806    
     15900          11  -48992.777      1.1709833e-06  9.9142147e-05  38.7435        248.489        14.9298        68.312304     -514.52546     -57.800848     -413.05077     -65.052974      86.764098    
     16000          11  -48992.777      1.1555372e-06  9.74198e-05    38.7435        248.489        14.9298        68.327433     -514.52363     -57.823736     -413.0753      -65.072504      86.823189    
     16100          11  -48992.777      1.1372815e-06  9.5621696e-05  38.7435        248.489        14.9298        68.343001     -514.52127     -57.847514     -413.10441     -65.094128      86.889999    
     16200          11  -48992.777      1.1162972e-06  9.3785579e-05  38.7435        248.489        14.9298        68.358444     -514.51835     -57.871406     -413.13805     -65.117515      86.963821    
     16300          11  -48992.776      1.0986134e-06  9.2379072e-05  38.7435        248.489        14.9298        68.369768     -514.51575     -57.889186     -413.16647     -65.136231      87.024004    
     16400          11  -48992.776      1.0764982e-06  9.0759807e-05  38.7435        248.489        14.9298        68.382192     -514.51234     -57.909035     -413.20218     -65.158703      87.097465    
     16500          11  -48992.776      1.0732414e-06  8.9241218e-05  38.7435        248.489        14.9298        68.393072     -514.50872     -57.926822     -413.23856     -65.180619      87.170316    
     16600          11  -48992.776      1.0746756e-06  8.8011143e-05  38.7435        248.489        14.9298        68.401197     -514.5055      -57.940451     -413.26985     -65.198829      87.231705    
     16700          11  -48992.776      1.0746875e-06  8.6700368e-05  38.7435        248.489        14.9298        68.409148     -514.50178     -57.954191     -413.30504     -65.218727      87.299602    
     16800          11  -48992.776      1.0726515e-06  8.5154143e-05  38.7435        248.489        14.9298        68.417476     -514.49701     -57.969206     -413.34877     -65.242738      87.382613    
     16900          11  -48992.776      1.0699668e-06  8.4102819e-05  38.7435        248.489        14.9298        68.422399     -514.49355     -57.978552     -413.37966     -65.259286      87.440484    
     17000          11  -48992.776      1.0658452e-06  8.2939271e-05  38.7435        248.489        14.9298        68.427154     -514.48952     -57.9881       -413.41489     -65.277818      87.505875    
     17100          11  -48992.776      1.0601449e-06  8.1698534e-05  38.7435        248.489        14.9298        68.431377     -514.48501     -57.997296     -413.45348     -65.29776       87.576898    
     17200          11  -48992.776      1.0534266e-06  8.0501051e-05  38.7435        248.489        14.9298        68.434606     -514.48048     -58.005176     -413.49151     -65.317099      87.646377    
     17300          11  -48992.776      1.0464299e-06  7.9425753e-05  38.7435        248.489        14.9298        68.436788     -514.47626     -58.011411     -413.52623     -65.334524      87.709464    
     17400          11  -48992.776      1.0380193e-06  7.8277532e-05  38.7435        248.489        14.9298        68.438372     -514.47161     -58.017193     -413.56379     -65.353161      87.777411    
     17500          11  -48992.776      1.0301713e-06  7.730341e-05   38.7435        248.489        14.9298        68.439112     -514.46757     -58.021383     -413.5959      -65.36894       87.835303    
     17600          11  -48992.776      1.019699e-06   7.6104641e-05  38.7435        248.489        14.9298        68.439297     -514.46248     -58.025688     -413.6357      -65.388342      87.9069      
     17700          11  -48992.776      1.009382e-06   7.5008191e-05  38.7435        248.489        14.9298        68.438758     -514.45773     -58.028789     -413.67224     -65.406026      87.97254     
     17800          11  -48992.776      1.0004795e-06  7.4112687e-05  38.7435        248.489        14.9298        68.437831     -514.45379     -58.030745     -413.70211     -65.4204        88.026146    
     17900          11  -48992.776      9.8973639e-07  7.3080369e-05  38.7435        248.489        14.9298        68.436247     -514.44919     -58.032394     -413.73656     -65.436907      88.087964    
     18000          11  -48992.776      9.7651279e-07  7.1867558e-05  38.7435        248.489        14.9298        68.433696     -514.44371     -58.033519     -413.77696     -65.45619       88.160502    
     18100          11  -48992.776      9.6712428e-07  7.1037769e-05  38.7435        248.489        14.9298        68.431533     -514.43992     -58.033797     -413.80451     -65.469303      88.21002     
     18200          11  -48992.776      9.5745732e-07  7.0205682e-05  38.7435        248.489        14.9298        68.429037     -514.43609     -58.033692     -413.83205     -65.482388      88.25957     
     18300          11  -48992.776      9.4369991e-07  6.9054283e-05  38.7435        248.489        14.9298        68.425057     -514.43075     -58.032927     -413.86997     -65.50038       88.327923    
     18400          11  -48992.776      9.3412198e-07  6.8271826e-05  38.7435        248.489        14.9298        68.422013     -514.4271      -58.03201      -413.89558     -65.512518      88.374172    
     18500          11  -48992.776      9.2182107e-07  6.7286288e-05  38.7435        248.489        14.9298        68.41781      -514.42248     -58.030424     -413.92766     -65.527727      88.43226     
     18600          11  -48992.776      9.0875781e-07  6.6259968e-05  38.7435        248.489        14.9298        68.413009     -514.41764     -58.028275     -413.96084     -65.543457      88.492493    
     18700          11  -48992.776      8.9876385e-07  6.5486803e-05  38.7435        248.489        14.9298        68.409116     -514.41398     -58.026336     -413.98565     -65.555227      88.537656    
     18782          11  -48992.776      8.8764004e-07  6.4636879e-05  38.7435        248.489        14.9298        68.404575     -514.40995     -58.023899     -414.01275     -65.568099      88.587134    
Loop time of 270.99 on 2 procs for 9329 steps with 11052 atoms

99.0% CPU use with 2 MPI tasks x 1 OpenMP threads

Minimization stats:
  Stopping criterion = force tolerance
  Energy initial, next-to-last, final = 
     -48992.7721533418  -48992.7764466261  -48992.7764465929
  Force two-norm initial, final = 2.7597282e-05 6.4636879e-05
  Force max component initial, final = 3.4893222e-07 8.8764004e-07
  Final line search alpha, max atom move = 0 0
  Iterations, force evaluations = 9329 9840

MPI task timing breakdown:
Section |  min time  |  avg time  |  max time  |%varavg| %total
---------------------------------------------------------------
Pair    | 211.82     | 214.6      | 217.38     |  19.0 | 79.19
Neigh   | 0          | 0          | 0          |   0.0 |  0.00
Comm    | 2.2743     | 5.0364     | 7.7986     | 123.1 |  1.86
Output  | 0.14257    | 0.15176    | 0.16095    |   2.4 |  0.06
Modify  | 35.361     | 35.37      | 35.379     |   0.2 | 13.05
Other   |            | 15.83      |            |       |  5.84

Nlocal:           5526 ave        5544 max        5508 min
Histogram: 1 0 0 0 0 0 0 0 0 1
Nghost:           8594 ave        8631 max        8557 min
Histogram: 1 0 0 0 0 0 0 0 0 1
Neighs:         234672 ave      235444 max      233900 min
Histogram: 1 0 0 0 0 0 0 0 0 1

Total # of neighbors = 469344
Ave neighs/atom = 42.466884
Neighbor list builds = 0
Dangerous builds = 0
write_data /data/home/yazhuo/Project/GBclaw/projects/proj-20260927-164bf2/artifacts/lammps/neb/neb-20260927-045814-1d9965/neb.replica.$i.final.lmp nocoeff
write_data /data/home/yazhuo/Project/GBclaw/projects/proj-20260927-164bf2/artifacts/lammps/neb/neb-20260927-045814-1d9965/neb.replica.11.final.lmp nocoeff
System init for write_data ...
Total wall time: 0:09:07
