LAMMPS (30 Mar 2026)
Processor partition = 6
OMP_NUM_THREADS environment is not set. Defaulting to 1 thread.
  using 1 OpenMP thread(s) per MPI task
clear
OMP_NUM_THREADS environment is not set. Defaulting to 1 thread.
  using 1 OpenMP thread(s) per MPI task
units metal
dimension 3
atom_style atomic
boundary p p p
atom_modify map array
read_data "/data/home/yazhuo/Project/GBclaw/projects/proj-20260927-164bf2/artifacts/lammps/neb/neb-20260927-045814-1d9965/inputs/initial.lmp"
Reading data file ...
  orthogonal box = (-19.37175 -124.2445 -7.4649) to (19.37175 124.2445 7.4649)
  1 by 2 by 1 MPI processor grid
  reading atoms ...
  11052 atoms
  read_data CPU = 0.045 seconds
neighbor 1.0 bin
neigh_modify delay 0 every 1 check yes
pair_style adp
pair_coeff * * "/data/home/yazhuo/Project/GBclaw/src/tools/potentials/NiCr.adp" Ni
group top_boundary empty
0 atoms in group top_boundary
group top_boundary id 5180 5151 5159 5109 5117 5067 5075 5025 5033 4992 5184 5160 5118 5076 5034 5181 5154 5156 5157 5112 5114 5115 5070 5072 5073 5028 5030 5031 4990 4991 5182 5155 5113 5071 5029 5175 5176 5141 5144 5146 5147 5099 5102 5104 5105 5057 5060 5062 5063 5015 5018 5020 5021 4985 4986 5177 5183 5145 5158 5103 5116 5061 5074 5019 5032 5168 5169 5129 5132 5134 5087 5090 5092 5045 5048 5050 5003 5006 5008 4980 5170 5178 5133 5148 5091 5106 5049 5064 5007 5022 11027 11048 10985 11019 10943 10977 10901 10935 10859 10893
100 atoms in group top_boundary
group top_boundary id 10818 10851 11052 11028 10986 10944 10902 10860 11024 11025 11049 10982 10983 11022 10940 10941 10980 10898 10899 10938 10856 10857 10896 10816 10817 10854 11050 11023 10981 10939 10897 10855 11014 11015 11043 11044 10972 10973 11009 11012 10930 10931 10967 10970 10888 10889 10925 10928 10846 10847 10883 10886 10811 10812 10841 10844 11045 11051 11013 11026 10971 10984 10929 10942 10887 10900 10845 10858 11002 11036 11037 10960 10997 11000 10918 10955 10958 10876 10913 10916 10834 10871 10874 10806 10829 10832 11038 11046 11001 11016 10959 10974 10917 10932 10875 10890 10833 10848
198 atoms in group top_boundary
group bottom_boundary empty
0 atoms in group bottom_boundary
group bottom_boundary id 174 125 83 123 84 32 34 10 177 139 175 140 85 87 46 12 47 160 111 124 68 69 126 67 21 33 35 6 7 164 176 128 129 178 127 73 86 88 37 38 9 11 36 152 161 105 110 58 59 109 112 57 70 15 19 20 22 2 3 156 163 114 115 162 165 113 130 63 71 72 74 24 25 5 8 23 39 151 153 104 56 103 106 55 60 13 14 16 1 155 108 154 157 107 116 61 62 64 18 4
100 atoms in group bottom_boundary
group bottom_boundary id 17 26 5345 5390 5303 5343 5304 5247 5249 5214 5190 5215 5391 5359 5360 5307 5263 5305 5264 5216 5218 5331 5344 5378 5288 5289 5346 5287 5235 5248 5250 5203 5204 5188 5189 5202 5392 5347 5348 5349 5293 5306 5252 5253 5308 5251 5208 5217 5219 5325 5330 5372 5379 5278 5279 5329 5332 5277 5290 5229 5233 5234 5236 5194 5195 5186 5187 5193 5205 5380 5381 5333 5334 5335 5350 5283 5292 5238 5239 5291 5294 5237 5254 5199 5206 5207 5209 5324 5371 5373 5276 5323 5326 5275 5280 5227 5228 5230 5192 5185
200 atoms in group bottom_boundary
group bottom_boundary id 5191 5196 5374 5375 5327 5328 5336 5282 5232 5281 5284 5231 5240 5197 5198 5200
216 atoms in group bottom_boundary
group fixed_xy union top_boundary bottom_boundary
414 atoms in group fixed_xy
variable __gb_neb_count_top_boundary equal count(top_boundary)
variable __gb_neb_count_top_boundary delete
variable __gb_neb_count_bottom_boundary equal count(bottom_boundary)
variable __gb_neb_count_bottom_boundary delete
min_style fire
timestep 0.01
fix neb_path all neb 1
fix hold_boundary_xy fixed_xy setforce 0.0 0.0 NULL
thermo 100
thermo_style custom step part pe fmax fnorm lx ly lz pxx pyy pzz pxy pxz pyz
thermo_modify flush yes
variable i equal part
dump neb_dump all custom 1000 /data/home/yazhuo/Project/GBclaw/projects/proj-20260927-164bf2/artifacts/lammps/neb/neb-20260927-045814-1d9965/neb.replica.$i.lammpstrj id type x y z ix iy iz fx fy fz
dump neb_dump all custom 1000 /data/home/yazhuo/Project/GBclaw/projects/proj-20260927-164bf2/artifacts/lammps/neb/neb-20260927-045814-1d9965/neb.replica.6.lammpstrj id type x y z ix iy iz fx fy fz
dump_modify neb_dump sort id
run 0
WARNING: No fixes with time integration, atoms won't move
For more information see https://docs.lammps.org/err0028 (src/verlet.cpp:60)
Neighbor list info ...
  update: every = 1 steps, delay = 0 steps, check = yes
  max neighbors/atom: 2000, page size: 100000
  master list distance cutoff = 6.168302
  ghost atom cutoff = 6.168302
  binsize = 3.084151, bins = 13 81 5
  1 neighbor lists, perpetual/occasional/extra = 1 0 0
  (1) pair adp, perpetual
      attributes: half, newton on
      pair build: half/bin/atomonly/newton
      stencil: half/bin/3d
      bin: standard
Per MPI rank memory allocation (min/avg/max) = 7.422 | 7.43 | 7.438 Mbytes
   Step        Part         PotEng          Fmax          Fnorm            Lx             Ly             Lz            Pxx            Pyy            Pzz            Pxy            Pxz            Pyz      
         0           6  -48992.796      0.0024845783   0.10363051     38.7435        248.489        14.9298        0.19007438     2.918104      -3.7172695      0.3830234      3.2510357e-05 -0.0010155383 
Loop time of 2.8405e-06 on 2 procs for 0 steps with 11052 atoms

70.4% CPU use with 2 MPI tasks x 1 OpenMP threads

MPI task timing breakdown:
Section |  min time  |  avg time  |  max time  |%varavg| %total
---------------------------------------------------------------
Pair    | 0          | 0          | 0          |   0.0 |  0.00
Neigh   | 0          | 0          | 0          |   0.0 |  0.00
Comm    | 0          | 0          | 0          |   0.0 |  0.00
Output  | 0          | 0          | 0          |   0.0 |  0.00
Modify  | 0          | 0          | 0          |   0.0 |  0.00
Other   |            | 2.841e-06  |            |       |100.00

Nlocal:           5526 ave        5544 max        5508 min
Histogram: 1 0 0 0 0 0 0 0 0 1
Nghost:           7959 ave        8011 max        7907 min
Histogram: 1 0 0 0 0 0 0 0 0 1
Neighs:         234603 ave      234962 max      234244 min
Histogram: 1 0 0 0 0 0 0 0 0 1

Total # of neighbors = 469206
Ave neighs/atom = 42.454397
Neighbor list builds = 0
Dangerous builds = 0
neb 0 0.0001 10000 10000 100 final "/data/home/yazhuo/Project/GBclaw/projects/proj-20260927-164bf2/artifacts/lammps/neb/neb-20260927-045814-1d9965/inputs/final.neb.coords" verbosity default
  Parameters for fire:
    dmax  delaystep dtgrow dtshrink alpha0 alphashrink tmax tmin   integrator   halfstepback   abcfire  
     0.1     20      1.1     0.5     0.25     0.99      10  0.02 eulerimplicit      yes          no     
Per MPI rank memory allocation (min/avg/max) = 9.901 | 9.909 | 9.917 Mbytes
   Step        Part         PotEng          Fmax          Fnorm            Lx             Ly             Lz            Pxx            Pyy            Pzz            Pxy            Pxz            Pyz      
         0           6  -48992.141      0.28406824     2.3241069      38.7435        248.489        14.9298        51.97077      -176.57411     -110.32277     -31.402087     -3.4670755      12.009668    
       100           6  -48992.766      0.00048308964  0.0096774557   38.7435        248.489        14.9298        46.048291     -193.49101     -73.879958      28.044321     -41.111629     -35.372019    
       200           6  -48992.766      0.0001623372   0.0093489893   38.7435        248.489        14.9298        46.03162      -189.69333     -74.439152      34.912706     -37.352938     -50.079496    
       300           6  -48992.766      9.5592135e-05  0.0084225976   38.7435        248.489        14.9298        46.18573      -188.22824     -74.982775      38.691945     -34.156972     -61.913537    
       400           6  -48992.766      0.00013477148  0.0071712855   38.7435        248.489        14.9298        46.343353     -187.3756      -75.422889      41.319402     -31.118181     -72.885165    
       500           6  -48992.766      0.0017228488   0.0093896371   38.7435        248.489        14.9298        46.426802     -186.62384     -75.705685      43.252568     -28.230927     -83.13512     
       600           6  -48992.766      6.4967477e-05  0.0049723905   38.7435        248.489        14.9298        46.414961     -185.99922     -75.793448      44.307932     -26.250899     -90.076649    
       700           6  -48992.766      5.8501298e-05  0.0042974953   38.7435        248.489        14.9298        46.354055     -185.3051      -75.803914      45.149168     -24.426488     -96.453807    
       800           6  -48992.766      0.00051249208  0.0043798673   38.7435        248.489        14.9298        46.248433     -184.42033     -75.766254      46.025971     -22.226225     -104.17929    
       900           6  -48992.766      5.7243109e-05  0.0038617058   38.7435        248.489        14.9298        46.21854      -183.98971     -75.788063      46.606257     -20.672861     -109.74051    
      1000           6  -48992.766      4.929223e-05   0.0032269115   38.7435        248.489        14.9298        46.192639     -183.59132     -75.812264      47.144476     -19.139409     -115.31475    
      1100           6  -48992.766      0.0002767176   0.0034581291   38.7435        248.489        14.9298        46.157615     -183.16026     -75.821         47.64337      -17.579435     -121.07358    
      1200           6  -48992.766      4.7587496e-05  0.0030004428   38.7435        248.489        14.9298        46.179097     -183.00706     -75.88373       48.019496     -16.42726      -125.44994    
      1300           6  -48992.766      4.3143188e-05  0.002634967    38.7435        248.489        14.9298        46.184783     -182.81571     -75.921086      48.325673     -15.406988     -129.3803     
      1400           6  -48992.766      3.8331405e-05  0.0022605273   38.7435        248.489        14.9298        46.166453     -182.5085      -75.928448      48.614703     -14.307717     -133.67614    
      1500           6  -48992.766      3.4255433e-05  0.0019606009   38.7435        248.489        14.9298        46.127973     -182.14071     -75.903145      48.826685     -13.344024     -137.50636    
      1600           6  -48992.766      3.1321953e-05  0.0017548639   38.7435        248.489        14.9298        46.086533     -181.80856     -75.866459      48.954792     -12.636839     -140.36368    
      1700           6  -48992.766      2.7984069e-05  0.0015321062   38.7435        248.489        14.9298        46.025413     -181.35993     -75.804005      49.067792     -11.833723     -143.66524    
      1800           6  -48992.766      2.5198774e-05  0.0013560927   38.7435        248.489        14.9298        45.962962     -180.92691     -75.73425       49.129426     -11.17825      -146.41286    
      1900           6  -48992.766      2.2819812e-05  0.0012136268   38.7435        248.489        14.9298        45.901303     -180.51455     -75.661824      49.155867     -10.636188     -148.7259     
      2000           6  -48992.766      2.1076922e-05  0.0010884952   38.7435        248.489        14.9298        45.836249     -180.09198     -75.582559      49.156035     -10.150505     -150.83502    
      2100           6  -48992.766      2.1125963e-05  0.00095761917  38.7435        248.489        14.9298        45.752222     -179.56152     -75.476511      49.124825     -9.624219      -153.16505    
      2200           6  -48992.766      2.1233117e-05  0.00087848396  38.7435        248.489        14.9298        45.688836     -179.17078     -75.394539      49.083625     -9.2855656     -154.69192    
      2300           6  -48992.766      2.1415094e-05  0.0007924921   38.7435        248.489        14.9298        45.602197     -178.6457      -75.28048       49.008956     -8.8817357     -156.5444     
      2400           6  -48992.766      2.0996182e-05  0.00071816711  38.7435        248.489        14.9298        45.505062     -178.0605      -75.150032      48.904391     -8.4832034     -158.4137     
      2500           6  -48992.766      1.9965361e-05  0.00067782626  38.7435        248.489        14.9298        45.443066     -177.6797      -75.065361      48.826093     -8.2412653     -159.57451    
      2600           6  -48992.766      1.8211614e-05  0.0006456061   38.7435        248.489        14.9298        45.387715     -177.32196     -74.988161      48.745806     -8.0152613     -160.68222    
      2700           6  -48992.766      1.4547412e-05  0.00062993135  38.7435        248.489        14.9298        45.331963     -176.90121     -74.906681      48.641568     -7.7266161     -162.14281    
      2800           6  -48992.766      1.3078682e-05  0.00065468589  38.7435        248.489        14.9298        45.312785     -176.67102     -74.873968      48.577343     -7.531525      -163.16944    
      2900           6  -48992.766      1.405531e-05   0.00072258844  38.7435        248.489        14.9298        45.318298     -176.49569     -74.870613      48.518864     -7.3110294     -164.37861    
      3000           6  -48992.766      1.4674383e-05  0.00079064894  38.7435        248.489        14.9298        45.359514     -176.42833     -74.911359      48.479267     -7.0865235     -165.67457    
      3100           6  -48992.766      1.471181e-05   0.00081390515  38.7435        248.489        14.9298        45.405555     -176.44248     -74.961595      48.463581     -6.9407179     -166.55594    
      3200           6  -48992.766      1.4430855e-05  0.000812059    38.7435        248.489        14.9298        45.459912     -176.49032     -75.022493      48.454598     -6.8081655     -167.38796    
      3300           6  -48992.766      1.371233e-05   0.00077973977  38.7435        248.489        14.9298        45.53752      -176.58035     -75.110472      48.447501     -6.6519809     -168.40979    
      3400           6  -48992.766      1.2935829e-05  0.00073669602  38.7435        248.489        14.9298        45.603793     -176.66475     -75.185781      48.442359     -6.5358012     -169.20306    
      3500           6  -48992.766      1.2027212e-05  0.00068227329  38.7435        248.489        14.9298        45.671623     -176.75178     -75.262779      48.435574     -6.4268825     -169.97568    
      3600           6  -48992.765      1.0960956e-05  0.00061584522  38.7435        248.489        14.9298        45.743592     -176.83995     -75.343962      48.424604     -6.3188939     -170.77407    
      3700           6  -48992.765      1.0156287e-05  0.00056479166  38.7435        248.489        14.9298        45.793701     -176.89592     -75.39999       48.413337     -6.2467725     -171.328      
      3800           6  -48992.765      9.3727869e-06  0.0005148505   38.7435        248.489        14.9298        45.839696     -176.94123     -75.450914      48.399317     -6.1819365     -171.84206    
      3900           6  -48992.765      8.1496315e-06  0.00043694689  38.7435        248.489        14.9298        45.905399     -176.9905      -75.522409      48.370401     -6.0899842     -172.60133    
      4000           6  -48992.765      7.364902e-06   0.00038744068  38.7435        248.489        14.9298        45.943092     -177.00563     -75.562433      48.346514     -6.0363329     -173.06365    
      4100           6  -48992.765      6.6458642e-06  0.00034301241  38.7435        248.489        14.9298        45.974737     -177.00598     -75.595067      48.319722     -5.9896141     -173.48       
      4200           6  -48992.765      5.8979605e-06  0.00029811991  38.7435        248.489        14.9298        46.003906     -176.99064     -75.623962      48.286574     -5.9437985     -173.90189    
      4300           6  -48992.765      5.1302782e-06  0.00025438208  38.7435        248.489        14.9298        46.029791     -176.95495     -75.647925      48.245283     -5.898705      -174.33208    
      4400           6  -48992.765      4.5847897e-06  0.00022540164  38.7435        248.489        14.9298        46.045193     -176.91468     -75.660735      48.210499     -5.867735      -174.63728    
      4500           6  -48992.765      3.9684629e-06  0.00019567649  38.7435        248.489        14.9298        46.059109     -176.85165     -75.670289      48.164786     -5.8336666     -174.983      
      4600           6  -48992.765      3.9794652e-06  0.00017693534  38.7435        248.489        14.9298        46.06641      -176.79215     -75.67329       48.126626     -5.8095889     -175.23438    
      4700           6  -48992.765      4.2310523e-06  0.00016140362  38.7435        248.489        14.9298        46.070836     -176.71949     -75.672322      48.083859     -5.7862581     -175.4842     
      4800           6  -48992.765      4.4442231e-06  0.00015009714  38.7435        248.489        14.9298        46.072143     -176.63808     -75.66747       48.039047     -5.7649426     -175.71802    
      4900           6  -48992.765      4.6348148e-06  0.00014166324  38.7435        248.489        14.9298        46.070049     -176.53427     -75.657395      47.985081     -5.7426169     -175.96908    
      5000           6  -48992.765      4.7462705e-06  0.00013759875  38.7435        248.489        14.9298        46.065707     -176.44239     -75.645898      47.939391     -5.7259976     -176.16036    
      5100           6  -48992.765      4.8255612e-06  0.00013517951  38.7435        248.489        14.9298        46.05871      -176.33748     -75.630655      47.888891     -5.7095412     -176.35362    
      5200           6  -48992.765      4.861773e-06   0.0001339008   38.7435        248.489        14.9298        46.049436     -176.22614     -75.61255       47.836772     -5.6943184     -176.53608    
      5300           6  -48992.765      4.858851e-06   0.00013315816  38.7435        248.489        14.9298        46.040501     -176.13267     -75.596148      47.793918     -5.6829193     -176.67519    
      5400           6  -48992.765      4.8231686e-06  0.00013224132  38.7435        248.489        14.9298        46.028958     -176.02287     -75.575781      47.744354     -5.6707716     -176.82585    
      5500           6  -48992.765      4.7463885e-06  0.00013076236  38.7435        248.489        14.9298        46.015127     -175.90158     -75.552141      47.690369     -5.6586441     -176.97909    
      5600           6  -48992.765      4.6636316e-06  0.00012915143  38.7435        248.489        14.9298        46.003814     -175.80799     -75.533216      47.649131     -5.6500605     -177.0895     
      5700           6  -48992.765      4.5543817e-06  0.00012688116  38.7435        248.489        14.9298        45.9912       -175.70777     -75.512413      47.605261     -5.6414895     -177.20157    
      5800           6  -48992.765      4.4057405e-06  0.00012354658  38.7435        248.489        14.9298        45.976413     -175.59441     -75.488318      47.555904     -5.6324693     -177.32182    
      5900           6  -48992.765      4.2595698e-06  0.00012005727  38.7435        248.489        14.9298        45.963477     -175.49799     -75.467423      47.514051     -5.6252952     -177.41953    
      6000           6  -48992.765      4.1045092e-06  0.00011618983  38.7435        248.489        14.9298        45.950843     -175.40569     -75.447139      47.474034     -5.6188144     -177.50976    
      6100           6  -48992.765      3.9268208e-06  0.00011157467  38.7435        248.489        14.9298        45.937475     -175.30957     -75.425769      47.43235      -5.6124426     -177.60081    
      6200           6  -48992.765      3.7671682e-06  0.00010728271  38.7435        248.489        14.9298        45.926259     -175.22984     -75.407886      47.397715     -5.6074358     -177.67443    
      6300           6  -48992.765      3.5562138e-06  0.00010144616  38.7435        248.489        14.9298        45.912316     -175.13153     -75.385686      47.354871     -5.6015876     -177.7633     
      6400           6  -48992.765      3.3619048e-06  9.5946967e-05  38.7435        248.489        14.9298        45.900308     -175.04731     -75.366569      47.317988     -5.5968706     -177.83806    
      6500           6  -48992.765      3.2029336e-06  9.1384283e-05  38.7435        248.489        14.9298        45.890982     -174.98202     -75.351707      47.289241     -5.5934042     -177.89535    
      6600           6  -48992.765      3.0196938e-06  8.6068122e-05  38.7435        248.489        14.9298        45.880734     -174.91026     -75.335352      47.257447     -5.5897912     -177.95785    
      6700           6  -48992.765      2.7974615e-06  7.9578129e-05  38.7435        248.489        14.9298        45.869018     -174.82794     -75.316592      47.220668     -5.5859259     -178.02914    
      6800           6  -48992.765      2.6336631e-06  7.4762356e-05  38.7435        248.489        14.9298        45.860853     -174.77023     -75.303465      47.194639     -5.5834207     -178.07902    
      6900           6  -48992.765      2.4743012e-06  7.0063095e-05  38.7435        248.489        14.9298        45.853246     -174.71609     -75.291183      47.170002     -5.5812389     -178.12586    
      7000           6  -48992.765      2.2940607e-06  6.4736424e-05  38.7435        248.489        14.9298        45.845057     -174.65724     -75.277887      47.142944     -5.5790784     -178.17693    
      7100           6  -48992.765      2.1482109e-06  6.0424658e-05  38.7435        248.489        14.9298        45.838751     -174.61141     -75.267583      47.121626     -5.5775706     -178.21693    
      7200           6  -48992.765      1.9693351e-06  5.5142063e-05  38.7435        248.489        14.9298        45.831396     -174.55721     -75.255475      47.096102     -5.5760114     -178.26461    
      7300           6  -48992.765      1.8197465e-06  5.0737473e-05  38.7435        248.489        14.9298        45.825571     -174.51353     -75.245798      47.075236     -5.5749693     -178.30343    
      7400           6  -48992.765      1.6897538e-06  4.6921954e-05  38.7435        248.489        14.9298        45.820755     -174.4768      -75.237723      47.057442     -5.5742651     -178.33645    
      7500           6  -48992.765      1.5607532e-06  4.315084e-05   38.7435        248.489        14.9298        45.816205     -174.44145     -75.230019      47.04008      -5.573759      -178.3686     
      7600           6  -48992.765      1.4070356e-06  3.8685041e-05  38.7435        248.489        14.9298        45.811094     -174.4008      -75.221257      47.019773     -5.573424      -178.40616    
      7700           6  -48992.765      1.3004221e-06  3.560937e-05   38.7435        248.489        14.9298        45.807754     -174.37353     -75.215451      47.005908     -5.5733809     -178.43179    
      7800           6  -48992.765      1.1958951e-06  3.2612096e-05  38.7435        248.489        14.9298        45.804643     -174.34752     -75.209972      46.992474     -5.5734974     -178.45663    
      7900           6  -48992.765      1.0851731e-06  2.9460698e-05  38.7435        248.489        14.9298        45.801536     -174.32082     -75.204415      46.978431     -5.5738088     -178.4826     
      8000           6  -48992.765      9.8943523e-07  2.6758412e-05  38.7435        248.489        14.9298        45.799012     -174.29845     -75.199823      46.96644      -5.5742484     -178.5048     
      8100           6  -48992.765      9.0348946e-07  2.4352716e-05  38.7435        248.489        14.9298        45.796878     -174.27894     -75.195872      46.95579      -5.5747904     -178.52455    
      8200           6  -48992.765      8.1530978e-07  2.1906445e-05  38.7435        248.489        14.9298        45.794825     -174.25953     -75.191994      46.944981     -5.5755064     -178.54463    
      8300           6  -48992.765      7.4314336e-07  1.9923136e-05  38.7435        248.489        14.9298        45.793252     -174.24413     -75.188959      46.936227     -5.5762261     -178.56095    
      8400           6  -48992.765      6.6937964e-07  1.7915179e-05  38.7435        248.489        14.9298        45.791745     -174.22885     -75.185988      46.927369     -5.5770968     -178.57752    
      8500           6  -48992.765      6.1438707e-07  1.6432242e-05  38.7435        248.489        14.9298        45.790691     -174.21779     -75.183864      46.920828     -5.5778447     -178.5898     
      8600           6  -48992.765      5.611375e-07   1.5008981e-05  38.7435        248.489        14.9298        45.789728     -174.20737     -75.181883      46.914551     -5.5786578     -178.60165    
      8700           6  -48992.765      4.9495751e-07  1.3259291e-05  38.7435        248.489        14.9298        45.788612     -174.19484     -75.179527      46.906835     -5.5798048     -178.6163     
      8800           6  -48992.765      4.3797715e-07  1.1771646e-05  38.7435        248.489        14.9298        45.787721     -174.18446     -75.177594      46.900276     -5.5809291     -178.62887    
      8900           6  -48992.765      4.0078657e-07  1.081117e-05   38.7435        248.489        14.9298        45.787174     -174.1779      -75.17638       46.896046     -5.58174       -178.63705    
      9000           6  -48992.765      3.5548984e-07  9.6538375e-06  38.7435        248.489        14.9298        45.786542     -174.17018     -75.174951      46.890959     -5.5828176     -178.64699    
      9100           6  -48992.765      3.1189556e-07  8.5545303e-06  38.7435        248.489        14.9298        45.785966     -174.16304     -75.173624      46.886144     -5.5839607     -178.65654    
      9200           6  -48992.765      2.8142401e-07  7.7958305e-06  38.7435        248.489        14.9298        45.785577     -174.15824     -75.172721      46.882836     -5.5848289     -178.66321    
      9300           6  -48992.765      2.5236072e-07  7.0805088e-06  38.7435        248.489        14.9298        45.785213     -174.15382     -75.171876      46.879735     -5.5857171     -178.66957    
      9400           6  -48992.765      2.1971495e-07  6.2878835e-06  38.7435        248.489        14.9298        45.784806     -174.14907     -75.17094       46.876332     -5.5867951     -178.67671    
      9453           6  -48992.765      2.0896048e-07  6.0295634e-06  38.7435        248.489        14.9298        45.78467      -174.14756     -75.170632      46.875233     -5.5871709     -178.67907    
Loop time of 275.698 on 2 procs for 9453 steps with 11052 atoms

98.6% CPU use with 2 MPI tasks x 1 OpenMP threads

Minimization stats:
  Stopping criterion = force tolerance
  Energy initial, next-to-last, final = 
     -48992.1405206251    -48992.76543696  -48992.7654369626
  Force two-norm initial, final = 2.3241069 6.0295634e-06
  Force max component initial, final = 0.28406824 2.0896048e-07
  Final line search alpha, max atom move = 0 0
  Iterations, force evaluations = 9453 9970

MPI task timing breakdown:
Section |  min time  |  avg time  |  max time  |%varavg| %total
---------------------------------------------------------------
Pair    | 232.61     | 233.72     | 234.83     |   7.3 | 84.77
Neigh   | 0          | 0          | 0          |   0.0 |  0.00
Comm    | 5.5316     | 6.5751     | 7.6186     |  40.7 |  2.38
Output  | 0.15108    | 0.15783    | 0.16458    |   1.7 |  0.06
Modify  | 24.321     | 24.344     | 24.367     |   0.5 |  8.83
Other   |            | 10.9       |            |       |  3.95

Nlocal:           5526 ave        5544 max        5508 min
Histogram: 1 0 0 0 0 0 0 0 0 1
Nghost:           8594 ave        8631 max        8557 min
Histogram: 1 0 0 0 0 0 0 0 0 1
Neighs:         234663 ave      235532 max      233794 min
Histogram: 1 0 0 0 0 0 0 0 0 1

Total # of neighbors = 469326
Ave neighs/atom = 42.465255
Neighbor list builds = 0
Dangerous builds = 0
  Parameters for fire:
    dmax  delaystep dtgrow dtshrink alpha0 alphashrink tmax tmin   integrator   halfstepback   abcfire  
     0.1     20      1.1     0.5     0.25     0.99      10  0.02 eulerimplicit      yes          no     
Per MPI rank memory allocation (min/avg/max) = 9.901 | 9.909 | 9.917 Mbytes
   Step        Part         PotEng          Fmax          Fnorm            Lx             Ly             Lz            Pxx            Pyy            Pzz            Pxy            Pxz            Pyz      
      9453           6  -48992.765      2.0896048e-07  6.0295634e-06  38.7435        248.489        14.9298        45.78467      -174.14756     -75.170632      46.875233     -5.5871709     -178.67907    
      9500           6  -48992.765      0.00023470273  0.012748186    38.7435        248.489        14.9298        46.228032     -175.78484     -75.742288      47.295879     -5.4537885     -179.63655    
      9600           6  -48992.764      0.00028020133  0.014604119    38.7435        248.489        14.9298        48.488131     -184.22988     -78.641236      49.328073     -4.9510331     -183.72204    
      9700           6  -48992.763      0.00025375685  0.013099096    38.7435        248.489        14.9298        50.192925     -190.58618     -80.766586      50.727036     -4.6874437     -186.1153     
      9800           6  -48992.763      0.0002020298   0.010465016    38.7435        248.489        14.9298        52.017005     -197.35262     -83.014761      52.147831     -4.4631844     -188.21823    
      9900           6  -48992.762      0.00013638887  0.0071280227   38.7435        248.489        14.9298        53.515419     -202.85636     -84.836474      53.326707     -4.2861376     -189.74314    
     10000           6  -48992.762      7.5719125e-05  0.0039762504   38.7435        248.489        14.9298        54.43026      -206.16363     -85.948596      54.136518     -4.1527409     -190.70483    
     10100           6  -48992.761      2.5906589e-05  0.0013467765   38.7435        248.489        14.9298        54.86397      -207.68202     -86.491329      54.656032     -4.0579614     -191.28335    
     10200           6  -48992.761      1.7195527e-05  0.00070013586  38.7435        248.489        14.9298        54.93227      -207.85316     -86.602281      54.945247     -4.0061675     -191.55621    
     10300           6  -48992.761      3.2843019e-05  0.001570045    38.7435        248.489        14.9298        54.801643     -207.3193      -86.468117      55.02252      -4.0001391     -191.56908    
     10400           6  -48992.762      3.8223515e-05  0.001910081    38.7435        248.489        14.9298        54.588261     -206.49152     -86.23135       55.009984     -4.0152764     -191.46508    
     10500           6  -48992.762      3.3675763e-05  0.0017033839   38.7435        248.489        14.9298        54.267579     -205.26973     -85.86602       54.920965     -4.0452048     -191.26066    
     10600           6  -48992.762      2.49878e-05    0.001232251    38.7435        248.489        14.9298        54.051273     -204.45187     -85.617075      54.846512     -4.054991      -191.1516     
     10700           6  -48992.762      1.6024404e-05  0.00073278254  38.7435        248.489        14.9298        53.903375     -203.89361     -85.447579      54.802699     -4.0414702     -191.14737    
     10800           6  -48992.762      7.703569e-06   0.00028079729  38.7435        248.489        14.9298        53.808758     -203.53508     -85.341453      54.79667      -3.9983771     -191.27086    
     10900           6  -48992.762      2.7710698e-06  0.00013874243  38.7435        248.489        14.9298        53.774832     -203.40352     -85.306871      54.825385     -3.9406681     -191.47377    
     11000           6  -48992.762      3.1570464e-06  0.00022251416  38.7435        248.489        14.9298        53.77057      -203.38165     -85.307881      54.87627      -3.8715454     -191.7352     
     11100           6  -48992.762      3.439274e-06   0.00024220758  38.7435        248.489        14.9298        53.779826     -203.4095      -85.324531      54.932143     -3.8057219     -191.99496    
     11200           6  -48992.762      2.7406154e-06  0.00017897465  38.7435        248.489        14.9298        53.792579     -203.44589     -85.346983      55.004815     -3.7239695     -192.32951    
     11300           6  -48992.762      2.0294143e-06  0.00012881524  38.7435        248.489        14.9298        53.793596     -203.44157     -85.352232      55.04116      -3.6817459     -192.50806    
     11400           6  -48992.762      3.0163644e-06  0.0001094299   38.7435        248.489        14.9298        53.78409      -203.39357     -85.345765      55.077686     -3.6347782     -192.71308    
     11500           6  -48992.762      3.9063361e-06  0.00013553208  38.7435        248.489        14.9298        53.768509     -203.32433     -85.330448      55.095958     -3.6058514     -192.8447     
     11600           6  -48992.762      4.485102e-06   0.00016370636  38.7435        248.489        14.9298        53.74774      -203.23457     -85.308464      55.106513     -3.5826647     -192.95513    
     11700           6  -48992.762      4.7691367e-06  0.00018255333  38.7435        248.489        14.9298        53.716259     -203.09916     -85.273872      55.111404     -3.5591093     -193.07503    
     11800           6  -48992.762      4.655214e-06   0.00018144281  38.7435        248.489        14.9298        53.685772     -202.96633     -85.239665      55.109965     -3.5419245     -193.17075    
     11900           6  -48992.762      4.4122133e-06  0.00017249027  38.7435        248.489        14.9298        53.663141     -202.86535     -85.213991      55.10646      -3.5308758     -193.23806    
     12000           6  -48992.762      4.040435e-06   0.00015769184  38.7435        248.489        14.9298        53.63764      -202.74768     -85.184834      55.100474     -3.5194323     -193.31484    
     12100           6  -48992.762      3.6817907e-06  0.00014370635  38.7435        248.489        14.9298        53.61514      -202.63859     -85.158881      55.093115     -3.5102322     -193.38543    
     12200           6  -48992.762      3.4529855e-06  0.00013552106  38.7435        248.489        14.9298        53.599594     -202.55928     -85.140778      55.086465     -3.5046969     -193.4354     
     12300           6  -48992.762      3.2602789e-06  0.0001298394   38.7435        248.489        14.9298        53.58343      -202.47266     -85.121746      55.077582     -3.5002459     -193.4864     
     12400           6  -48992.762      3.1507958e-06  0.00012800538  38.7435        248.489        14.9298        53.570432     -202.39967     -85.106231      55.068476     -3.4981763     -193.52428    
     12500           6  -48992.762      4.1953296e-06  0.00013536308  38.7435        248.489        14.9298        53.551212     -202.28679     -85.082874      55.051033     -3.4983607     -193.57025    
     12600           6  -48992.762      3.0418758e-06  0.00013127589  38.7435        248.489        14.9298        53.540535     -202.22191     -85.06966       55.039343     -3.5004383     -193.58876    
     12700           6  -48992.762      2.9849725e-06  0.00013363052  38.7435        248.489        14.9298        53.528137     -202.14488     -85.054106      55.023647     -3.5045007     -193.60342    
     12800           6  -48992.762      2.9400606e-06  0.00013577963  38.7435        248.489        14.9298        53.513645     -202.05252     -85.035631      55.002596     -3.511498      -193.61114    
     12900           6  -48992.762      2.8773566e-06  0.00013650057  38.7435        248.489        14.9298        53.503157     -201.98396     -85.02206       54.985483     -3.5179905     -193.61065    
     13000           6  -48992.762      2.8121659e-06  0.00013649181  38.7435        248.489        14.9298        53.493017     -201.91602     -85.008768      54.967357     -3.5253971     -193.60542    
     13100           6  -48992.762      2.7221942e-06  0.00013562974  38.7435        248.489        14.9298        53.481246     -201.83466     -84.993106      54.944119     -3.5354653     -193.59319    
     13200           6  -48992.762      2.6345804e-06  0.00013432296  38.7435        248.489        14.9298        53.471226     -201.76287     -84.979551      54.92226      -3.5453523     -193.57729    
     13300           6  -48992.762      2.5447986e-06  0.00013274687  38.7435        248.489        14.9298        53.461665     -201.69186     -84.966412      54.899434     -3.5559822     -193.55709    
     13400           6  -48992.762      2.4713808e-06  0.00013137914  38.7435        248.489        14.9298        53.45413      -201.63392     -84.955896      54.879916     -3.5652614     -193.5373     
     13500           6  -48992.762      2.3628633e-06  0.00012935364  38.7435        248.489        14.9298        53.443256     -201.54689     -84.940442      54.849119     -3.5801615     -193.50201    
     13600           6  -48992.762      2.3008951e-06  0.00012815832  38.7435        248.489        14.9298        53.436877     -201.49378     -84.93121       54.82946      -3.5897973     -193.47716    
     13700           6  -48992.762      2.2213763e-06  0.00012666081  38.7435        248.489        14.9298        53.42878      -201.42414     -84.919306      54.802748     -3.6029852     -193.44092    
     13800           6  -48992.762      2.1432791e-06  0.00012515746  38.7435        248.489        14.9298        53.420765     -201.35265     -84.907309      54.774267     -3.6171221     -193.39947    
     13900           6  -48992.762      2.0897423e-06  0.00012409282  38.7435        248.489        14.9298        53.415332     -201.30273     -84.899054      54.753763     -3.6273215     -193.36803    
     14000           6  -48992.762      2.0433035e-06  0.00012299671  38.7435        248.489        14.9298        53.410042     -201.25297     -84.890915      54.732853     -3.6377249     -193.33472    
     14100           6  -48992.762      1.9756129e-06  0.0001212502   38.7435        248.489        14.9298        53.402326     -201.1783      -84.878862      54.700611     -3.6537413     -193.28114    
     14200           6  -48992.762      1.9303858e-06  0.0001200372   38.7435        248.489        14.9298        53.397463     -201.12992     -84.871148      54.67918      -3.6643549     -193.24412    
     14300           6  -48992.762      1.8767028e-06  0.00011848035  38.7435        248.489        14.9298        53.391702     -201.07131     -84.861896      54.652687     -3.6774259     -193.19702    
     14400           6  -48992.762      1.8213014e-06  0.00011676798  38.7435        248.489        14.9298        53.385859     -201.0104      -84.852382      54.624567     -3.6912273     -193.14548    
     14500           6  -48992.762      1.7807429e-06  0.00011546868  38.7435        248.489        14.9298        53.381692     -200.96609     -84.845517      54.603747     -3.7013921     -193.10639    
     14600           6  -48992.762      1.7416463e-06  0.00011415724  38.7435        248.489        14.9298        53.37767      -200.92264     -84.838829      54.583057     -3.7114438     -193.0668     
     14700           6  -48992.762      1.6892843e-06  0.00011230948  38.7435        248.489        14.9298        53.372257     -200.86319     -84.829734      54.554314     -3.7253212     -193.01063    
     14800           6  -48992.762      1.6492345e-06  0.00011086391  38.7435        248.489        14.9298        53.368188     -200.81782     -84.822829      54.532063     -3.7359917     -192.96626    
     14900           6  -48992.762      1.6072528e-06  0.00010927482  38.7435        248.489        14.9298        53.363852     -200.76894     -84.815416      54.507816     -3.7475471     -192.91709    
     15000           6  -48992.762      1.5627673e-06  0.00010752231  38.7435        248.489        14.9298        53.35921      -200.7161      -84.807422      54.481306     -3.7600934     -192.86237    
     15100           6  -48992.762      1.5246581e-06  0.00010596392  38.7435        248.489        14.9298        53.355184     -200.66998     -84.800449      54.457932     -3.7710793     -192.81334    
     15200           6  -48992.762      1.4898645e-06  0.00010449089  38.7435        248.489        14.9298        53.351457     -200.62713     -84.793966      54.43604      -3.781305      -192.76677    
     15300           6  -48992.762      1.4506291e-06  0.00010276993  38.7435        248.489        14.9298        53.347183     -200.57793     -84.786509      54.41072      -3.7930559     -192.71215    
     15400           6  -48992.762      1.419045e-06   0.00010133718  38.7435        248.489        14.9298        53.343676     -200.53763     -84.78038       54.389845     -3.8026838     -192.66652    
     15500           6  -48992.762      1.3834961e-06  9.9671052e-05  38.7435        248.489        14.9298        53.339648     -200.4915      -84.773334      54.365824     -3.8136997     -192.61337    
     15600           6  -48992.762      1.3504258e-06  9.8068452e-05  38.7435        248.489        14.9298        53.335807     -200.4478      -84.766619      54.342958     -3.8241236     -192.56214    
     15700           6  -48992.762      1.3221825e-06  9.6658899e-05  38.7435        248.489        14.9298        53.332444     -200.40984     -84.760749      54.323032     -3.8331608     -192.517      
     15800           6  -48992.762      1.2924355e-06  9.5131779e-05  38.7435        248.489        14.9298        53.328809     -200.36921     -84.754418      54.301641     -3.8428172     -192.46802    
     15900           6  -48992.762      1.259461e-06   9.3389518e-05  38.7435        248.489        14.9298        53.324656     -200.3234      -84.747212      54.277467     -3.8536767     -192.41205    
     16000           6  -48992.762      1.2351656e-06  9.2069425e-05  38.7435        248.489        14.9298        53.321496     -200.28902     -84.741751      54.259304     -3.8618021     -192.36954    
     16100           6  -48992.762      1.2088198e-06  9.0601814e-05  38.7435        248.489        14.9298        53.317963     -200.25114     -84.735676      54.239277     -3.8707313     -192.32223    
     16200           6  -48992.762      1.1809757e-06  8.9008551e-05  38.7435        248.489        14.9298        53.314093     -200.21036     -84.729058      54.217717     -3.8803105     -192.27079    
     16300           6  -48992.762      1.1591396e-06  8.7729582e-05  38.7435        248.489        14.9298        53.310953     -200.17786     -84.723721      54.200544     -3.887919      -192.22943    
     16400           6  -48992.762      1.1334182e-06  8.6188638e-05  38.7435        248.489        14.9298        53.307126     -200.13898     -84.717258      54.180019     -3.8969908     -192.17954    
     16500           6  -48992.762      1.1088407e-06  8.4681129e-05  38.7435        248.489        14.9298        53.303325     -200.10119     -84.710886      54.160108     -3.9057716     -192.13067    
     16600           6  -48992.762      1.0887705e-06  8.3425431e-05  38.7435        248.489        14.9298        53.30011      -200.06988     -84.705535      54.143648     -3.9130193     -192.08991    
     16700           6  -48992.762      1.0671991e-06  8.2049747e-05  38.7435        248.489        14.9298        53.296534     -200.03576     -84.699626      54.125752     -3.9208899     -192.04522    
     16800           6  -48992.762      1.041644e-06   8.0385736e-05  38.7435        248.489        14.9298        53.292122     -199.9947      -84.692399      54.104287     -3.9303223     -191.9911     
     16900           6  -48992.762      1.0243148e-06  7.9236788e-05  38.7435        248.489        14.9298        53.289015     -199.96647     -84.68735       54.089583     -3.9367815     -191.95368    
     17000           6  -48992.762      1.0051733e-06  7.7947668e-05  38.7435        248.489        14.9298        53.285468     -199.93491     -84.681629      54.073204     -3.943977      -191.91168    
     17100           6  -48992.762      9.8487382e-07  7.6558349e-05  38.7435        248.489        14.9298        53.281566     -199.90101     -84.675386      54.055688     -3.9516757     -191.86636    
     17200           6  -48992.762      9.6546395e-07  7.5209307e-05  38.7435        248.489        14.9298        53.277694     -199.86819     -84.669242      54.038814     -3.9590988     -191.82232    
     17300           6  -48992.762      9.4820309e-07  7.3992172e-05  38.7435        248.489        14.9298        53.274126     -199.83867     -84.663627      54.023708     -3.9657521     -191.78256    
     17400           6  -48992.762      9.2991117e-07  7.2689302e-05  38.7435        248.489        14.9298        53.270224     -199.80713     -84.657533      54.007661     -3.9728322     -191.73996    
     17500           6  -48992.762      9.1461979e-07  7.1585588e-05  38.7435        248.489        14.9298        53.266846     -199.78047     -84.652299      53.994165     -3.9787991     -191.70383    
     17600           6  -48992.762      8.9604113e-07  7.0227474e-05  38.7435        248.489        14.9298        53.262601     -199.74771     -84.64577       53.977685     -3.986102      -191.65936    
     17700           6  -48992.762      8.7930467e-07  6.8989271e-05  38.7435        248.489        14.9298        53.258635     -199.7179      -84.639721      53.962782     -3.9927257     -191.61877    
     17800           6  -48992.762      8.658188e-07   6.7982751e-05  38.7435        248.489        14.9298        53.255342     -199.69368     -84.634734      53.950753     -3.9980876     -191.58574    
     17900           6  -48992.762      8.5046681e-07  6.6826578e-05  38.7435        248.489        14.9298        53.251483     -199.6659      -84.628927      53.937033     -4.004222      -191.54779    
     18000           6  -48992.762      8.3267356e-07  6.5476243e-05  38.7435        248.489        14.9298        53.246866     -199.63347     -84.622034      53.921139     -4.0113568     -191.50342    
     18100           6  -48992.762      8.2066663e-07  6.4558047e-05  38.7435        248.489        14.9298        53.243656     -199.61143     -84.617275      53.910415     -4.0161904     -191.47322    
     18200           6  -48992.762      8.087746e-07   6.3642264e-05  38.7435        248.489        14.9298        53.240396     -199.58945     -84.612468      53.899783     -4.0209989     -191.44308    
     18300           6  -48992.762      7.9255795e-07  6.2383908e-05  38.7435        248.489        14.9298        53.235818     -199.55925     -84.60576       53.88528      -4.027588      -191.40162    
     18400           6  -48992.762      7.8166166e-07  6.1535114e-05  38.7435        248.489        14.9298        53.232663     -199.53889     -84.601168      53.875574     -4.0320183     -191.37364    
     18500           6  -48992.762      7.6810623e-07  6.0472245e-05  38.7435        248.489        14.9298        53.228637     -199.51338     -84.595339      53.863501     -4.0375535     -191.33858    
     18600           6  -48992.762      7.5417138e-07  5.937373e-05   38.7435        248.489        14.9298        53.224383     -199.48701     -84.589219      53.851121     -4.0432601     -191.30231    
     18700           6  -48992.762      7.437972e-07   5.8552409e-05  38.7435        248.489        14.9298        53.221138     -199.46729     -84.584578      53.841931     -4.0475182     -191.27517    
     18782           6  -48992.762      7.3249507e-07  5.765475e-05   38.7435        248.489        14.9298        53.217531     -199.44573     -84.57944       53.831951     -4.0521636     -191.24549    
Loop time of 270.99 on 2 procs for 9329 steps with 11052 atoms

98.6% CPU use with 2 MPI tasks x 1 OpenMP threads

Minimization stats:
  Stopping criterion = force tolerance
  Energy initial, next-to-last, final = 
     -48992.7654369626  -48992.7623742461  -48992.7623743351
  Force two-norm initial, final = 6.0295634e-06 5.765475e-05
  Force max component initial, final = 2.0896048e-07 7.3249507e-07
  Final line search alpha, max atom move = 0 0
  Iterations, force evaluations = 9329 9840

MPI task timing breakdown:
Section |  min time  |  avg time  |  max time  |%varavg| %total
---------------------------------------------------------------
Pair    | 230.2      | 230.89     | 231.59     |   4.6 | 85.20
Neigh   | 0          | 0          | 0          |   0.0 |  0.00
Comm    | 5.5811     | 6.2137     | 6.8462     |  25.4 |  2.29
Output  | 0.14998    | 0.15875    | 0.16752    |   2.2 |  0.06
Modify  | 23.099     | 23.118     | 23.138     |   0.4 |  8.53
Other   |            | 10.61      |            |       |  3.91

Nlocal:           5526 ave        5544 max        5508 min
Histogram: 1 0 0 0 0 0 0 0 0 1
Nghost:           8589 ave        8626 max        8552 min
Histogram: 1 0 0 0 0 0 0 0 0 1
Neighs:         234630 ave      235428 max      233832 min
Histogram: 1 0 0 0 0 0 0 0 0 1

Total # of neighbors = 469260
Ave neighs/atom = 42.459283
Neighbor list builds = 0
Dangerous builds = 0
write_data /data/home/yazhuo/Project/GBclaw/projects/proj-20260927-164bf2/artifacts/lammps/neb/neb-20260927-045814-1d9965/neb.replica.$i.final.lmp nocoeff
write_data /data/home/yazhuo/Project/GBclaw/projects/proj-20260927-164bf2/artifacts/lammps/neb/neb-20260927-045814-1d9965/neb.replica.6.final.lmp nocoeff
System init for write_data ...
Total wall time: 0:09:07
