LAMMPS (30 Mar 2026)
Processor partition = 2
OMP_NUM_THREADS environment is not set. Defaulting to 1 thread.
  using 1 OpenMP thread(s) per MPI task
clear
OMP_NUM_THREADS environment is not set. Defaulting to 1 thread.
  using 1 OpenMP thread(s) per MPI task
units metal
dimension 3
atom_style atomic
boundary p p p
atom_modify map array
read_data "/data/home/yazhuo/Project/GBclaw/projects/proj-20260927-164bf2/artifacts/lammps/neb/neb-20260927-045814-1d9965/inputs/initial.lmp"
Reading data file ...
  orthogonal box = (-19.37175 -124.2445 -7.4649) to (19.37175 124.2445 7.4649)
  1 by 2 by 1 MPI processor grid
  reading atoms ...
  11052 atoms
  read_data CPU = 0.045 seconds
neighbor 1.0 bin
neigh_modify delay 0 every 1 check yes
pair_style adp
pair_coeff * * "/data/home/yazhuo/Project/GBclaw/src/tools/potentials/NiCr.adp" Ni
group top_boundary empty
0 atoms in group top_boundary
group top_boundary id 5180 5151 5159 5109 5117 5067 5075 5025 5033 4992 5184 5160 5118 5076 5034 5181 5154 5156 5157 5112 5114 5115 5070 5072 5073 5028 5030 5031 4990 4991 5182 5155 5113 5071 5029 5175 5176 5141 5144 5146 5147 5099 5102 5104 5105 5057 5060 5062 5063 5015 5018 5020 5021 4985 4986 5177 5183 5145 5158 5103 5116 5061 5074 5019 5032 5168 5169 5129 5132 5134 5087 5090 5092 5045 5048 5050 5003 5006 5008 4980 5170 5178 5133 5148 5091 5106 5049 5064 5007 5022 11027 11048 10985 11019 10943 10977 10901 10935 10859 10893
100 atoms in group top_boundary
group top_boundary id 10818 10851 11052 11028 10986 10944 10902 10860 11024 11025 11049 10982 10983 11022 10940 10941 10980 10898 10899 10938 10856 10857 10896 10816 10817 10854 11050 11023 10981 10939 10897 10855 11014 11015 11043 11044 10972 10973 11009 11012 10930 10931 10967 10970 10888 10889 10925 10928 10846 10847 10883 10886 10811 10812 10841 10844 11045 11051 11013 11026 10971 10984 10929 10942 10887 10900 10845 10858 11002 11036 11037 10960 10997 11000 10918 10955 10958 10876 10913 10916 10834 10871 10874 10806 10829 10832 11038 11046 11001 11016 10959 10974 10917 10932 10875 10890 10833 10848
198 atoms in group top_boundary
group bottom_boundary empty
0 atoms in group bottom_boundary
group bottom_boundary id 174 125 83 123 84 32 34 10 177 139 175 140 85 87 46 12 47 160 111 124 68 69 126 67 21 33 35 6 7 164 176 128 129 178 127 73 86 88 37 38 9 11 36 152 161 105 110 58 59 109 112 57 70 15 19 20 22 2 3 156 163 114 115 162 165 113 130 63 71 72 74 24 25 5 8 23 39 151 153 104 56 103 106 55 60 13 14 16 1 155 108 154 157 107 116 61 62 64 18 4
100 atoms in group bottom_boundary
group bottom_boundary id 17 26 5345 5390 5303 5343 5304 5247 5249 5214 5190 5215 5391 5359 5360 5307 5263 5305 5264 5216 5218 5331 5344 5378 5288 5289 5346 5287 5235 5248 5250 5203 5204 5188 5189 5202 5392 5347 5348 5349 5293 5306 5252 5253 5308 5251 5208 5217 5219 5325 5330 5372 5379 5278 5279 5329 5332 5277 5290 5229 5233 5234 5236 5194 5195 5186 5187 5193 5205 5380 5381 5333 5334 5335 5350 5283 5292 5238 5239 5291 5294 5237 5254 5199 5206 5207 5209 5324 5371 5373 5276 5323 5326 5275 5280 5227 5228 5230 5192 5185
200 atoms in group bottom_boundary
group bottom_boundary id 5191 5196 5374 5375 5327 5328 5336 5282 5232 5281 5284 5231 5240 5197 5198 5200
216 atoms in group bottom_boundary
group fixed_xy union top_boundary bottom_boundary
414 atoms in group fixed_xy
variable __gb_neb_count_top_boundary equal count(top_boundary)
variable __gb_neb_count_top_boundary delete
variable __gb_neb_count_bottom_boundary equal count(bottom_boundary)
variable __gb_neb_count_bottom_boundary delete
min_style fire
timestep 0.01
fix neb_path all neb 1
fix hold_boundary_xy fixed_xy setforce 0.0 0.0 NULL
thermo 100
thermo_style custom step part pe fmax fnorm lx ly lz pxx pyy pzz pxy pxz pyz
thermo_modify flush yes
variable i equal part
dump neb_dump all custom 1000 /data/home/yazhuo/Project/GBclaw/projects/proj-20260927-164bf2/artifacts/lammps/neb/neb-20260927-045814-1d9965/neb.replica.$i.lammpstrj id type x y z ix iy iz fx fy fz
dump neb_dump all custom 1000 /data/home/yazhuo/Project/GBclaw/projects/proj-20260927-164bf2/artifacts/lammps/neb/neb-20260927-045814-1d9965/neb.replica.2.lammpstrj id type x y z ix iy iz fx fy fz
dump_modify neb_dump sort id
run 0
WARNING: No fixes with time integration, atoms won't move
For more information see https://docs.lammps.org/err0028 (src/verlet.cpp:60)
Neighbor list info ...
  update: every = 1 steps, delay = 0 steps, check = yes
  max neighbors/atom: 2000, page size: 100000
  master list distance cutoff = 6.168302
  ghost atom cutoff = 6.168302
  binsize = 3.084151, bins = 13 81 5
  1 neighbor lists, perpetual/occasional/extra = 1 0 0
  (1) pair adp, perpetual
      attributes: half, newton on
      pair build: half/bin/atomonly/newton
      stencil: half/bin/3d
      bin: standard
Per MPI rank memory allocation (min/avg/max) = 7.422 | 7.43 | 7.438 Mbytes
   Step        Part         PotEng          Fmax          Fnorm            Lx             Ly             Lz            Pxx            Pyy            Pzz            Pxy            Pxz            Pyz      
         0           2  -48992.796      0.0024845783   0.10363051     38.7435        248.489        14.9298        0.19007438     2.918104      -3.7172695      0.3830234      3.2510357e-05 -0.0010155383 
Loop time of 3.4655e-06 on 2 procs for 0 steps with 11052 atoms

86.6% CPU use with 2 MPI tasks x 1 OpenMP threads

MPI task timing breakdown:
Section |  min time  |  avg time  |  max time  |%varavg| %total
---------------------------------------------------------------
Pair    | 0          | 0          | 0          |   0.0 |  0.00
Neigh   | 0          | 0          | 0          |   0.0 |  0.00
Comm    | 0          | 0          | 0          |   0.0 |  0.00
Output  | 0          | 0          | 0          |   0.0 |  0.00
Modify  | 0          | 0          | 0          |   0.0 |  0.00
Other   |            | 3.465e-06  |            |       |100.00

Nlocal:           5526 ave        5544 max        5508 min
Histogram: 1 0 0 0 0 0 0 0 0 1
Nghost:           7959 ave        8011 max        7907 min
Histogram: 1 0 0 0 0 0 0 0 0 1
Neighs:         234603 ave      234962 max      234244 min
Histogram: 1 0 0 0 0 0 0 0 0 1

Total # of neighbors = 469206
Ave neighs/atom = 42.454397
Neighbor list builds = 0
Dangerous builds = 0
neb 0 0.0001 10000 10000 100 final "/data/home/yazhuo/Project/GBclaw/projects/proj-20260927-164bf2/artifacts/lammps/neb/neb-20260927-045814-1d9965/inputs/final.neb.coords" verbosity default
  Parameters for fire:
    dmax  delaystep dtgrow dtshrink alpha0 alphashrink tmax tmin   integrator   halfstepback   abcfire  
     0.1     20      1.1     0.5     0.25     0.99      10  0.02 eulerimplicit      yes          no     
Per MPI rank memory allocation (min/avg/max) = 9.896 | 9.904 | 9.913 Mbytes
   Step        Part         PotEng          Fmax          Fnorm            Lx             Ly             Lz            Pxx            Pyy            Pzz            Pxy            Pxz            Pyz      
         0           2  -48992.664      0.13208573     1.1640199      38.7435        248.489        14.9298        13.682929     -50.99543      -41.378317     -10.114996     -0.61984719    -13.013976    
       100           2  -48992.791      0.0002694243   0.0052272916   38.7435        248.489        14.9298        2.7574255     -17.422062     -10.240414      0.40077437    -3.595611      -42.731912    
       200           2  -48992.791      0.0001703793   0.004640828    38.7435        248.489        14.9298        2.5528833     -14.675365     -9.5846539      0.97883194     0.57879295    -53.880572    
       300           2  -48992.791      0.00012322978  0.004076002    38.7435        248.489        14.9298        2.4043252     -13.003093     -9.1602569      1.265658       3.9159714     -63.152569    
       400           2  -48992.792      0.0006929219   0.0042790002   38.7435        248.489        14.9298        2.2837747     -11.752438     -8.8312561      1.4569914      6.926148      -71.721625    
       500           2  -48992.792      0.0021069417   0.0098851527   38.7435        248.489        14.9298        2.1795523     -10.767856     -8.5618729      1.6023544      9.661513      -79.631722    
       600           2  -48992.792      0.00011236646  0.0026141757   38.7435        248.489        14.9298        2.1049466     -10.165807     -8.3772371      1.6577456      11.472643     -84.925323    
       700           2  -48992.792      7.4264529e-05  0.0023181619   38.7435        248.489        14.9298        2.038661      -9.6529527     -8.2211972      1.7130931      13.102511     -89.737325    
       800           2  -48992.792      0.00071329346  0.0035323163   38.7435        248.489        14.9298        1.9605415     -9.0834249     -8.0437558      1.7735189      15.012233     -95.467713    
       900           2  -48992.792      5.7525679e-05  0.0019524166   38.7435        248.489        14.9298        1.9099625     -8.7309565     -7.9300244      1.8101097      16.314918     -99.495067    
      1000           2  -48992.792      5.0115571e-05  0.0017441396   38.7435        248.489        14.9298        1.8639501     -8.4136351     -7.828269       1.847602       17.577143     -103.50222    
      1100           2  -48992.792      0.00023662771  0.0018283702   38.7435        248.489        14.9298        1.8167935     -8.0967502     -7.7248826      1.8812115      18.835326     -107.57537    
      1200           2  -48992.792      5.6813676e-05  0.0015153994   38.7435        248.489        14.9298        1.7872046     -7.8921851     -7.6591691      1.9077045      19.743296     -110.62944    
      1300           2  -48992.792      3.0214322e-05  0.0013697229   38.7435        248.489        14.9298        1.7610253     -7.7106319     -7.6007908      1.9286266      20.541079     -113.36595    
      1400           2  -48992.792      4.2682345e-05  0.0012233911   38.7435        248.489        14.9298        1.7320866     -7.5083309     -7.5356667      1.9473131      21.392154     -116.34207    
      1500           2  -48992.792      0.00075724639  0.0031290329   38.7435        248.489        14.9298        1.7063269     -7.3241761     -7.4763777      1.9598467      22.128095     -118.97597    
      1600           2  -48992.792      4.5521013e-05  0.0010109352   38.7435        248.489        14.9298        1.6874243     -7.1847487     -7.4320714      1.9664528      22.660644     -120.92567    
      1700           2  -48992.792      0.00016002233  0.0010689058   38.7435        248.489        14.9298        1.6662168     -7.0214652     -7.380754       1.9707996      23.25584      -123.15924    
      1800           2  -48992.792      5.9415123e-05  0.00084218116  38.7435        248.489        14.9298        1.6492839     -6.883481      -7.3380869      1.9712989      23.732368     -124.99964    
      1900           2  -48992.792      0.00065048317  0.0026486849   38.7435        248.489        14.9298        1.635644      -6.7654505     -7.3023102      1.9692301      24.119024     -126.53431    
      2000           2  -48992.792      3.5882811e-05  0.00070173844  38.7435        248.489        14.9298        1.6237716     -6.6557829     -7.2697988      1.9649694      24.458441     -127.92001    
      2100           2  -48992.792      0.0013946211   0.0055927657   38.7435        248.489        14.9298        1.6113821     -6.5314845     -7.2336995      1.957125       24.817026     -129.43316    
      2200           2  -48992.792      2.0565063e-05  0.00058925822  38.7435        248.489        14.9298        1.6036918     -6.4478446     -7.2100179      1.9499073      25.041554     -130.41281    
      2300           2  -48992.792      8.4258961e-05  0.00061210725  38.7435        248.489        14.9298        1.5949611     -6.3436738     -7.181198       1.9386606      25.301501     -131.58621    
      2400           2  -48992.792      0.0064529538   0.026465494    38.7435        248.489        14.9298        1.5873176     -6.2356997     -7.1520465      1.9242469      25.547623     -132.74938    
      2500           2  -48992.792      4.9271006e-05  0.00048713506  38.7435        248.489        14.9298        1.5828996     -6.1686751     -7.1350646      1.9137256      25.690736     -133.45844    
      2600           2  -48992.792      2.9409664e-05  0.0004406803   38.7435        248.489        14.9298        1.5797707     -6.1058112     -7.119612       1.9027596      25.819475     -134.12419    
      2700           2  -48992.792      0.00088346105  0.0036053525   38.7435        248.489        14.9298        1.5776027     -6.0285254     -7.1022395      1.8874476      25.976241     -134.9848     
      2800           2  -48992.792      2.2423303e-05  0.00039014469  38.7435        248.489        14.9298        1.577876      -5.9806101     -7.093071       1.8765254      26.07749      -135.57955    
      2900           2  -48992.792      0.00010604523  0.00055699398  38.7435        248.489        14.9298        1.580446      -5.9329233     -7.0862373      1.863888       26.188188     -136.27296    
      3000           2  -48992.792      0.0031005555   0.012829649    38.7435        248.489        14.9298        1.5861022     -5.8926361     -7.0838219      1.8506103      26.298197     -137.01446    
      3100           2  -48992.792      0.000307421    0.0013077733   38.7435        248.489        14.9298        1.5914213     -5.8705583     -7.0848287      1.8414274      26.368802     -137.52076    
      3200           2  -48992.792      1.7246049e-05  0.00036660627  38.7435        248.489        14.9298        1.5975534     -5.8525919     -7.0874229      1.8323388      26.432614     -138.00146    
      3300           2  -48992.792      0.00024391414  0.0010591489   38.7435        248.489        14.9298        1.6063844     -5.8328355     -7.0922731      1.8202026      26.507313     -138.59598    
      3400           2  -48992.792      2.948043e-05   0.00034392672  38.7435        248.489        14.9298        1.6141865     -5.8183976     -7.0971194      1.8097031      26.56234      -139.06064    
      3500           2  -48992.792      2.5480447e-05  0.00031877698  38.7435        248.489        14.9298        1.6225645     -5.8044192     -7.102613       1.7983103      26.613237     -139.51551    
      3600           2  -48992.792      0.00039586573  0.0016704029   38.7435        248.489        14.9298        1.6320772     -5.7894872     -7.108998       1.7850061      26.662616     -139.98753    
      3700           2  -48992.792      9.5452928e-06  0.0002626906   38.7435        248.489        14.9298        1.6392192     -5.7785025     -7.1138187      1.7746637      26.694673     -140.3158     
      3800           2  -48992.792      5.2424619e-06  0.00024300911  38.7435        248.489        14.9298        1.6462766     -5.7676322     -7.1185623      1.7641101      26.722585     -140.62063    
      3900           2  -48992.792      0.0056451253   0.02472954     38.7435        248.489        14.9298        1.6577652     -5.7497413     -7.1258018      1.7465373      26.760048     -141.07039    
      4000           2  -48992.792      0.0013540654   0.0060767672   38.7435        248.489        14.9298        1.6650083     -5.7377808     -7.1306766      1.7344189      26.780234     -141.34327    
      4100           2  -48992.792      9.9260422e-06  0.00018396034  38.7435        248.489        14.9298        1.6720664     -5.7259857     -7.1354054      1.7223532      26.796356     -141.5878     
      4200           2  -48992.792      3.9829739e-05  0.00023679204  38.7435        248.489        14.9298        1.6797178     -5.7126568     -7.1401809      1.708922       26.810449     -141.83378    
      4300           2  -48992.792      0.00036880572  0.001683378    38.7435        248.489        14.9298        1.6880598     -5.6975253     -7.1452563      1.6937409      26.822094     -142.08188    
      4400           2  -48992.792      1.3765872e-05  0.00014676153  38.7435        248.489        14.9298        1.6943656     -5.6856838     -7.149007       1.6819027      26.828397     -142.25564    
      4500           2  -48992.792      0.00048533934  0.0022009219   38.7435        248.489        14.9298        1.7019511     -5.6709965     -7.1534189      1.667284       26.833317     -142.44955    
      4600           2  -48992.792      0.00031101258  0.0014332608   38.7435        248.489        14.9298        1.7078103     -5.6593568     -7.1567739      1.6557214      26.835178     -142.58808    
      4700           2  -48992.792      1.3248807e-05  0.00012024257  38.7435        248.489        14.9298        1.7139758     -5.6468474     -7.1602475      1.6433156      26.835354     -142.72315    
      4800           2  -48992.792      2.0095805e-05  0.00013169063  38.7435        248.489        14.9298        1.7200919     -5.6342222     -7.1636489      1.6308036      26.833867     -142.84682    
      4900           2  -48992.792      0.00017845489  0.00082847354  38.7435        248.489        14.9298        1.7270942     -5.619571      -7.167504       1.6162626      26.83025      -142.97602    
      5000           2  -48992.792      8.4849676e-06  9.4850805e-05  38.7435        248.489        14.9298        1.7327854     -5.6075752     -7.1706217      1.6043095      26.825905     -143.07149    
      5100           2  -48992.792      1.25202e-05    9.8035928e-05  38.7435        248.489        14.9298        1.738892      -5.5946821     -7.1739663      1.5913897      26.819994     -143.16496    
      5200           2  -48992.792      9.0387998e-05  0.00041555826  38.7435        248.489        14.9298        1.7450458     -5.5817412     -7.177351       1.5783102      26.81284      -143.25       
      5300           2  -48992.792      6.1908522e-06  8.0182973e-05  38.7435        248.489        14.9298        1.7500298     -5.571352      -7.1801142      1.5677016      26.806264     -143.31247    
      5400           2  -48992.792      2.0195499e-05  0.0001132508   38.7435        248.489        14.9298        1.7557472     -5.5595891     -7.1833206      1.5555468      26.797992     -143.37763    
      5500           2  -48992.792      4.9831187e-05  0.00023019554  38.7435        248.489        14.9298        1.7619579     -5.5470689     -7.1868618      1.5423976      26.788247     -143.44093    
      5600           2  -48992.792      2.4227278e-06  6.7902355e-05  38.7435        248.489        14.9298        1.7667192     -5.5376993     -7.1896271      1.5323806      26.780334     -143.48451    
      5700           2  -48992.792      9.6769335e-06  7.4809038e-05  38.7435        248.489        14.9298        1.7718244     -5.527903      -7.192648       1.5217193      26.771517     -143.52693    
      5800           2  -48992.792      4.7606602e-05  0.00022039025  38.7435        248.489        14.9298        1.777648      -5.5170871     -7.1961725      1.5096814      26.761139     -143.5703     
      5900           2  -48992.792      2.323281e-06   5.9110505e-05  38.7435        248.489        14.9298        1.7826799     -5.5080828     -7.1992925      1.4994043      26.751982     -143.60382    
      6000           2  -48992.792      3.4501007e-06  5.7064193e-05  38.7435        248.489        14.9298        1.7875944     -5.4996123     -7.2024102      1.4894902      26.742939     -143.63339    
      6100           2  -48992.792      1.9775152e-05  9.8470864e-05  38.7435        248.489        14.9298        1.7928468     -5.490931      -7.2058228      1.4790396      26.73323      -143.66185    
      6200           2  -48992.792      4.0244942e-06  5.2513837e-05  38.7435        248.489        14.9298        1.7973355     -5.4838279     -7.2088073      1.470235       26.724948     -143.68386    
      6300           2  -48992.792      2.2596878e-05  0.00010425453  38.7435        248.489        14.9298        1.8030701     -5.4751765     -7.2127117      1.459159       26.714444     -143.70928    
      6400           2  -48992.792      3.1796514e-05  0.00014016706  38.7435        248.489        14.9298        1.8082033     -5.4678539     -7.2162975      1.4494187      26.705169     -143.7297     
      6500           2  -48992.792      1.9361462e-06  4.3111586e-05  38.7435        248.489        14.9298        1.8123514     -5.4622266     -7.2192572      1.4416692      26.697793     -143.74478    
      6600           2  -48992.792      6.2864469e-06  4.6675332e-05  38.7435        248.489        14.9298        1.8171084     -5.4560836     -7.222718       1.4329134      26.689487     -143.76072    
      6700           2  -48992.792      2.550497e-05   0.00010559989  38.7435        248.489        14.9298        1.82287       -5.4490838     -7.2270043      1.4224962      26.679679     -143.77831    
      6800           2  -48992.792      4.9087953e-06  3.9114207e-05  38.7435        248.489        14.9298        1.8271487     -5.4442017     -7.2302546      1.4148958      26.672601     -143.7903     
      6900           2  -48992.792      5.3787179e-06  3.8283837e-05  38.7435        248.489        14.9298        1.8313713     -5.4396342     -7.2335161      1.4075032      26.665796     -143.80135    
      7000           2  -48992.792      4.5609727e-05  0.00018276037  38.7435        248.489        14.9298        1.8362326     -5.4346785     -7.2373356      1.3991238      26.658197     -143.81325    
      7100           2  -48992.792      1.7738739e-06  2.9803227e-05  38.7435        248.489        14.9298        1.8402537     -5.4308202     -7.2405462      1.3922975      26.652111     -143.82249    
      7200           2  -48992.792      4.5571377e-06  3.2685432e-05  38.7435        248.489        14.9298        1.8453186     -5.4262524     -7.2446528      1.383827       26.644705     -143.83348    
      7300           2  -48992.792      1.5945414e-05  7.3423942e-05  38.7435        248.489        14.9298        1.8497024     -5.422562      -7.248263       1.376611       26.638542     -143.84246    
      7400           2  -48992.792      1.471406e-06   2.4441317e-05  38.7435        248.489        14.9298        1.8536395     -5.4194454     -7.2515474      1.3702174      26.633204     -143.85017    
      7500           2  -48992.792      3.5842411e-06  2.6532685e-05  38.7435        248.489        14.9298        1.8576822     -5.4164308     -7.2549595      1.363734       26.627914     -143.85778    
      7600           2  -48992.792      2.0894415e-05  8.9618575e-05  38.7435        248.489        14.9298        1.8627055     -5.4129371     -7.2592529      1.3557894      26.621616     -143.86686    
      7700           2  -48992.792      2.3135184e-06  2.1274094e-05  38.7435        248.489        14.9298        1.8663553     -5.4105711     -7.262409       1.3500933      26.617234     -143.87323    
      7800           2  -48992.792      3.5339785e-06  2.2876996e-05  38.7435        248.489        14.9298        1.8700856     -5.4082922     -7.2656644      1.3443334      26.61292      -143.87957    
      7900           2  -48992.792      1.5323952e-05  6.5859285e-05  38.7435        248.489        14.9298        1.8742262     -5.4059228     -7.2693118      1.338011       26.608327     -143.88641    
      8000           2  -48992.792      5.0076953e-07  1.6216473e-05  38.7435        248.489        14.9298        1.8779915     -5.4039083     -7.2726584      1.3323239      26.604327     -143.89249    
      8100           2  -48992.792      2.518197e-06   1.7895244e-05  38.7435        248.489        14.9298        1.881545      -5.4021236     -7.2758415      1.3270086      26.600704     -143.89811    
      8200           2  -48992.792      2.3193098e-05  9.6269663e-05  38.7435        248.489        14.9298        1.8853906     -5.4003145     -7.2793123      1.3213106      26.596948     -143.90408    
      8300           2  -48992.792      1.0499873e-06  1.3976003e-05  38.7435        248.489        14.9298        1.888716      -5.3988485     -7.2823346      1.3164272      26.593837     -143.90914    
      8400           2  -48992.792      1.5937157e-06  1.3967177e-05  38.7435        248.489        14.9298        1.8923073     -5.3973615     -7.2856188      1.3111963      26.590615     -143.91453    
      8500           2  -48992.792      5.1313436e-07  1.2265714e-05  38.7435        248.489        14.9298        1.8951333     -5.3962591     -7.2882177      1.3071101      26.58818      -143.91871    
      8600           2  -48992.792      2.728201e-07   1.1639593e-05  38.7435        248.489        14.9298        1.898012      -5.3951952     -7.2908775      1.3029741      26.585788     -143.92292    
      8700           2  -48992.792      1.2202396e-05  5.0532057e-05  38.7435        248.489        14.9298        1.9018215     -5.3938752     -7.2944161      1.2975398      26.58276      -143.92841    
      8800           2  -48992.792      0.00014419349  0.00058888767  38.7435        248.489        14.9298        1.9053506     -5.3927376     -7.2977121      1.2925438      26.580092     -143.93341    
      8900           2  -48992.792      8.116355e-07   1.0278967e-05  38.7435        248.489        14.9298        1.907804      -5.3919929     -7.3000138      1.2890907      26.578312     -143.93685    
      9000           2  -48992.792      7.5658587e-06  3.1721755e-05  38.7435        248.489        14.9298        1.9109792     -5.3910813     -7.3030034      1.2846453      26.576099     -143.94124    
      9100           2  -48992.792      0.00010396302  0.00042355689  38.7435        248.489        14.9298        1.9142702     -5.3901964     -7.3061147      1.2800646      26.573909     -143.94573    
      9200           2  -48992.792      3.3069939e-06  1.5484329e-05  38.7435        248.489        14.9298        1.9167348     -5.3895716     -7.308453       1.2766508      26.572337     -143.94905    
      9300           2  -48992.792      2.9713451e-06  1.4180101e-05  38.7435        248.489        14.9298        1.9192383     -5.3889687     -7.3108349      1.2731973      26.570798     -143.95238    
      9400           2  -48992.792      1.2387666e-05  5.0129225e-05  38.7435        248.489        14.9298        1.9222685     -5.3882805     -7.3137268      1.2690358      26.569014     -143.95635    
      9453           2  -48992.792      8.1173423e-07  8.2179108e-06  38.7435        248.489        14.9298        1.9233265     -5.3880504     -7.3147387      1.2675874      26.568411     -143.95772    
Loop time of 275.698 on 2 procs for 9453 steps with 11052 atoms

98.5% CPU use with 2 MPI tasks x 1 OpenMP threads

Minimization stats:
  Stopping criterion = force tolerance
  Energy initial, next-to-last, final = 
     -48992.6638744195  -48992.7916851853  -48992.7916851871
  Force two-norm initial, final = 1.1640199 8.2179108e-06
  Force max component initial, final = 0.13208573 8.1173423e-07
  Final line search alpha, max atom move = 0 0
  Iterations, force evaluations = 9453 9970

MPI task timing breakdown:
Section |  min time  |  avg time  |  max time  |%varavg| %total
---------------------------------------------------------------
Pair    | 229.24     | 230.51     | 231.78     |   8.4 | 83.61
Neigh   | 0          | 0          | 0          |   0.0 |  0.00
Comm    | 4.9496     | 6.2259     | 7.5023     |  51.2 |  2.26
Output  | 0.1512     | 0.15728    | 0.16337    |   1.5 |  0.06
Modify  | 24.351     | 24.361     | 24.371     |   0.2 |  8.84
Other   |            | 14.45      |            |       |  5.24

Nlocal:           5526 ave        5544 max        5508 min
Histogram: 1 0 0 0 0 0 0 0 0 1
Nghost:           7964 ave        8016 max        7912 min
Histogram: 1 0 0 0 0 0 0 0 0 1
Neighs:         234615 ave      235526 max      233704 min
Histogram: 1 0 0 0 0 0 0 0 0 1

Total # of neighbors = 469230
Ave neighs/atom = 42.456569
Neighbor list builds = 0
Dangerous builds = 0
  Parameters for fire:
    dmax  delaystep dtgrow dtshrink alpha0 alphashrink tmax tmin   integrator   halfstepback   abcfire  
     0.1     20      1.1     0.5     0.25     0.99      10  0.02 eulerimplicit      yes          no     
Per MPI rank memory allocation (min/avg/max) = 9.896 | 9.904 | 9.913 Mbytes
   Step        Part         PotEng          Fmax          Fnorm            Lx             Ly             Lz            Pxx            Pyy            Pzz            Pxy            Pxz            Pyz      
      9453           2  -48992.792      8.1173423e-07  8.2179108e-06  38.7435        248.489        14.9298        1.9233265     -5.3880504     -7.3147387      1.2675874      26.568411     -143.95772    
      9500           2  -48992.792      7.3641018e-05  0.0028326826   38.7435        248.489        14.9298        1.933278      -5.4214308     -7.3311726      1.2711796      26.587548     -144.11476    
      9600           2  -48992.791      0.0028118358   0.012168536    38.7435        248.489        14.9298        2.0688156     -5.9736688     -7.5794503      1.3562315      26.929412     -146.71084    
      9700           2  -48992.791      0.00010244913  0.0045105862   38.7435        248.489        14.9298        2.1798596     -6.4276742     -7.7822771      1.4241572      27.200741     -148.77784    
      9800           2  -48992.791      0.00060125597  0.0043539623   38.7435        248.489        14.9298        2.30136       -6.9212771     -8.0047251      1.4967594      27.489632     -150.9743     
      9900           2  -48992.791      0.0012362746   0.0055259854   38.7435        248.489        14.9298        2.4039225     -7.3328279     -8.1904493      1.5545453      27.741889     -152.82575    
     10000           2  -48992.791      4.6798151e-05  0.0015755686   38.7435        248.489        14.9298        2.468389      -7.5844113     -8.3049907      1.5857551      27.925965     -154.05819    
     10100           2  -48992.791      0.00015713397  0.00092984518  38.7435        248.489        14.9298        2.5000279     -7.698143      -8.3588172      1.5942345      28.056002     -154.78575    
     10200           2  -48992.791      0.0012248361   0.0052643262   38.7435        248.489        14.9298        2.505792      -7.7026567     -8.3644304      1.5847783      28.144955     -155.12404    
     10300           2  -48992.791      3.1727246e-05  0.00045253843  38.7435        248.489        14.9298        2.4968138     -7.650662      -8.3441671      1.5691919      28.185692     -155.16192    
     10400           2  -48992.791      2.2068041e-05  0.00060498929  38.7435        248.489        14.9298        2.4816193     -7.5739004     -8.3127603      1.5506213      28.207314     -155.07557    
     10500           2  -48992.791      0.00091389151  0.0038979813   38.7435        248.489        14.9298        2.4586383     -7.4620692     -8.2664091      1.5257671      28.21794      -154.87265    
     10600           2  -48992.791      6.197459e-05   0.00050224766  38.7435        248.489        14.9298        2.4433637     -7.3875752     -8.235614       1.5093977      28.22073      -154.72227    
     10700           2  -48992.791      1.6064617e-05  0.00028047083  38.7435        248.489        14.9298        2.4333806     -7.3369483     -8.2150814      1.4976571      28.224885     -154.62996    
     10800           2  -48992.791      0.00030836891  0.0012941244   38.7435        248.489        14.9298        2.4277972     -7.3048042     -8.2027151      1.4888603      28.234404     -154.59989    
     10900           2  -48992.791      2.1641234e-05  9.272704e-05   38.7435        248.489        14.9298        2.4268184     -7.2935474     -8.1992511      1.4839771      28.247437     -154.62966    
     11000           2  -48992.791      0.00026141889  0.0010991794   38.7435        248.489        14.9298        2.4282489     -7.2925708     -8.2002886      1.4807283      28.263789     -154.69597    
     11100           2  -48992.791      7.4752502e-05  0.00032895925  38.7435        248.489        14.9298        2.4306302     -7.2963142     -8.2032501      1.4784967      28.280017     -154.7729     
     11200           2  -48992.791      0.00014669142  0.00051918925  38.7435        248.489        14.9298        2.4338649     -7.3016694     -8.2072839      1.4756021      28.30088      -154.87533    
     11300           2  -48992.791      3.6056233e-06  3.9392634e-05  38.7435        248.489        14.9298        2.4352522     -7.3027208     -8.2087841      1.4735674      28.311819     -154.9271     
     11400           2  -48992.791      3.3591667e-05  0.00011826373  38.7435        248.489        14.9298        2.4362105     -7.3005002     -8.2091026      1.4703793      28.323845     -154.97952    
     11500           2  -48992.791      9.9317263e-07  2.9097417e-05  38.7435        248.489        14.9298        2.4362377     -7.2959908     -8.2080765      1.4675909      28.330916     -155.00612    
     11600           2  -48992.791      1.6627611e-06  4.2417586e-05  38.7435        248.489        14.9298        2.435773      -7.2896718     -8.2062019      1.4646585      28.336131     -155.02202    
     11700           2  -48992.791      7.7076703e-06  5.7672684e-05  38.7435        248.489        14.9298        2.4346874     -7.2798064     -8.2029656      1.4607929      28.340611     -155.03071    
     11800           2  -48992.791      2.3860699e-05  9.7691815e-05  38.7435        248.489        14.9298        2.4334532     -7.2700349     -8.1996269      1.4572968      28.343017     -155.03109    
     11900           2  -48992.791      1.4125316e-06  5.2191085e-05  38.7435        248.489        14.9298        2.4324857     -7.2626399     -8.1970753      1.4547365      28.344037     -155.02868    
     12000           2  -48992.791      8.8265278e-06  5.5820449e-05  38.7435        248.489        14.9298        2.431373      -7.2541191     -8.1941428      1.4518095      28.344575     -155.0243     
     12100           2  -48992.791      1.8573133e-05  7.6759516e-05  38.7435        248.489        14.9298        2.4303776     -7.246348      -8.1914916      1.4491327      28.344491     -155.01918    
     12200           2  -48992.791      1.3423186e-05  6.0966453e-05  38.7435        248.489        14.9298        2.4296748     -7.2407732     -8.1896036      1.4472094      28.344063     -155.01476    
     12300           2  -48992.791      1.6051536e-06  3.9163882e-05  38.7435        248.489        14.9298        2.4289133     -7.2347333     -8.1875617      1.4451422      28.343191     -155.00888    
     12400           2  -48992.791      8.4103924e-07  3.8563819e-05  38.7435        248.489        14.9298        2.4282594     -7.2296539     -8.1858353      1.4434404      28.342085     -155.00267    
     12500           2  -48992.791      6.804271e-05   0.00026283921  38.7435        248.489        14.9298        2.4271928     -7.2217167     -8.1832154      1.4407784      28.339684     -154.99011    
     12600           2  -48992.791      4.4298395e-05  0.00016372848  38.7435        248.489        14.9298        2.4265354     -7.2171565     -8.1814845      1.4395134      28.337904     -154.98105    
     12700           2  -48992.791      8.284504e-07   4.1681829e-05  38.7435        248.489        14.9298        2.4257102     -7.2116405     -8.1795227      1.4378847      28.33547      -154.96857    
     12800           2  -48992.791      1.1069541e-06  4.3160888e-05  38.7435        248.489        14.9298        2.4246659     -7.2049485     -8.1770915      1.4360266      28.332103     -154.95126    
     12900           2  -48992.791      8.1980214e-07  4.3430741e-05  38.7435        248.489        14.9298        2.4238529     -7.1999261     -8.175249       1.4346749      28.32932      -154.93691    
     13000           2  -48992.791      8.0955452e-07  4.3687988e-05  38.7435        248.489        14.9298        2.4230233     -7.1949123     -8.1733912      1.4333718      28.326341     -154.92153    
     13100           2  -48992.791      2.75007e-06    4.4465215e-05  38.7435        248.489        14.9298        2.4220019     -7.1888621     -8.1711339      1.4318474      28.322494     -154.90167    
     13200           2  -48992.791      7.7518763e-07  4.3430658e-05  38.7435        248.489        14.9298        2.4210786     -7.1834848     -8.1691156      1.4305276      28.318862     -154.88292    
     13300           2  -48992.791      7.5700881e-07  4.3065507e-05  38.7435        248.489        14.9298        2.4201486     -7.1781339     -8.1670995      1.4292433      28.315066     -154.86331    
     13400           2  -48992.791      9.3852766e-07  4.2728871e-05  38.7435        248.489        14.9298        2.4193781     -7.173743      -8.1654401      1.4282085      28.311823     -154.84655    
     13500           2  -48992.791      4.8761944e-06  4.703621e-05   38.7435        248.489        14.9298        2.4182007     -7.1671034     -8.1629206      1.4266654      28.306723     -154.8201     
     13600           2  -48992.791      7.037611e-07   4.1770518e-05  38.7435        248.489        14.9298        2.4174752     -7.1630265     -8.1613757      1.4257464      28.303479     -154.80322    
     13700           2  -48992.791      1.2098779e-06  4.1451696e-05  38.7435        248.489        14.9298        2.4165103     -7.1576471     -8.1593299      1.4245393      28.299091     -154.78028    
     13800           2  -48992.791      2.3127426e-05  9.1239004e-05  38.7435        248.489        14.9298        2.4155081     -7.1520873     -8.157213       1.4233088      28.294439     -154.7558     
     13900           2  -48992.791      6.6013126e-07  4.0562285e-05  38.7435        248.489        14.9298        2.4148015     -7.1481804     -8.1557248      1.4224523      28.291106     -154.73815    
     14000           2  -48992.791      6.4805448e-07  4.0213357e-05  38.7435        248.489        14.9298        2.4140927     -7.1442676     -8.1542341      1.4216006      28.287722     -154.72015    
     14100           2  -48992.791      1.1340311e-06  3.9953634e-05  38.7435        248.489        14.9298        2.4130216     -7.13836       -8.1519846      1.4203237      28.282531     -154.69234    
     14200           2  -48992.791      6.2080917e-07  3.9283956e-05  38.7435        248.489        14.9298        2.4123237     -7.1345087     -8.1505196      1.4194952      28.2791       -154.67383    
     14300           2  -48992.791      6.3156182e-07  3.880552e-05   38.7435        248.489        14.9298        2.4114755     -7.1298194     -8.1487386      1.418489       28.274877     -154.65092    
     14400           2  -48992.791      2.5693714e-06  3.9093057e-05  38.7435        248.489        14.9298        2.4105922     -7.1249199     -8.1468821      1.4174387      28.270417     -154.62656    
     14500           2  -48992.791      5.8348297e-07  3.779941e-05   38.7435        248.489        14.9298        2.4099491     -7.1213382     -8.1455284      1.4166702      28.267129     -154.6085     
     14600           2  -48992.791      5.7341801e-07  3.7364951e-05  38.7435        248.489        14.9298        2.4093191     -7.1178135     -8.1441995      1.4159124      28.263873     -154.59052    
     14700           2  -48992.791      2.4879989e-06  3.7586829e-05  38.7435        248.489        14.9298        2.4084583     -7.1129685     -8.1423792      1.414867       28.259366     -154.56551    
     14800           2  -48992.791      5.4947931e-07  3.6276751e-05  38.7435        248.489        14.9298        2.4078034     -7.1092544     -8.1409893      1.4140613      28.255891     -154.5461     
     14900           2  -48992.791      5.3897709e-07  3.5751972e-05  38.7435        248.489        14.9298        2.4071007     -7.1052381     -8.1394926      1.4131849      28.252116     -154.52491    
     15000           2  -48992.791      1.5846627e-06  3.5476077e-05  38.7435        248.489        14.9298        2.4063452     -7.1008793     -8.137876       1.4122262      28.248001     -154.50168    
     15100           2  -48992.791      5.1679859e-07  3.4649804e-05  38.7435        248.489        14.9298        2.4056902     -7.0970599     -8.1364668      1.4113788      28.244383     -154.48114    
     15200           2  -48992.791      5.0714813e-07  3.4157761e-05  38.7435        248.489        14.9298        2.4050858     -7.0934997     -8.1351601      1.4105818      28.241001     -154.46184    
     15300           2  -48992.791      1.1307724e-06  3.3729335e-05  38.7435        248.489        14.9298        2.4043979     -7.0893991     -8.1336635      1.4096544      28.237097     -154.43946    
     15400           2  -48992.791      4.8726864e-07  3.3108984e-05  38.7435        248.489        14.9298        2.4038398     -7.0860298     -8.1324412      1.408884       28.233883     -154.42095    
     15500           2  -48992.791      7.3833555e-07  3.2600623e-05  38.7435        248.489        14.9298        2.4032073     -7.082162      -8.1310468      1.4079895      28.230188     -154.39957    
     15600           2  -48992.791      7.8155453e-07  3.2083826e-05  38.7435        248.489        14.9298        2.4026153     -7.0784874     -8.1297312      1.4071289      28.226673     -154.37913    
     15700           2  -48992.791      4.5962605e-07  3.1559563e-05  38.7435        248.489        14.9298        2.4021075     -7.0752886     -8.1285936      1.4063704      28.223611     -154.36126    
     15800           2  -48992.791      4.5123471e-07  3.1056592e-05  38.7435        248.489        14.9298        2.4015705     -7.0718564     -8.1273812      1.4055465      28.220323     -154.34199    
     15900           2  -48992.791      4.4118282e-07  3.0484466e-05  38.7435        248.489        14.9298        2.4009742     -7.0679774     -8.1260217      1.4046021      28.216606     -154.32012    
     16000           2  -48992.791      4.3394935e-07  3.0046572e-05  38.7435        248.489        14.9298        2.4005337     -7.0650609     -8.1250075      1.403882       28.21381      -154.3036     
     16100           2  -48992.791      4.2647971e-07  2.956753e-05   38.7435        248.489        14.9298        2.4000553     -7.0618413     -8.1238961      1.403077       28.210724     -154.28531    
     16200           2  -48992.791      5.0896678e-07  2.9061319e-05  38.7435        248.489        14.9298        2.3995493     -7.0583696     -8.1227075      1.4021964      28.207396     -154.26552    
     16300           2  -48992.791      4.1062142e-07  2.8622361e-05  38.7435        248.489        14.9298        2.3991529     -7.0555985     -8.1217664      1.4014836      28.20474      -154.24967    
     16400           2  -48992.791      4.0242538e-07  2.811763e-05   38.7435        248.489        14.9298        2.398687      -7.0522783     -8.1206481      1.400618       28.201558     -154.23064    
     16500           2  -48992.791      7.5207324e-07  2.7698931e-05  38.7435        248.489        14.9298        2.3982436     -7.0490474     -8.1195698      1.3997628      28.198463     -154.21206    
     16600           2  -48992.791      3.8845177e-07  2.7217327e-05  38.7435        248.489        14.9298        2.3978834     -7.0463675     -8.1186831      1.3990436      28.195896     -154.19661    
     16700           2  -48992.791      3.8143681e-07  2.6768645e-05  38.7435        248.489        14.9298        2.3974984     -7.0434439     -8.1177238      1.3982486      28.193098     -154.17973    
     16800           2  -48992.791      7.183019e-07   2.6294395e-05  38.7435        248.489        14.9298        2.3970459     -7.0399216     -8.1165795      1.397276       28.189728     -154.15934    
     16900           2  -48992.791      3.6729888e-07  2.5854327e-05  38.7435        248.489        14.9298        2.3967421     -7.0374976     -8.1157996      1.3965968      28.18741      -154.14528    
     17000           2  -48992.791      3.6130443e-07  2.5439605e-05  38.7435        248.489        14.9298        2.3964094     -7.0347861     -8.1149346      1.3958277      28.184818     -154.12953    
     17100           2  -48992.791      4.4836338e-07  2.5003438e-05  38.7435        248.489        14.9298        2.3960607     -7.0318717     -8.1140136      1.3949895      28.182033     -154.11257    
     17200           2  -48992.791      3.4725292e-07  2.4547375e-05  38.7435        248.489        14.9298        2.3957317     -7.0290488     -8.1131304      1.3941661      28.179338     -154.09612    
     17300           2  -48992.791      5.3281877e-07  2.4186174e-05  38.7435        248.489        14.9298        2.3954432     -7.0265078     -8.1123431      1.3934151      28.176913     -154.08129    
     17400           2  -48992.791      2.331265e-06   2.496604e-05   38.7435        248.489        14.9298        2.3951429     -7.0237929     -8.1115099      1.3926022      28.174323     -154.06542    
     17500           2  -48992.791      3.2979774e-07  2.3375324e-05  38.7435        248.489        14.9298        2.3948955     -7.0214962     -8.1108117      1.3919059      28.172133     -154.05198    
     17600           2  -48992.791      3.2379586e-07  2.2941332e-05  38.7435        248.489        14.9298        2.3945998     -7.0186748     -8.1099622      1.3910399      28.169445     -154.03546    
     17700           2  -48992.791      1.247515e-06   2.2868762e-05  38.7435        248.489        14.9298        2.3943387     -7.0161056     -8.109197       1.3902406      28.166997     -154.02039    
     17800           2  -48992.791      3.1272141e-07  2.2212501e-05  38.7435        248.489        14.9298        2.3941324     -7.014019      -8.1085811      1.389584       28.165011     -154.00814    
     17900           2  -48992.791      4.2611335e-07  2.1858548e-05  38.7435        248.489        14.9298        2.3939019     -7.0116243     -8.1078808      1.3888223      28.162732     -153.99407    
     18000           2  -48992.791      8.6726433e-07  2.1554509e-05  38.7435        248.489        14.9298        2.3936415     -7.0088294     -8.107072       1.3879221      28.160073     -153.97763    
     18100           2  -48992.791      2.9656813e-07  2.1108475e-05  38.7435        248.489        14.9298        2.3934699     -7.0069302     -8.1065278      1.3873034      28.158267     -153.96646    
     18200           2  -48992.791      2.9842511e-07  2.0817903e-05  38.7435        248.489        14.9298        2.3933031     -7.0050362     -8.1059893      1.3866809      28.156466     -153.9553     
     18300           2  -48992.791      1.7020114e-05  6.3933844e-05  38.7435        248.489        14.9298        2.3930809     -7.0024336     -8.1052566      1.3858163      28.153993     -153.93996    
     18400           2  -48992.791      2.8259517e-07  2.013523e-05   38.7435        248.489        14.9298        2.3929358     -7.000679      -8.1047673      1.3852273      28.152326     -153.92961    
     18500           2  -48992.791      5.0419233e-07  1.9830536e-05  38.7435        248.489        14.9298        2.3927593     -6.9984818     -8.1041598      1.384483       28.150239     -153.91664    
     18600           2  -48992.791      1.3431544e-05  5.1519993e-05  38.7435        248.489        14.9298        2.392583      -6.9962108     -8.103538       1.3837059      28.148083     -153.90322    
     18700           2  -48992.791      2.6861197e-07  1.9172224e-05  38.7435        248.489        14.9298        2.3924552     -6.9945126     -8.1030771      1.3831195      28.146471     -153.89319    
     18782           2  -48992.791      2.6433166e-07  1.8881429e-05  38.7435        248.489        14.9298        2.3923193     -6.9926563     -8.1025772      1.3824735      28.144709     -153.88221    
Loop time of 270.99 on 2 procs for 9329 steps with 11052 atoms

98.5% CPU use with 2 MPI tasks x 1 OpenMP threads

Minimization stats:
  Stopping criterion = force tolerance
  Energy initial, next-to-last, final = 
     -48992.7916851871  -48992.7908857109  -48992.7908857315
  Force two-norm initial, final = 8.2179108e-06 1.8881429e-05
  Force max component initial, final = 8.1173423e-07 2.6433166e-07
  Final line search alpha, max atom move = 0 0
  Iterations, force evaluations = 9329 9840

MPI task timing breakdown:
Section |  min time  |  avg time  |  max time  |%varavg| %total
---------------------------------------------------------------
Pair    | 226.34     | 227.2      | 228.07     |   5.8 | 83.84
Neigh   | 0          | 0          | 0          |   0.0 |  0.00
Comm    | 4.8889     | 5.7667     | 6.6444     |  36.6 |  2.13
Output  | 0.15036    | 0.15915    | 0.16794    |   2.2 |  0.06
Modify  | 24.189     | 24.199     | 24.209     |   0.2 |  8.93
Other   |            | 13.66      |            |       |  5.04

Nlocal:           5526 ave        5544 max        5508 min
Histogram: 1 0 0 0 0 0 0 0 0 1
Nghost:           7959 ave        8011 max        7907 min
Histogram: 1 0 0 0 0 0 0 0 0 1
Neighs:         234603 ave      235438 max      233768 min
Histogram: 1 0 0 0 0 0 0 0 0 1

Total # of neighbors = 469206
Ave neighs/atom = 42.454397
Neighbor list builds = 0
Dangerous builds = 0
write_data /data/home/yazhuo/Project/GBclaw/projects/proj-20260927-164bf2/artifacts/lammps/neb/neb-20260927-045814-1d9965/neb.replica.$i.final.lmp nocoeff
write_data /data/home/yazhuo/Project/GBclaw/projects/proj-20260927-164bf2/artifacts/lammps/neb/neb-20260927-045814-1d9965/neb.replica.2.final.lmp nocoeff
System init for write_data ...
Total wall time: 0:09:07
