LAMMPS (30 Mar 2026)
Processor partition = 12
OMP_NUM_THREADS environment is not set. Defaulting to 1 thread.
  using 1 OpenMP thread(s) per MPI task
clear
OMP_NUM_THREADS environment is not set. Defaulting to 1 thread.
  using 1 OpenMP thread(s) per MPI task
units metal
dimension 3
atom_style atomic
boundary p p p
atom_modify map array
read_data "/data/home/yazhuo/Project/GBclaw/projects/proj-20260927-164bf2/artifacts/lammps/neb/neb-20260927-045814-1d9965/inputs/initial.lmp"
Reading data file ...
  orthogonal box = (-19.37175 -124.2445 -7.4649) to (19.37175 124.2445 7.4649)
  1 by 2 by 1 MPI processor grid
  reading atoms ...
  11052 atoms
  read_data CPU = 0.045 seconds
neighbor 1.0 bin
neigh_modify delay 0 every 1 check yes
pair_style adp
pair_coeff * * "/data/home/yazhuo/Project/GBclaw/src/tools/potentials/NiCr.adp" Ni
group top_boundary empty
0 atoms in group top_boundary
group top_boundary id 5180 5151 5159 5109 5117 5067 5075 5025 5033 4992 5184 5160 5118 5076 5034 5181 5154 5156 5157 5112 5114 5115 5070 5072 5073 5028 5030 5031 4990 4991 5182 5155 5113 5071 5029 5175 5176 5141 5144 5146 5147 5099 5102 5104 5105 5057 5060 5062 5063 5015 5018 5020 5021 4985 4986 5177 5183 5145 5158 5103 5116 5061 5074 5019 5032 5168 5169 5129 5132 5134 5087 5090 5092 5045 5048 5050 5003 5006 5008 4980 5170 5178 5133 5148 5091 5106 5049 5064 5007 5022 11027 11048 10985 11019 10943 10977 10901 10935 10859 10893
100 atoms in group top_boundary
group top_boundary id 10818 10851 11052 11028 10986 10944 10902 10860 11024 11025 11049 10982 10983 11022 10940 10941 10980 10898 10899 10938 10856 10857 10896 10816 10817 10854 11050 11023 10981 10939 10897 10855 11014 11015 11043 11044 10972 10973 11009 11012 10930 10931 10967 10970 10888 10889 10925 10928 10846 10847 10883 10886 10811 10812 10841 10844 11045 11051 11013 11026 10971 10984 10929 10942 10887 10900 10845 10858 11002 11036 11037 10960 10997 11000 10918 10955 10958 10876 10913 10916 10834 10871 10874 10806 10829 10832 11038 11046 11001 11016 10959 10974 10917 10932 10875 10890 10833 10848
198 atoms in group top_boundary
group bottom_boundary empty
0 atoms in group bottom_boundary
group bottom_boundary id 174 125 83 123 84 32 34 10 177 139 175 140 85 87 46 12 47 160 111 124 68 69 126 67 21 33 35 6 7 164 176 128 129 178 127 73 86 88 37 38 9 11 36 152 161 105 110 58 59 109 112 57 70 15 19 20 22 2 3 156 163 114 115 162 165 113 130 63 71 72 74 24 25 5 8 23 39 151 153 104 56 103 106 55 60 13 14 16 1 155 108 154 157 107 116 61 62 64 18 4
100 atoms in group bottom_boundary
group bottom_boundary id 17 26 5345 5390 5303 5343 5304 5247 5249 5214 5190 5215 5391 5359 5360 5307 5263 5305 5264 5216 5218 5331 5344 5378 5288 5289 5346 5287 5235 5248 5250 5203 5204 5188 5189 5202 5392 5347 5348 5349 5293 5306 5252 5253 5308 5251 5208 5217 5219 5325 5330 5372 5379 5278 5279 5329 5332 5277 5290 5229 5233 5234 5236 5194 5195 5186 5187 5193 5205 5380 5381 5333 5334 5335 5350 5283 5292 5238 5239 5291 5294 5237 5254 5199 5206 5207 5209 5324 5371 5373 5276 5323 5326 5275 5280 5227 5228 5230 5192 5185
200 atoms in group bottom_boundary
group bottom_boundary id 5191 5196 5374 5375 5327 5328 5336 5282 5232 5281 5284 5231 5240 5197 5198 5200
216 atoms in group bottom_boundary
group fixed_xy union top_boundary bottom_boundary
414 atoms in group fixed_xy
variable __gb_neb_count_top_boundary equal count(top_boundary)
variable __gb_neb_count_top_boundary delete
variable __gb_neb_count_bottom_boundary equal count(bottom_boundary)
variable __gb_neb_count_bottom_boundary delete
min_style fire
timestep 0.01
fix neb_path all neb 1
fix hold_boundary_xy fixed_xy setforce 0.0 0.0 NULL
thermo 100
thermo_style custom step part pe fmax fnorm lx ly lz pxx pyy pzz pxy pxz pyz
thermo_modify flush yes
variable i equal part
dump neb_dump all custom 1000 /data/home/yazhuo/Project/GBclaw/projects/proj-20260927-164bf2/artifacts/lammps/neb/neb-20260927-045814-1d9965/neb.replica.$i.lammpstrj id type x y z ix iy iz fx fy fz
dump neb_dump all custom 1000 /data/home/yazhuo/Project/GBclaw/projects/proj-20260927-164bf2/artifacts/lammps/neb/neb-20260927-045814-1d9965/neb.replica.12.lammpstrj id type x y z ix iy iz fx fy fz
dump_modify neb_dump sort id
run 0
WARNING: No fixes with time integration, atoms won't move
For more information see https://docs.lammps.org/err0028 (src/verlet.cpp:60)
Neighbor list info ...
  update: every = 1 steps, delay = 0 steps, check = yes
  max neighbors/atom: 2000, page size: 100000
  master list distance cutoff = 6.168302
  ghost atom cutoff = 6.168302
  binsize = 3.084151, bins = 13 81 5
  1 neighbor lists, perpetual/occasional/extra = 1 0 0
  (1) pair adp, perpetual
      attributes: half, newton on
      pair build: half/bin/atomonly/newton
      stencil: half/bin/3d
      bin: standard
Per MPI rank memory allocation (min/avg/max) = 7.422 | 7.43 | 7.438 Mbytes
   Step        Part         PotEng          Fmax          Fnorm            Lx             Ly             Lz            Pxx            Pyy            Pzz            Pxy            Pxz            Pyz      
         0          12  -48992.796      0.0024845783   0.10363051     38.7435        248.489        14.9298        0.19007438     2.918104      -3.7172695      0.3830234      3.2510357e-05 -0.0010155383 
Loop time of 2.4035e-06 on 2 procs for 0 steps with 11052 atoms

104.0% CPU use with 2 MPI tasks x 1 OpenMP threads

MPI task timing breakdown:
Section |  min time  |  avg time  |  max time  |%varavg| %total
---------------------------------------------------------------
Pair    | 0          | 0          | 0          |   0.0 |  0.00
Neigh   | 0          | 0          | 0          |   0.0 |  0.00
Comm    | 0          | 0          | 0          |   0.0 |  0.00
Output  | 0          | 0          | 0          |   0.0 |  0.00
Modify  | 0          | 0          | 0          |   0.0 |  0.00
Other   |            | 2.403e-06  |            |       |100.00

Nlocal:           5526 ave        5544 max        5508 min
Histogram: 1 0 0 0 0 0 0 0 0 1
Nghost:           7959 ave        8011 max        7907 min
Histogram: 1 0 0 0 0 0 0 0 0 1
Neighs:         234603 ave      234962 max      234244 min
Histogram: 1 0 0 0 0 0 0 0 0 1

Total # of neighbors = 469206
Ave neighs/atom = 42.454397
Neighbor list builds = 0
Dangerous builds = 0
neb 0 0.0001 10000 10000 100 final "/data/home/yazhuo/Project/GBclaw/projects/proj-20260927-164bf2/artifacts/lammps/neb/neb-20260927-045814-1d9965/inputs/final.neb.coords" verbosity default
  Parameters for fire:
    dmax  delaystep dtgrow dtshrink alpha0 alphashrink tmax tmin   integrator   halfstepback   abcfire  
     0.1     20      1.1     0.5     0.25     0.99      10  0.02 eulerimplicit      yes          no     
Per MPI rank memory allocation (min/avg/max) = 9.901 | 9.909 | 9.917 Mbytes
   Step        Part         PotEng          Fmax          Fnorm            Lx             Ly             Lz            Pxx            Pyy            Pzz            Pxy            Pxz            Pyz      
         0          12  -48992.279      0.29208533     1.9988481      38.7435        248.489        14.9298        129.5892      -430.48696     -159.53372     -66.800585     -7.5442949      65.149333    
       100          12  -48992.76       0.00075526384  0.020755382    38.7435        248.489        14.9298        158.50438     -580.69541     -144.04751     -99.037281     -77.453989      153.66433    
       200          12  -48992.763      0.0003092108   0.014418777    38.7435        248.489        14.9298        157.64703     -590.33623     -142.64663     -113.68121     -86.681218      187.8822     
       300          12  -48992.765      0.00027153606  0.010622729    38.7435        248.489        14.9298        157.50774     -592.18033     -139.65652     -129.12119     -92.693591      211.03878    
       400          12  -48992.766      0.0002175064   0.0085018254   38.7435        248.489        14.9298        157.46212     -592.28042     -136.39018     -144.19472     -97.388623      229.51981    
       500          12  -48992.768      0.00017397859  0.0071122005   38.7435        248.489        14.9298        157.19306     -591.2606      -133.02015     -158.78818     -101.11495      244.2582     
       600          12  -48992.768      0.00014989707  0.006376884    38.7435        248.489        14.9298        156.87837     -590.03814     -130.59774     -168.89899     -103.27207      252.90407    
       700          12  -48992.769      0.00012594815  0.0057907271   38.7435        248.489        14.9298        156.48701     -588.54383     -128.27225     -178.37507     -104.98254      259.8947     
       800          12  -48992.769      0.00019735993  0.0051126825   38.7435        248.489        14.9298        155.6843      -585.8262      -125.18962     -190.42944     -106.60478      266.52048    
       900          12  -48992.769      0.00029128389  0.0046903008   38.7435        248.489        14.9298        154.49669     -582.41408     -122.53703     -200.08577     -107.32674      268.97718    
      1000          12  -48992.769      0.00019912808  0.0038953433   38.7435        248.489        14.9298        153.18849     -578.51434     -119.82351     -209.71568     -107.89664      270.80574    
      1100          12  -48992.769      0.00016134128  0.0035961884   38.7435        248.489        14.9298        152.30231     -575.46038     -117.39568     -218.60674     -108.5937       273.78377    
      1200          12  -48992.769      0.00015197675  0.0034014041   38.7435        248.489        14.9298        151.60985     -573.15129     -115.52492     -225.44268     -109.06672      275.90157    
      1300          12  -48992.769      0.00014501289  0.003225733    38.7435        248.489        14.9298        150.98061     -571.03254     -113.79923     -231.72725     -109.46937      277.7908     
      1400          12  -48992.769      0.0001452736   0.0030416156   38.7435        248.489        14.9298        150.2531      -568.60613     -111.83085     -238.84971     -109.87167      279.7727     
      1500          12  -48992.769      0.00015368768  0.0028836584   38.7435        248.489        14.9298        149.51882     -566.23277     -109.95257     -245.56731     -110.17153      281.33873    
      1600          12  -48992.769      0.00016553538  0.0027745943   38.7435        248.489        14.9298        148.87867     -564.2508      -108.43987     -250.90907     -110.34018      282.2949     
      1700          12  -48992.769      0.00018652697  0.0026717948   38.7435        248.489        14.9298        147.9896      -561.62715     -106.52343     -257.58486     -110.45064      283.06071    
      1800          12  -48992.769      0.00021185844  0.0026261398   38.7435        248.489        14.9298        147.06453     -559.0516      -104.73322     -263.73514     -110.44373      283.29675    
      1900          12  -48992.769      0.00024161241  0.0026417813   38.7435        248.489        14.9298        146.09239     -556.50611     -103.03712     -269.50307     -110.34005      283.10111    
      2000          12  -48992.769      0.00027835327  0.0027292271   38.7435        248.489        14.9298        144.97041     -553.76169     -101.27503     -275.45241     -110.13087      282.46618    
      2100          12  -48992.769      0.00033569841  0.0029603828   38.7435        248.489        14.9298        143.32088     -550.07229     -98.981683     -283.16738     -109.70673      281.00799    
      2200          12  -48992.769      0.00038629793  0.0032265797   38.7435        248.489        14.9298        141.87582     -547.15177     -97.199893     -289.17114     -109.26057      279.40725    
      2300          12  -48992.77       0.00046569606  0.0037175487   38.7435        248.489        14.9298        139.51636     -542.93422     -94.629683     -297.89664     -108.43932      276.42149    
      2400          12  -48992.77       0.00056161587  0.0044191664   38.7435        248.489        14.9298        136.0789      -537.8292      -91.428976     -308.94688     -107.10853      271.58184    
      2500          12  -48992.77       0.00061452591  0.0049146641   38.7435        248.489        14.9298        133.16263     -534.30985     -89.080853     -317.24302     -105.88768      267.16798    
      2600          12  -48992.771      0.00064224834  0.0053377258   38.7435        248.489        14.9298        129.72029     -530.91974     -86.609429     -326.16961     -104.35056      261.63726    
      2700          12  -48992.772      0.00061508315  0.0056435939   38.7435        248.489        14.9298        124.26395     -526.90042     -83.161592     -338.97787     -101.69033      252.07925    
      2800          12  -48992.772      0.00055458068  0.0056347693   38.7435        248.489        14.9298        120.05864     -524.67775     -80.761093     -348.09656     -99.426679      243.91368    
      2900          12  -48992.773      0.00045616385  0.005423925    38.7435        248.489        14.9298        115.09752     -522.75962     -78.094686     -358.30703     -96.479058      233.21444    
      3000          12  -48992.774      0.0003522686   0.0050711704   38.7435        248.489        14.9298        110.09883     -521.37696     -75.492951     -368.17779     -93.127727      220.97932    
      3100          12  -48992.774      0.00029302083  0.0048035308   38.7435        248.489        14.9298        106.95128     -520.69319     -73.861411     -374.23479     -90.780935      212.39335    
      3200          12  -48992.775      0.00024712033  0.0045444804   38.7435        248.489        14.9298        104.15882     -520.16271     -72.403093     -379.51806     -88.521837      204.12846    
      3300          12  -48992.775      0.00020073317  0.0042184166   38.7435        248.489        14.9298        100.9201      -519.60306     -70.692284     -385.5323      -85.681873      193.74033    
      3400          12  -48992.775      0.00017154214  0.0039604597   38.7435        248.489        14.9298        98.518573     -519.21225     -69.40778      -389.89745     -83.41984       185.45285    
      3500          12  -48992.776      0.00014705546  0.003702623    38.7435        248.489        14.9298        96.246108     -518.85296     -68.182929     -393.93703     -81.165376      177.1627     
      3600          12  -48992.776      0.00012731324  0.003426845    38.7435        248.489        14.9298        93.947775     -518.4942      -66.93325      -397.91645     -78.781229      168.33699    
      3700          12  -48992.776      0.00011744496  0.0032293425   38.7435        248.489        14.9298        92.37248      -518.24849     -66.0712       -400.57162     -77.096254      162.045      
      3800          12  -48992.776      0.0001086209   0.0030403407   38.7435        248.489        14.9298        90.91846      -518.02074     -65.272091     -402.96336     -75.51272       156.07787    
      3900          12  -48992.777      9.5990551e-05  0.0027490014   38.7435        248.489        14.9298        88.776771     -517.68076     -64.087816     -406.37152     -73.146482      147.0359     
      4000          12  -48992.777      8.843598e-05   0.0025647459   38.7435        248.489        14.9298        87.469935     -517.47004     -63.362353     -408.37377     -71.694943      141.39368    
      4100          12  -48992.777      8.1615564e-05  0.0023944451   38.7435        248.489        14.9298        86.288447     -517.2769      -62.702894     -410.12694     -70.385706      136.22451    
      4200          12  -48992.777      7.4770647e-05  0.0022159732   38.7435        248.489        14.9298        85.083521     -517.07724     -62.027914     -411.85496     -69.06163       130.90677    
      4300          12  -48992.777      6.7837839e-05  0.0020283236   38.7435        248.489        14.9298        83.844984     -516.86899     -61.330585     -413.56184     -67.720833      125.40922    
      4400          12  -48992.777      6.2836537e-05  0.0018921045   38.7435        248.489        14.9298        82.958905     -516.71799     -60.829102     -414.73514     -66.779895      121.46872    
      4500          12  -48992.777      5.7213569e-05  0.0017341301   38.7435        248.489        14.9298        81.946686     -516.54362     -60.253799     -416.02294     -65.729335      116.97368    
      4600          12  -48992.777      5.308389e-05   0.0016173045   38.7435        248.489        14.9298        81.204356     -516.41448     -59.829701     -416.92827     -64.979396      113.68975    
      4700          12  -48992.777      4.9020226e-05  0.0014996905   38.7435        248.489        14.9298        80.460247     -516.28436     -59.4027       -417.79861     -64.249312      110.41819    
      4800          12  -48992.777      4.5172742e-05  0.0013880557   38.7435        248.489        14.9298        79.757762     -516.16082     -58.997924     -418.58459     -63.582503      107.35542    
      4900          12  -48992.778      4.1105243e-05  0.0012670327   38.7435        248.489        14.9298        78.996459     -516.02681     -58.557219     -419.39345     -62.888511      104.0739     
      5000          12  -48992.778      3.7968063e-05  0.0011741178   38.7435        248.489        14.9298        78.411486     -515.92369     -58.216825     -419.98208     -62.37846       101.58624    
      5100          12  -48992.778      3.4831783e-05  0.0010798862   38.7435        248.489        14.9298        77.81621      -515.81893     -57.869074     -420.54973     -61.882354      99.090847    
      5200          12  -48992.778      3.1901485e-05  0.00099081194  38.7435        248.489        14.9298        77.250124     -515.71963     -57.536809     -421.05792     -61.434899      96.759065    
      5300          12  -48992.778      2.966565e-05   0.00092300727  38.7435        248.489        14.9298        76.816053     -515.64384     -57.280911     -421.42501     -61.109527      95.002652    
      5400          12  -48992.778      2.7254674e-05  0.00084981274  38.7435        248.489        14.9298        76.34376      -515.56196     -57.001513     -421.80121     -60.774219      93.126436    
      5500          12  -48992.778      2.4842054e-05  0.00077585536  38.7435        248.489        14.9298        75.861522     -515.47902     -56.714819     -422.15897     -60.453993      91.253699    
      5600          12  -48992.778      2.3121381e-05  0.00072306549  38.7435        248.489        14.9298        75.512997     -515.41959     -56.50667      -422.39983     -60.237859      89.931193    
      5700          12  -48992.778      2.139304e-05   0.00067000586  38.7435        248.489        14.9298        75.158475     -515.35971     -56.294187     -422.6291      -60.031893      88.61511     
      5800          12  -48992.778      1.9551435e-05  0.00061376262  38.7435        248.489        14.9298        74.777708     -515.29613     -56.064912     -422.85676     -59.827379      87.237626    
      5900          12  -48992.778      1.8065479e-05  0.00056867451  38.7435        248.489        14.9298        74.468407     -515.24506     -55.877673     -423.02694     -59.674886      86.148926    
      6000          12  -48992.778      1.6717581e-05  0.0005276333   38.7435        248.489        14.9298        74.18305      -515.19841     -55.704063     -423.17195     -59.54567       85.170806    
      6100          12  -48992.778      1.5378046e-05  0.00048688288  38.7435        248.489        14.9298        73.895516     -515.15194     -55.528145     -423.30612     -59.427279      84.213166    
      6200          12  -48992.778      1.4308156e-05  0.00045445907  38.7435        248.489        14.9298        73.663421     -515.11484     -55.38533      -423.40545     -59.340829      83.462348    
      6300          12  -48992.778      1.3035956e-05  0.00041600175  38.7435        248.489        14.9298        73.383816     -515.07071     -55.212246     -423.51444     -59.247798      82.585711    
      6400          12  -48992.778      1.1983472e-05  0.00038428628  38.7435        248.489        14.9298        73.14927      -515.03421     -55.065996     -423.59643     -59.179882      81.876461    
      6500          12  -48992.778      1.1186777e-05  0.00036038531  38.7435        248.489        14.9298        72.969947     -515.00664     -54.953422     -423.65326     -59.134417      81.351377    
      6600          12  -48992.778      1.0328578e-05  0.00033472389  38.7435        248.489        14.9298        72.774705     -514.97694     -54.830046     -423.70944     -59.091387      80.797415    
      6700          12  -48992.778      9.3645838e-06  0.00030598567  38.7435        248.489        14.9298        72.552369     -514.94356     -54.688334     -423.76613     -59.05094       80.19076     
      6800          12  -48992.778      8.6984123e-06  0.00028621211  38.7435        248.489        14.9298        72.396961     -514.9205      -54.588363     -423.80107     -59.028408      79.783488    
      6900          12  -48992.778      8.0799764e-06  0.00026789818  38.7435        248.489        14.9298        72.251019     -514.89905     -54.49373      -423.83047     -59.011562      79.41408     
      7000          12  -48992.778      7.4144737e-06  0.00024820333  38.7435        248.489        14.9298        72.091713     -514.87586     -54.389466     -423.85884     -58.998091      79.026211    
      7100          12  -48992.778      6.8990999e-06  0.00023296993  38.7435        248.489        14.9298        71.966658     -514.85781     -54.306825     -423.87839     -58.991217      78.733717    
      7200          12  -48992.778      6.2901489e-06  0.00021502421  38.7435        248.489        14.9298        71.817073     -514.83642     -54.20698      -423.89879     -58.987236      78.398134    
      7300          12  -48992.778      5.7988416e-06  0.00020056919  38.7435        248.489        14.9298        71.694598     -514.81906     -54.124283     -423.91303     -58.987593      78.136018    
      7400          12  -48992.778      5.384416e-06   0.00018837225  38.7435        248.489        14.9298        71.589757     -514.80431     -54.052744     -423.92352     -58.990482      77.921057    
      7500          12  -48992.778      4.9834754e-06  0.00017656951  38.7435        248.489        14.9298        71.486851     -514.78994     -53.981805     -423.93233     -58.995617      77.718812    
      7600          12  -48992.778      4.5179552e-06  0.000162861    38.7435        248.489        14.9298        71.365334     -514.77309     -53.897012     -423.94089     -59.00462       77.491695    
      7700          12  -48992.778      4.2017003e-06  0.00015353693  38.7435        248.489        14.9298        71.281327     -514.76153     -53.837664     -423.94563     -59.012745      77.342646    
      7800          12  -48992.778      3.8955427e-06  0.0001445125   38.7435        248.489        14.9298        71.198894     -514.75025     -53.778814     -423.94939     -59.022168      77.2028      
      7900          12  -48992.778      3.5760922e-06  0.00013506922  38.7435        248.489        14.9298        71.111306     -514.73834     -53.715546     -423.95243     -59.033753      77.061524    
      8000          12  -48992.778      3.3026227e-06  0.00012697312  38.7435        248.489        14.9298        71.035056     -514.72803     -53.659799     -423.95428     -59.04513       76.944909    
      8100          12  -48992.778      3.0587555e-06  0.00011973619  38.7435        248.489        14.9298        70.965911     -514.71873     -53.608667     -423.95533     -59.056453      76.84445     
      8200          12  -48992.778      2.810026e-06   0.00011232425  38.7435        248.489        14.9298        70.89403      -514.70911     -53.554881     -423.95578     -59.069208      76.745555    
      8300          12  -48992.778      2.6070772e-06  0.00010624739  38.7435        248.489        14.9298        70.834244     -514.70115     -53.509617     -423.95565     -59.080552      76.667754    
      8400          12  -48992.778      2.3997302e-06  0.00010000842  38.7435        248.489        14.9298        70.771993     -514.69291     -53.461957     -423.95503     -59.093023      76.591089    
      8500          12  -48992.778      2.2449551e-06  9.5325033e-05  38.7435        248.489        14.9298        70.724644     -514.68666     -53.425315     -423.95422     -59.102938      76.535845    
      8600          12  -48992.778      2.0948346e-06  9.07498e-05    38.7435        248.489        14.9298        70.677841     -514.68052     -53.388747     -423.95312     -59.113079      76.48391     
      8700          12  -48992.778      1.9070686e-06  8.4984887e-05  38.7435        248.489        14.9298        70.618045     -514.67271     -53.341492     -423.95128     -59.126491      76.421531    
      8800          12  -48992.778      1.7439757e-06  7.9923238e-05  38.7435        248.489        14.9298        70.564742     -514.66579     -53.298831     -423.94918     -59.13883       76.369768    
      8900          12  -48992.778      1.6364008e-06  7.6552808e-05  38.7435        248.489        14.9298        70.528822     -514.66115     -53.269782     -423.94751     -59.147322      76.336972    
      9000          12  -48992.778      1.5040943e-06  7.2362154e-05  38.7435        248.489        14.9298        70.483643     -514.65534     -53.232894     -423.94511     -59.158171      76.298093    
      9100          12  -48992.778      1.3749227e-06  6.8213295e-05  38.7435        248.489        14.9298        70.438334     -514.64955     -53.195483     -423.94233     -59.169203      76.261819    
      9200          12  -48992.778      1.2831907e-06  6.522779e-05   38.7435        248.489        14.9298        70.405365     -514.64537     -53.167993     -423.94006     -59.177299      76.237137    
      9300          12  -48992.778      1.1943305e-06  6.2297643e-05  38.7435        248.489        14.9298        70.372698     -514.64124     -53.140521     -423.93758     -59.185358      76.214124    
      9400          12  -48992.778      1.0925754e-06  5.8884858e-05  38.7435        248.489        14.9298        70.334248     -514.63642     -53.107875     -423.93435     -59.194861      76.188916    
      9453          12  -48992.778      1.0584618e-06  5.7726075e-05  38.7435        248.489        14.9298        70.321096     -514.63478     -53.096629     -423.93316     -59.19811       76.180762    
Loop time of 275.698 on 2 procs for 9453 steps with 11052 atoms

98.9% CPU use with 2 MPI tasks x 1 OpenMP threads

Minimization stats:
  Stopping criterion = force tolerance
  Energy initial, next-to-last, final = 
     -48992.2787407111  -48992.7777184604  -48992.7777184626
  Force two-norm initial, final = 1.9988481 5.7726075e-05
  Force max component initial, final = 0.29208533 1.0584618e-06
  Final line search alpha, max atom move = 0 0
  Iterations, force evaluations = 9453 9970

MPI task timing breakdown:
Section |  min time  |  avg time  |  max time  |%varavg| %total
---------------------------------------------------------------
Pair    | 215.17     | 219.36     | 223.55     |  28.3 | 79.57
Neigh   | 0          | 0          | 0          |   0.0 |  0.00
Comm    | 2.3622     | 6.5386     | 10.715     | 163.3 |  2.37
Output  | 0.14408    | 0.15064    | 0.15719    |   1.7 |  0.05
Modify  | 30.98      | 30.987     | 30.993     |   0.1 | 11.24
Other   |            | 18.66      |            |       |  6.77

Nlocal:           5526 ave        5544 max        5508 min
Histogram: 1 0 0 0 0 0 0 0 0 1
Nghost:           8594 ave        8631 max        8557 min
Histogram: 1 0 0 0 0 0 0 0 0 1
Neighs:         234663 ave      235418 max      233908 min
Histogram: 1 0 0 0 0 0 0 0 0 1

Total # of neighbors = 469326
Ave neighs/atom = 42.465255
Neighbor list builds = 0
Dangerous builds = 0
  Parameters for fire:
    dmax  delaystep dtgrow dtshrink alpha0 alphashrink tmax tmin   integrator   halfstepback   abcfire  
     0.1     20      1.1     0.5     0.25     0.99      10  0.02 eulerimplicit      yes          no     
Per MPI rank memory allocation (min/avg/max) = 9.901 | 9.909 | 9.917 Mbytes
   Step        Part         PotEng          Fmax          Fnorm            Lx             Ly             Lz            Pxx            Pyy            Pzz            Pxy            Pxz            Pyz      
      9453          12  -48992.778      1.0584618e-06  5.7726075e-05  38.7435        248.489        14.9298        70.321096     -514.63478     -53.096629     -423.93316     -59.19811       76.180762    
      9500          12  -48992.778      0.0001391579   0.0080492717   38.7435        248.489        14.9298        70.567254     -514.68038     -52.763495     -424.83871     -58.754706      75.614815    
      9600          12  -48992.778      0.00013254627  0.007822437    38.7435        248.489        14.9298        71.575962     -514.69999     -51.86659      -426.82946     -57.129196      73.227721    
      9700          12  -48992.778      0.00012031962  0.0072462095   38.7435        248.489        14.9298        72.362401     -514.6998      -51.385857     -427.44352     -55.873054      71.055368    
      9800          12  -48992.778      0.00010359812  0.0062993255   38.7435        248.489        14.9298        73.290849     -514.71651     -50.997151     -427.45601     -54.420321      68.285943    
      9900          12  -48992.779      9.0246348e-05  0.0053433823   38.7435        248.489        14.9298        74.231238     -514.76127     -50.761226     -426.88601     -53.048058      65.474308    
     10000          12  -48992.779      8.1595559e-05  0.0046155543   38.7435        248.489        14.9298        75.068867     -514.82272     -50.655738     -426.05672     -51.963134      63.158222    
     10100          12  -48992.779      7.2920384e-05  0.0038626642   38.7435        248.489        14.9298        75.841233     -514.88999     -50.628812     -425.14556     -51.116853      61.329819    
     10200          12  -48992.779      6.1640293e-05  0.0029223466   38.7435        248.489        14.9298        76.588033     -514.95227     -50.645921     -424.25365     -50.488982      60.032464    
     10300          12  -48992.779      5.1515874e-05  0.0021457573   38.7435        248.489        14.9298        77.10316      -514.98443     -50.671414     -423.71174     -50.206483      59.561868    
     10400          12  -48992.779      4.2042002e-05  0.0014908859   38.7435        248.489        14.9298        77.547218     -514.99856     -50.69623      -423.34175     -50.091763      59.546617    
     10500          12  -48992.779      3.2480848e-05  0.00093958623  38.7435        248.489        14.9298        78.055561     -514.99592     -50.72744      -423.04839     -50.124997      60.047123    
     10600          12  -48992.779      2.8300285e-05  0.00075924941  38.7435        248.489        14.9298        78.40786      -514.98609     -50.755848     -422.89513     -50.229497      60.655438    
     10700          12  -48992.779      2.6494828e-05  0.00071540686  38.7435        248.489        14.9298        78.724455     -514.97688     -50.789011     -422.75539     -50.342214      61.265473    
     10800          12  -48992.779      2.6138229e-05  0.00074097136  38.7435        248.489        14.9298        79.073785     -514.96978     -50.83278      -422.57913     -50.454309      61.905152    
     10900          12  -48992.779      2.6343554e-05  0.00077742053  38.7435        248.489        14.9298        79.390802     -514.9659      -50.876347     -422.40015     -50.534775      62.42464     
     11000          12  -48992.779      2.6278057e-05  0.0007901649   38.7435        248.489        14.9298        79.723222     -514.96284     -50.924452     -422.20086     -50.602603      62.923515    
     11100          12  -48992.779      2.5684636e-05  0.00076998924  38.7435        248.489        14.9298        80.034784     -514.96006     -50.971729     -422.00799     -50.658798      63.373519    
     11200          12  -48992.779      2.3940332e-05  0.0006947348   38.7435        248.489        14.9298        80.451933     -514.95583     -51.040085     -421.74389     -50.736647      63.992532    
     11300          12  -48992.779      2.2413425e-05  0.00063039673  38.7435        248.489        14.9298        80.69664      -514.95315     -51.084244     -421.58523     -50.789797      64.383395    
     11400          12  -48992.779      2.0202018e-05  0.00053444357  38.7435        248.489        14.9298        81.010117     -514.9499      -51.147007     -421.37528     -50.870934      64.92895     
     11500          12  -48992.779      1.8468987e-05  0.00046375569  38.7435        248.489        14.9298        81.238075     -514.94818     -51.198468     -421.21493     -50.94145       65.36399     
     11600          12  -48992.779      1.6793931e-05  0.00040220412  38.7435        248.489        14.9298        81.450042     -514.94769     -51.251927     -421.05717     -51.016533      65.7993      
     11700          12  -48992.779      1.4844123e-05  0.00033950849  38.7435        248.489        14.9298        81.704239     -514.9494      -51.324661     -420.85309     -51.118551      66.359088    
     11800          12  -48992.779      1.3311812e-05  0.00029781748  38.7435        248.489        14.9298        81.923262     -514.9535      -51.395781     -420.66155     -51.215439      66.868607    
     11900          12  -48992.779      1.2320199e-05  0.00027485181  38.7435        248.489        14.9298        82.083403     -514.95833     -51.452984     -420.5115      -51.290126      67.251912    
     12000          12  -48992.779      1.124573e-05   0.00025255266  38.7435        248.489        14.9298        82.270848     -514.96608     -51.525467     -420.3253      -51.380114      67.706608    
     12100          12  -48992.779      1.0286073e-05  0.00023447263  38.7435        248.489        14.9298        82.449285     -514.97568     -51.600155     -420.13762     -51.467327      68.141607    
     12200          12  -48992.779      9.5867919e-06  0.00022198681  38.7435        248.489        14.9298        82.581988     -514.98425     -51.659415     -419.99174     -51.532916      68.4653      
     12300          12  -48992.779      8.8054781e-06  0.00020866194  38.7435        248.489        14.9298        82.727861     -514.99511     -51.728555     -419.82522     -51.605905      68.821355    
     12400          12  -48992.779      8.1259947e-06  0.0001977071   38.7435        248.489        14.9298        82.848954     -515.00537     -51.789593     -419.68186     -51.667553      69.117729    
     12500          12  -48992.779      2.2062356e-05  0.00027479148  38.7435        248.489        14.9298        83.027354     -515.02298     -51.886513     -419.46177     -51.761066      69.557821    
     12600          12  -48992.779      6.5870875e-06  0.00017548797  38.7435        248.489        14.9298        83.123505     -515.03343     -51.943041     -419.33813     -51.813341      69.797304    
     12700          12  -48992.779      5.7740127e-06  0.00016779535  38.7435        248.489        14.9298        83.23061      -515.04656     -52.009974     -419.19632     -51.873456      70.067       
     12800          12  -48992.779      5.0462385e-06  0.00016118436  38.7435        248.489        14.9298        83.349752     -515.06288     -52.090196     -419.03318     -51.942995      70.37056     
     12900          12  -48992.779      4.4827282e-06  0.00015720506  38.7435        248.489        14.9298        83.432445     -515.07537     -52.149846     -418.91678     -51.993015      70.583346    
     13000          12  -48992.779      3.9977413e-06  0.0001538987   38.7435        248.489        14.9298        83.510256     -515.08805     -52.209208     -418.8051      -52.041406      70.784844    
     13100          12  -48992.779      3.458098e-06   0.00015036243  38.7435        248.489        14.9298        83.598666     -515.10363     -52.280838     -418.67609     -52.097924      71.014778    
     13200          12  -48992.779      3.0196932e-06  0.00014740387  38.7435        248.489        14.9298        83.672946     -515.1177      -52.344669     -418.56648     -52.146607      71.208287    
     13300          12  -48992.779      2.6126474e-06  0.00014458748  38.7435        248.489        14.9298        83.743349     -515.13187     -52.4084       -418.46206     -52.193699      71.391576    
     13400          12  -48992.779      2.3088078e-06  0.00014227592  38.7435        248.489        14.9298        83.798629     -515.14357     -52.460828     -418.38007     -52.231319      71.535188    
     13500          12  -48992.779      2.1395239e-06  0.00013882905  38.7435        248.489        14.9298        83.878063     -515.1613      -52.540152     -418.26286     -52.28638       71.740768    
     13600          12  -48992.779      2.0547301e-06  0.00013670532  38.7435        248.489        14.9298        83.924354     -515.17215     -52.58879      -418.19526     -52.319048      71.86001     
     13700          12  -48992.779      1.9986325e-06  0.00013399872  38.7435        248.489        14.9298        83.982553     -515.18635     -52.652662     -418.11142     -52.36077       72.009287    
     13800          12  -48992.779      1.9369721e-06  0.00013123142  38.7435        248.489        14.9298        84.039239     -515.20082     -52.718148     -418.03149     -52.402193      72.153928    
     13900          12  -48992.779      1.8918907e-06  0.00012927873  38.7435        248.489        14.9298        84.076966     -515.21082     -52.763746     -417.97953     -52.430246      72.249757    
     14000          12  -48992.779      1.845292e-06   0.00012731917  38.7435        248.489        14.9298        84.11305      -515.22068     -52.809013     -417.93099     -52.457478      72.341064    
     14100          12  -48992.779      1.7722989e-06  0.00012432384  38.7435        248.489        14.9298        84.164325     -515.23523     -52.876497     -417.86447     -52.496933      72.470169    
     14200          12  -48992.779      1.7230681e-06  0.00012232556  38.7435        248.489        14.9298        84.195673     -515.24446     -52.919862     -417.82561     -52.521558      72.548681    
     14300          12  -48992.779      1.6617987e-06  0.00011987019  38.7435        248.489        14.9298        84.231746     -515.25543     -52.971968     -417.78292     -52.550423      72.638621    
     14400          12  -48992.779      1.5963472e-06  0.00011725298  38.7435        248.489        14.9298        84.266988     -515.26655     -53.025524     -417.74382     -52.579259      72.726032    
     14500          12  -48992.779      1.5477409e-06  0.00011530804  38.7435        248.489        14.9298        84.291199     -515.27444     -53.064068     -417.71876     -52.599491      72.785807    
     14600          12  -48992.779      1.499428e-06   0.00011337402  38.7435        248.489        14.9298        84.313767     -515.28201     -53.101473     -417.69696     -52.618712      72.841328    
     14700          12  -48992.779      1.4327841e-06  0.00011069391  38.7435        248.489        14.9298        84.342742     -515.29207     -53.151976     -417.67166     -52.644005      72.91233     
     14800          12  -48992.779      1.3815036e-06  0.00010862004  38.7435        248.489        14.9298        84.363341     -515.2995      -53.189923     -417.65592     -52.662508      72.962638    
     14900          12  -48992.779      1.3259695e-06  0.00010638041  38.7435        248.489        14.9298        84.384088     -515.30726     -53.230187     -417.64231     -52.681678      73.013203    
     15000          12  -48992.779      1.3880394e-06  0.00010394695  38.7435        248.489        14.9298        84.404785     -515.31535     -53.272919     -417.63156     -52.701492      73.063602    
     15100          12  -48992.779      1.4592959e-06  0.00010180962  38.7435        248.489        14.9298        84.421361     -515.32215     -53.309492     -417.6255      -52.718012      73.103999    
     15200          12  -48992.779      1.5194812e-06  9.9822139e-05  38.7435        248.489        14.9298        84.435507     -515.32824     -53.342825     -417.62261     -52.732713      73.138575    
     15300          12  -48992.779      1.5815695e-06  9.7537938e-05  38.7435        248.489        14.9298        84.450238     -515.33496     -53.380277     -417.6225      -52.748823      73.174788    
     15400          12  -48992.779      1.626809e-06   9.5660899e-05  38.7435        248.489        14.9298        84.461079     -515.34023     -53.410263     -417.62494     -52.761401      73.201685    
     15500          12  -48992.779      1.6727609e-06  9.351718e-05   38.7435        248.489        14.9298        84.472146     -515.34602     -53.443801     -417.63042     -52.775134      73.229515    
     15600          12  -48992.779      1.7104674e-06  9.1485205e-05  38.7435        248.489        14.9298        84.481265     -515.35126     -53.474743     -417.63826     -52.787477      73.252937    
     15700          12  -48992.779      1.7387749e-06  8.9721794e-05  38.7435        248.489        14.9298        84.4881       -515.35561     -53.500931     -417.64709     -52.797675      73.270997    
     15800          12  -48992.779      1.7647542e-06  8.7840316e-05  38.7435        248.489        14.9298        84.494305     -515.36006     -53.528251     -417.65854     -52.808067      73.288041    
     15900          12  -48992.779      1.7887605e-06  8.5727311e-05  38.7435        248.489        14.9298        84.499899     -515.36483     -53.558124     -417.67388     -52.819134      73.304442    
     16000          12  -48992.779      1.8030959e-06  8.4143503e-05  38.7435        248.489        14.9298        84.503096     -515.36823     -53.57986      -417.68705     -52.826983      73.314786    
     16100          12  -48992.779      1.8155088e-06  8.2409734e-05  38.7435        248.489        14.9298        84.505643     -515.3718      -53.603134     -417.7031      -52.835198      73.324315    
     16200          12  -48992.779      1.8249902e-06  8.0553007e-05  38.7435        248.489        14.9298        84.507217     -515.37544     -53.627358     -417.72216     -52.843531      73.332389    
     16300          12  -48992.779      1.8297584e-06  7.9079388e-05  38.7435        248.489        14.9298        84.507593     -515.37819     -53.646031     -417.73862     -52.849797      73.337218    
     16400          12  -48992.779      1.8323482e-06  7.7329444e-05  38.7435        248.489        14.9298        84.507034     -515.38131     -53.667631     -417.7597      -52.856873      73.341194    
     16500          12  -48992.779      1.8316477e-06  7.5641374e-05  38.7435        248.489        14.9298        84.505412     -515.38416     -53.687817     -417.7816      -52.863308      73.343178    
     16600          12  -48992.779      1.8287335e-06  7.4249773e-05  38.7435        248.489        14.9298        84.503259     -515.38639     -53.703928     -417.80074     -52.868317      73.343445    
     16700          12  -48992.779      1.8232762e-06  7.2745964e-05  38.7435        248.489        14.9298        84.500087     -515.38869     -53.720852     -417.82259     -52.873454      73.342363    
     16800          12  -48992.779      1.8136966e-06  7.0951887e-05  38.7435        248.489        14.9298        84.495122     -515.39127     -53.740326     -417.85015     -52.879202      73.339204    
     16900          12  -48992.779      1.8052504e-06  6.9726565e-05  38.7435        248.489        14.9298        84.490961     -515.39293     -53.753127     -417.86988     -52.882877      73.335848    
     17000          12  -48992.779      1.7941796e-06  6.8368987e-05  38.7435        248.489        14.9298        84.485608     -515.39467     -53.766877     -417.89263     -52.886733      73.331014    
     17100          12  -48992.779      1.7802403e-06  6.6923562e-05  38.7435        248.489        14.9298        84.479021     -515.39642     -53.780972     -417.91784     -52.89058       73.324558    
     17200          12  -48992.779      1.7649773e-06  6.5535373e-05  38.7435        248.489        14.9298        84.471825     -515.398       -53.79395      -417.94296     -52.894024      73.3171      
     17300          12  -48992.779      1.7497974e-06  6.429851e-05   38.7435        248.489        14.9298        84.464654     -515.39931     -53.805054     -417.96612     -52.89689       73.309385    
     17400          12  -48992.779      1.7321451e-06  6.2990073e-05  38.7435        248.489        14.9298        84.456268     -515.40061     -53.816312     -417.99139     -52.899715      73.300122    
     17500          12  -48992.779      1.7161109e-06  6.1891226e-05  38.7435        248.489        14.9298        84.448588     -515.40163     -53.825342     -418.01318     -52.901918      73.291479    
     17600          12  -48992.779      1.6950925e-06  6.0555795e-05  38.7435        248.489        14.9298        84.438438     -515.40279     -53.835829     -418.0404      -52.904404      73.279898    
     17700          12  -48992.779      1.6747354e-06  5.9352538e-05  38.7435        248.489        14.9298        84.428488     -515.40374     -53.844776     -418.0656      -52.906454      73.268422    
     17800          12  -48992.779      1.6573833e-06  5.8382427e-05  38.7435        248.489        14.9298        84.419914     -515.40446     -53.85162      -418.08634     -52.907976      73.258469    
     17900          12  -48992.779      1.6367468e-06  5.727977e-05   38.7435        248.489        14.9298        84.409542     -515.40521     -53.859017     -418.11039     -52.909572      73.246379    
     18000          12  -48992.779      1.6116355e-06  5.6006094e-05  38.7435        248.489        14.9298        84.396712     -515.40599     -53.867026     -418.13879     -52.911234      73.231378    
     18100          12  -48992.779      1.5939057e-06  5.5148165e-05  38.7435        248.489        14.9298        84.387545     -515.40647     -53.872081     -418.15827     -52.912245      73.220645    
     18200          12  -48992.779      1.5757185e-06  5.4298944e-05  38.7435        248.489        14.9298        84.378046     -515.40691     -53.876811     -418.17783     -52.913159      73.20952     
     18300          12  -48992.779      1.550022e-06   5.3142853e-05  38.7435        248.489        14.9298        84.364406     -515.40744     -53.882799     -418.20489     -52.914267      73.193558    
     18400          12  -48992.779      1.5322698e-06  5.2368142e-05  38.7435        248.489        14.9298        84.354823     -515.40775     -53.886499     -418.22324     -52.914919      73.182359    
     18500          12  -48992.779      1.5095734e-06  5.1407836e-05  38.7435        248.489        14.9298        84.342396     -515.4081      -53.890757     -418.24633     -52.915633      73.167861    
     18600          12  -48992.779      1.4855951e-06  5.0424156e-05  38.7435        248.489        14.9298        84.329048     -515.4084      -53.894716     -418.27031     -52.916253      73.152326    
     18700          12  -48992.779      1.4673298e-06  4.9692218e-05  38.7435        248.489        14.9298        84.31873      -515.40859     -53.897382     -418.28829     -52.916641      73.140351    
     18782          12  -48992.779      1.4477292e-06  4.8899136e-05  38.7435        248.489        14.9298        84.30713      -515.40877     -53.900011     -418.308       -52.916994      73.126923    
Loop time of 270.99 on 2 procs for 9329 steps with 11052 atoms

98.9% CPU use with 2 MPI tasks x 1 OpenMP threads

Minimization stats:
  Stopping criterion = force tolerance
  Energy initial, next-to-last, final = 
     -48992.7777184626  -48992.7790827835  -48992.7790827543
  Force two-norm initial, final = 5.7726075e-05 4.8899136e-05
  Force max component initial, final = 1.0584618e-06 1.4477292e-06
  Final line search alpha, max atom move = 0 0
  Iterations, force evaluations = 9329 9840

MPI task timing breakdown:
Section |  min time  |  avg time  |  max time  |%varavg| %total
---------------------------------------------------------------
Pair    | 213.01     | 217.39     | 221.76     |  29.7 | 80.22
Neigh   | 0          | 0          | 0          |   0.0 |  0.00
Comm    | 2.3202     | 6.6835     | 11.047     | 168.8 |  2.47
Output  | 0.14351    | 0.15198    | 0.16046    |   2.2 |  0.06
Modify  | 28.703     | 28.71      | 28.718     |   0.1 | 10.59
Other   |            | 18.06      |            |       |  6.66

Nlocal:           5526 ave        5544 max        5508 min
Histogram: 1 0 0 0 0 0 0 0 0 1
Nghost:           8594 ave        8631 max        8557 min
Histogram: 1 0 0 0 0 0 0 0 0 1
Neighs:         234672 ave      235448 max      233896 min
Histogram: 1 0 0 0 0 0 0 0 0 1

Total # of neighbors = 469344
Ave neighs/atom = 42.466884
Neighbor list builds = 0
Dangerous builds = 0
write_data /data/home/yazhuo/Project/GBclaw/projects/proj-20260927-164bf2/artifacts/lammps/neb/neb-20260927-045814-1d9965/neb.replica.$i.final.lmp nocoeff
write_data /data/home/yazhuo/Project/GBclaw/projects/proj-20260927-164bf2/artifacts/lammps/neb/neb-20260927-045814-1d9965/neb.replica.12.final.lmp nocoeff
System init for write_data ...
Total wall time: 0:09:07
