LAMMPS (30 Mar 2026)
Processor partition = 4
OMP_NUM_THREADS environment is not set. Defaulting to 1 thread.
  using 1 OpenMP thread(s) per MPI task
clear
OMP_NUM_THREADS environment is not set. Defaulting to 1 thread.
  using 1 OpenMP thread(s) per MPI task
units metal
dimension 3
atom_style atomic
boundary p p p
atom_modify map array
read_data "/data/home/yazhuo/Project/GBclaw/projects/proj-20260927-164bf2/artifacts/lammps/neb/neb-20260927-045814-1d9965/inputs/initial.lmp"
Reading data file ...
  orthogonal box = (-19.37175 -124.2445 -7.4649) to (19.37175 124.2445 7.4649)
  1 by 2 by 1 MPI processor grid
  reading atoms ...
  11052 atoms
  read_data CPU = 0.045 seconds
neighbor 1.0 bin
neigh_modify delay 0 every 1 check yes
pair_style adp
pair_coeff * * "/data/home/yazhuo/Project/GBclaw/src/tools/potentials/NiCr.adp" Ni
group top_boundary empty
0 atoms in group top_boundary
group top_boundary id 5180 5151 5159 5109 5117 5067 5075 5025 5033 4992 5184 5160 5118 5076 5034 5181 5154 5156 5157 5112 5114 5115 5070 5072 5073 5028 5030 5031 4990 4991 5182 5155 5113 5071 5029 5175 5176 5141 5144 5146 5147 5099 5102 5104 5105 5057 5060 5062 5063 5015 5018 5020 5021 4985 4986 5177 5183 5145 5158 5103 5116 5061 5074 5019 5032 5168 5169 5129 5132 5134 5087 5090 5092 5045 5048 5050 5003 5006 5008 4980 5170 5178 5133 5148 5091 5106 5049 5064 5007 5022 11027 11048 10985 11019 10943 10977 10901 10935 10859 10893
100 atoms in group top_boundary
group top_boundary id 10818 10851 11052 11028 10986 10944 10902 10860 11024 11025 11049 10982 10983 11022 10940 10941 10980 10898 10899 10938 10856 10857 10896 10816 10817 10854 11050 11023 10981 10939 10897 10855 11014 11015 11043 11044 10972 10973 11009 11012 10930 10931 10967 10970 10888 10889 10925 10928 10846 10847 10883 10886 10811 10812 10841 10844 11045 11051 11013 11026 10971 10984 10929 10942 10887 10900 10845 10858 11002 11036 11037 10960 10997 11000 10918 10955 10958 10876 10913 10916 10834 10871 10874 10806 10829 10832 11038 11046 11001 11016 10959 10974 10917 10932 10875 10890 10833 10848
198 atoms in group top_boundary
group bottom_boundary empty
0 atoms in group bottom_boundary
group bottom_boundary id 174 125 83 123 84 32 34 10 177 139 175 140 85 87 46 12 47 160 111 124 68 69 126 67 21 33 35 6 7 164 176 128 129 178 127 73 86 88 37 38 9 11 36 152 161 105 110 58 59 109 112 57 70 15 19 20 22 2 3 156 163 114 115 162 165 113 130 63 71 72 74 24 25 5 8 23 39 151 153 104 56 103 106 55 60 13 14 16 1 155 108 154 157 107 116 61 62 64 18 4
100 atoms in group bottom_boundary
group bottom_boundary id 17 26 5345 5390 5303 5343 5304 5247 5249 5214 5190 5215 5391 5359 5360 5307 5263 5305 5264 5216 5218 5331 5344 5378 5288 5289 5346 5287 5235 5248 5250 5203 5204 5188 5189 5202 5392 5347 5348 5349 5293 5306 5252 5253 5308 5251 5208 5217 5219 5325 5330 5372 5379 5278 5279 5329 5332 5277 5290 5229 5233 5234 5236 5194 5195 5186 5187 5193 5205 5380 5381 5333 5334 5335 5350 5283 5292 5238 5239 5291 5294 5237 5254 5199 5206 5207 5209 5324 5371 5373 5276 5323 5326 5275 5280 5227 5228 5230 5192 5185
200 atoms in group bottom_boundary
group bottom_boundary id 5191 5196 5374 5375 5327 5328 5336 5282 5232 5281 5284 5231 5240 5197 5198 5200
216 atoms in group bottom_boundary
group fixed_xy union top_boundary bottom_boundary
414 atoms in group fixed_xy
variable __gb_neb_count_top_boundary equal count(top_boundary)
variable __gb_neb_count_top_boundary delete
variable __gb_neb_count_bottom_boundary equal count(bottom_boundary)
variable __gb_neb_count_bottom_boundary delete
min_style fire
timestep 0.01
fix neb_path all neb 1
fix hold_boundary_xy fixed_xy setforce 0.0 0.0 NULL
thermo 100
thermo_style custom step part pe fmax fnorm lx ly lz pxx pyy pzz pxy pxz pyz
thermo_modify flush yes
variable i equal part
dump neb_dump all custom 1000 /data/home/yazhuo/Project/GBclaw/projects/proj-20260927-164bf2/artifacts/lammps/neb/neb-20260927-045814-1d9965/neb.replica.$i.lammpstrj id type x y z ix iy iz fx fy fz
dump neb_dump all custom 1000 /data/home/yazhuo/Project/GBclaw/projects/proj-20260927-164bf2/artifacts/lammps/neb/neb-20260927-045814-1d9965/neb.replica.4.lammpstrj id type x y z ix iy iz fx fy fz
dump_modify neb_dump sort id
run 0
WARNING: No fixes with time integration, atoms won't move
For more information see https://docs.lammps.org/err0028 (src/verlet.cpp:60)
Neighbor list info ...
  update: every = 1 steps, delay = 0 steps, check = yes
  max neighbors/atom: 2000, page size: 100000
  master list distance cutoff = 6.168302
  ghost atom cutoff = 6.168302
  binsize = 3.084151, bins = 13 81 5
  1 neighbor lists, perpetual/occasional/extra = 1 0 0
  (1) pair adp, perpetual
      attributes: half, newton on
      pair build: half/bin/atomonly/newton
      stencil: half/bin/3d
      bin: standard
Per MPI rank memory allocation (min/avg/max) = 7.422 | 7.43 | 7.438 Mbytes
   Step        Part         PotEng          Fmax          Fnorm            Lx             Ly             Lz            Pxx            Pyy            Pzz            Pxy            Pxz            Pyz      
         0           4  -48992.796      0.0024845783   0.10363051     38.7435        248.489        14.9298        0.19007438     2.918104      -3.7172695      0.3830234      3.2510357e-05 -0.0010155383 
Loop time of 3.2825e-06 on 2 procs for 0 steps with 11052 atoms

76.2% CPU use with 2 MPI tasks x 1 OpenMP threads

MPI task timing breakdown:
Section |  min time  |  avg time  |  max time  |%varavg| %total
---------------------------------------------------------------
Pair    | 0          | 0          | 0          |   0.0 |  0.00
Neigh   | 0          | 0          | 0          |   0.0 |  0.00
Comm    | 0          | 0          | 0          |   0.0 |  0.00
Output  | 0          | 0          | 0          |   0.0 |  0.00
Modify  | 0          | 0          | 0          |   0.0 |  0.00
Other   |            | 3.283e-06  |            |       |100.00

Nlocal:           5526 ave        5544 max        5508 min
Histogram: 1 0 0 0 0 0 0 0 0 1
Nghost:           7959 ave        8011 max        7907 min
Histogram: 1 0 0 0 0 0 0 0 0 1
Neighs:         234603 ave      234962 max      234244 min
Histogram: 1 0 0 0 0 0 0 0 0 1

Total # of neighbors = 469206
Ave neighs/atom = 42.454397
Neighbor list builds = 0
Dangerous builds = 0
neb 0 0.0001 10000 10000 100 final "/data/home/yazhuo/Project/GBclaw/projects/proj-20260927-164bf2/artifacts/lammps/neb/neb-20260927-045814-1d9965/inputs/final.neb.coords" verbosity default
  Parameters for fire:
    dmax  delaystep dtgrow dtshrink alpha0 alphashrink tmax tmin   integrator   halfstepback   abcfire  
     0.1     20      1.1     0.5     0.25     0.99      10  0.02 eulerimplicit      yes          no     
Per MPI rank memory allocation (min/avg/max) = 9.901 | 9.909 | 9.917 Mbytes
   Step        Part         PotEng          Fmax          Fnorm            Lx             Ly             Lz            Pxx            Pyy            Pzz            Pxy            Pxz            Pyz      
         0           4  -48992.392      0.2283129      1.9186354      38.7435        248.489        14.9298        31.042809     -109.69478     -78.507455     -20.601562     -1.8561544     -6.9450673    
       100           4  -48992.778      0.00034749368  0.0071344842   38.7435        248.489        14.9298        17.661254     -85.452825     -35.646024      10.371103     -23.184308     -46.301256    
       200           4  -48992.778      0.00014115209  0.0069094108   38.7435        248.489        14.9298        17.276654     -80.870556     -34.920028      12.798609     -18.677506     -60.062033    
       300           4  -48992.778      0.00011491372  0.0062633014   38.7435        248.489        14.9298        16.982839     -78.132436     -34.421347      13.918334     -14.855905     -71.687675    
       400           4  -48992.778      0.00064254397  0.0058856655   38.7435        248.489        14.9298        16.713952     -75.985827     -33.971668      14.585437     -11.252907     -82.694454    
       500           4  -48992.778      0.0016321262   0.0090941361   38.7435        248.489        14.9298        16.430691     -74.073152     -33.504364      14.990096     -7.8202696     -93.158213    
       600           4  -48992.779      0.00010102353  0.0039454176   38.7435        248.489        14.9298        16.197876     -72.721753     -33.121243      15.124858     -5.433098      -100.38103    
       700           4  -48992.779      9.003965e-05   0.0034881443   38.7435        248.489        14.9298        15.955731     -71.407135     -32.728025      15.192687     -3.1914197     -107.13589    
       800           4  -48992.779      0.00015635104  0.0033612184   38.7435        248.489        14.9298        15.639518     -69.77413      -32.216039      15.208085     -0.44713253    -115.42543    
       900           4  -48992.779      6.418734e-05   0.0030576002   38.7435        248.489        14.9298        15.438282     -68.742615     -31.888829      15.21354       1.4597741     -121.32634    
      1000           4  -48992.779      6.6738659e-05  0.0026995679   38.7435        248.489        14.9298        15.248293     -67.771792     -31.580607      15.213027      3.3443311     -127.2648     
      1100           4  -48992.779      7.9519408e-05  0.0026172323   38.7435        248.489        14.9298        15.036542     -66.71105      -31.234114      15.173761      5.3070712     -133.48282    
      1200           4  -48992.779      4.9143975e-05  0.0024250973   38.7435        248.489        14.9298        14.910269     -66.050819     -31.025594      15.165034      6.7223543     -138.13326    
      1300           4  -48992.779      5.0015223e-05  0.0021955954   38.7435        248.489        14.9298        14.787753     -65.415792     -30.821631      15.134644      8.0114038     -142.39164    
      1400           4  -48992.779      5.1298815e-05  0.0019563381   38.7435        248.489        14.9298        14.635259     -64.634857     -30.565333      15.065494      9.4579931     -147.17141    
      1500           4  -48992.779      9.3394887e-05  0.0017743642   38.7435        248.489        14.9298        14.482373     -63.855083     -30.304832      14.968885      10.783174     -151.55522    
      1600           4  -48992.779      5.109111e-05   0.0016262075   38.7435        248.489        14.9298        14.358633     -63.222311     -30.0923        14.874531      11.792754     -154.90356    
      1700           4  -48992.779      5.0846544e-05  0.0014775148   38.7435        248.489        14.9298        14.205641     -62.434494     -29.826359      14.740011      12.982078     -158.86172    
      1800           4  -48992.779      4.929149e-05   0.001357289    38.7435        248.489        14.9298        14.069755     -61.727556     -29.587079      14.604758      13.992188     -162.23732    
      1900           4  -48992.779      6.095383e-05   0.0012633692   38.7435        248.489        14.9298        13.94885      -61.092178     -29.372033      14.472659      14.858501     -165.14259    
      2000           4  -48992.779      4.7438661e-05  0.0011714787   38.7435        248.489        14.9298        13.832433     -60.474335     -29.163107      14.335022      15.66383      -167.85136    
      2100           4  -48992.779      6.7550174e-05  0.0010856477   38.7435        248.489        14.9298        13.695575     -59.74021      -28.914702      14.160433      16.574395     -170.92161    
      2200           4  -48992.779      4.5559688e-05  0.0010174273   38.7435        248.489        14.9298        13.600447     -59.224808     -28.740343      14.031278      17.185007     -172.98396    
      2300           4  -48992.779      4.4403536e-05  0.000947005    38.7435        248.489        14.9298        13.478859     -58.559536     -28.515567      13.857343      17.9417       -175.54378    
      2400           4  -48992.779      4.3016003e-05  0.00088069573  38.7435        248.489        14.9298        13.3501       -57.844735     -28.274699      13.661957      18.721178     -178.19018    
      2500           4  -48992.779      4.0140653e-05  0.00083163353  38.7435        248.489        14.9298        13.269162     -57.386539     -28.121534      13.532235      19.20825      -179.85646    
      2600           4  -48992.779      3.7139574e-05  0.00078656577  38.7435        248.489        14.9298        13.19442      -56.952335     -27.977915      13.40602       19.667484     -181.44704    
      2700           4  -48992.779      3.1652168e-05  0.00072979175  38.7435        248.489        14.9298        13.10702      -56.416009     -27.805124      13.244544      20.24673      -183.50848    
      2800           4  -48992.779      2.6753794e-05  0.00070017649  38.7435        248.489        14.9298        13.058419     -56.086472     -27.703958      13.140627      20.623568     -184.90789    
      2900           4  -48992.779      2.0643577e-05  0.00068623972  38.7435        248.489        14.9298        13.018989     -55.767375     -27.613735      13.033643      21.02568      -186.48402    
      3000           4  -48992.779      1.5806571e-05  0.00068484201  38.7435        248.489        14.9298        12.999148     -55.51216      -27.553426      12.93816       21.405733     -188.08835    
      3100           4  -48992.779      1.3365608e-05  0.0006791431   38.7435        248.489        14.9298        12.996828     -55.380062     -27.530224      12.881465      21.640122     -189.14376    
      3200           4  -48992.779      1.3023443e-05  0.0006652625   38.7435        248.489        14.9298        13.00117      -55.277521     -27.518344      12.831294      21.848481     -190.12566    
      3300           4  -48992.779      1.2378826e-05  0.00063455523  38.7435        248.489        14.9298        13.012667     -55.168813     -27.512549      12.770291      22.093986     -191.32823    
      3400           4  -48992.779      1.1738684e-05  0.00060151127  38.7435        248.489        14.9298        13.024759     -55.089659     -27.511862      12.720783      22.28085      -192.26944    
      3500           4  -48992.779      1.102181e-05   0.00056316724  38.7435        248.489        14.9298        13.038072     -55.011083     -27.512366      12.668796      22.462738     -193.19981    
      3600           4  -48992.779      1.0191808e-05  0.00051795316  38.7435        248.489        14.9298        13.052521     -54.922973     -27.512233      12.60916       22.653169     -194.18232    
      3700           4  -48992.779      9.5674213e-06  0.0004838305   38.7435        248.489        14.9298        13.062438     -54.854548     -27.510703      12.563061      22.788239     -194.88045    
      3800           4  -48992.779      8.96042e-06    0.00045091987  38.7435        248.489        14.9298        13.071231     -54.783614     -27.507551      12.516018      22.916665     -195.54278    
      3900           4  -48992.778      8.5069174e-06  0.00040033305  38.7435        248.489        14.9298        13.082861     -54.661474     -27.498475      12.437314      23.113594     -196.55145    
      4000           4  -48992.778      8.6976356e-06  0.00036862736  38.7435        248.489        14.9298        13.088671     -54.573687     -27.489368      12.382682      23.239107     -197.18712    
      4100           4  -48992.778      8.8949936e-06  0.00034011488  38.7435        248.489        14.9298        13.092714     -54.48334      -27.478004      12.328071      23.356819     -197.77634    
      4200           4  -48992.778      9.0959995e-06  0.00031152649  38.7435        248.489        14.9298        13.095373     -54.379        -27.462857      12.266778      23.481373     -198.39139    
      4300           4  -48992.778      9.2693641e-06  0.00028331204  38.7435        248.489        14.9298        13.096247     -54.256789     -27.442854      12.197051      23.614812     -199.03963    
      4400           4  -48992.778      9.3669215e-06  0.00026409736  38.7435        248.489        14.9298        13.095514     -54.158642     -27.425343      12.142421      23.714072     -199.51411    
      4500           4  -48992.778      9.4362066e-06  0.00024344219  38.7435        248.489        14.9298        13.09313      -54.03448      -27.401738      12.074738      23.831645     -200.06742    
      4600           4  -48992.778      9.4538794e-06  0.0002292834   38.7435        248.489        14.9298        13.090202     -53.934223     -27.381671      12.021092      23.921025     -200.48146    
      4700           4  -48992.778      9.4375764e-06  0.00021601226  38.7435        248.489        14.9298        13.086134     -53.824907     -27.358915      11.963496      24.013571     -200.90389    
      4800           4  -48992.778      9.3793326e-06  0.00020435761  38.7435        248.489        14.9298        13.081207     -53.713173     -27.334896      11.905426      24.103754     -201.30954    
      4900           4  -48992.778      9.2604162e-06  0.00019262181  38.7435        248.489        14.9298        13.0746       -53.581908     -27.305863      11.838073      24.204775     -201.75694    
      5000           4  -48992.778      9.1220201e-06  0.00018412965  38.7435        248.489        14.9298        13.068588     -53.473255     -27.28129       11.782905      24.284872     -202.10651    
      5100           4  -48992.778      8.9338035e-06  0.00017582912  38.7435        248.489        14.9298        13.06164      -53.355461     -27.254228      11.723563      24.368625     -202.46742    
      5200           4  -48992.778      8.7051083e-06  0.00016810172  38.7435        248.489        14.9298        13.054253     -53.236239     -27.226485      11.663891      24.45044      -202.81554    
      5300           4  -48992.778      8.4918809e-06  0.00016215231  38.7435        248.489        14.9298        13.048092     -53.13986      -27.20387       11.615864      24.51463      -203.08575    
      5400           4  -48992.778      8.2196868e-06  0.0001555321   38.7435        248.489        14.9298        13.040946     -53.030099     -27.177991      11.561309      24.585862     -203.38288    
      5500           4  -48992.778      7.8939751e-06  0.00014846447  38.7435        248.489        14.9298        13.033221     -52.912551     -27.150206      11.502958      24.660104     -203.68971    
      5600           4  -48992.778      7.6272304e-06  0.00014308132  38.7435        248.489        14.9298        13.027419     -52.824116     -27.129313      11.459044      24.714667     -203.91353    
      5700           4  -48992.778      7.3267585e-06  0.00013728856  38.7435        248.489        14.9298        13.021387     -52.731262     -27.107438      11.412862      24.770877     -204.14283    
      5800           4  -48992.779      6.9684643e-06  0.00013062189  38.7435        248.489        14.9298        13.014832     -52.628289     -27.083316      11.361482      24.831997     -204.39092    
      5900           4  -48992.779      6.6498963e-06  0.00012481803  38.7435        248.489        14.9298        13.009519     -52.542201     -27.063317      11.318326      24.882173     -204.59383    
      6000           4  -48992.779      6.3343129e-06  0.00011912237  38.7435        248.489        14.9298        13.00469      -52.460929     -27.044626      11.277357      24.928822     -204.78205    
      6100           4  -48992.779      5.9945129e-06  0.00011302059  38.7435        248.489        14.9298        12.999965     -52.377339     -27.025643      11.234924      24.97611      -204.97262    
      6200           4  -48992.779      5.7036704e-06  0.00010780441  38.7435        248.489        14.9298        12.996312     -52.308716     -27.010284      11.199813      25.014433     -205.12704    
      6300           4  -48992.779      5.3339785e-06  0.00010117261  38.7435        248.489        14.9298        12.992177     -52.224863     -26.991848      11.156501      25.0607       -205.31367    
      6400           4  -48992.779      5.0069348e-06  9.5288546e-05  38.7435        248.489        14.9298        12.98902      -52.153634     -26.976541      11.119273      25.099523     -205.47067    
      6500           4  -48992.779      4.7474996e-06  9.0605877e-05  38.7435        248.489        14.9298        12.986848     -52.09873      -26.965004      11.090251      25.129166     -205.59094    
      6600           4  -48992.779      4.4557492e-06  8.5325077e-05  38.7435        248.489        14.9298        12.98477      -52.038629     -26.952674      11.058109      25.161354     -205.72206    
      6700           4  -48992.779      4.1123448e-06  7.9088352e-05  38.7435        248.489        14.9298        12.982843     -51.969921     -26.939026      11.020802      25.197829     -205.87152    
      6800           4  -48992.779      3.865186e-06   7.4584239e-05  38.7435        248.489        14.9298        12.981836     -51.921835     -26.929817      10.994262      25.223159     -205.97604    
      6900           4  -48992.779      3.6288522e-06  7.0267404e-05  38.7435        248.489        14.9298        12.981182     -51.876727     -26.921467      10.968999      25.246785     -206.0742     
      7000           4  -48992.779      3.3662686e-06  6.546089e-05   38.7435        248.489        14.9298        12.980838     -51.827638     -26.912747      10.941041      25.272356     -206.18131    
      7100           4  -48992.779      3.1571228e-06  6.1626388e-05  38.7435        248.489        14.9298        12.980877     -51.789299     -26.906244      10.918814      25.292231     -206.26531    
      7200           4  -48992.779      2.9041702e-06  5.6985468e-05  38.7435        248.489        14.9298        12.981319     -51.74377      -26.898916      10.891913      25.315739     -206.36567    
      7300           4  -48992.779      2.6955063e-06  5.3155971e-05  38.7435        248.489        14.9298        12.982053     -51.706856     -26.893349      10.869623      25.334729     -206.4477     
      7400           4  -48992.779      2.5159753e-06  4.986437e-05   38.7435        248.489        14.9298        12.982974     -51.675582     -26.88893       10.850356      25.350774     -206.51778    
      7500           4  -48992.779      2.3394399e-06  4.6629848e-05  38.7435        248.489        14.9298        12.984162     -51.645239     -26.884937      10.831283      25.366311     -206.58642    
      7600           4  -48992.779      2.1311954e-06  4.2818469e-05  38.7435        248.489        14.9298        12.985966     -51.609945     -26.880712      10.808555      25.384355     -206.66724    
      7700           4  -48992.779      1.9876565e-06  4.0199881e-05  38.7435        248.489        14.9298        12.987496     -51.585954     -26.878143      10.792714      25.396608     -206.72292    
      7800           4  -48992.779      1.8477003e-06  3.7649539e-05  38.7435        248.489        14.9298        12.989235     -51.562773     -26.87592       10.77707       25.408443     -206.77739    
      7900           4  -48992.779      1.7001582e-06  3.4966515e-05  38.7435        248.489        14.9298        12.991363     -51.538586     -26.873912      10.760343      25.420793     -206.83504    
      8000           4  -48992.779      1.572901e-06   3.2659877e-05  38.7435        248.489        14.9298        12.993466     -51.517947     -26.872485      10.745695      25.431338     -206.88502    
      8100           4  -48992.779      1.4589222e-06  3.059688e-05   38.7435        248.489        14.9298        12.995588     -51.4996       -26.871467      10.732347      25.440722     -206.93015    
      8200           4  -48992.779      1.3420954e-06  2.8485362e-05  38.7435        248.489        14.9298        12.998024     -51.480936     -26.870708      10.718406      25.450283     -206.97684    
      8300           4  -48992.779      1.2462904e-06  2.6757977e-05  38.7435        248.489        14.9298        13.00024      -51.465758     -26.870323      10.706764      25.458072     -207.01548    
      8400           4  -48992.779      1.1482271e-06  2.4990144e-05  38.7435        248.489        14.9298        13.002735     -51.450311     -26.870171      10.694601      25.466017     -207.05549    
      8500           4  -48992.779      1.0748999e-06  2.3668162e-05  38.7435        248.489        14.9298        13.004768     -51.438822     -26.870234      10.685323      25.471939     -207.08576    
      8600           4  -48992.779      1.0036086e-06  2.2381764e-05  38.7435        248.489        14.9298        13.006897     -51.427703     -26.870456      10.676133      25.477684     -207.11552    
      8700           4  -48992.779      9.144634e-07   2.0769317e-05  38.7435        248.489        14.9298        13.009797     -51.413864     -26.87098       10.664367      25.484858     -207.15328    
      8800           4  -48992.779      8.3706097e-07  1.9362486e-05  38.7435        248.489        14.9298        13.012558     -51.401894     -26.871685      10.653859      25.491086     -207.18667    
      8900           4  -48992.779      7.860264e-07   1.8431023e-05  38.7435        248.489        14.9298        13.014515     -51.394035     -26.872291      10.64677       25.495189     -207.20901    
      9000           4  -48992.779      7.2330336e-07  1.7278243e-05  38.7435        248.489        14.9298        13.017086     -51.384392     -26.873203      10.637849      25.50024      -207.2369     
      9100           4  -48992.779      6.6211697e-07  1.6143079e-05  38.7435        248.489        14.9298        13.019791     -51.375009     -26.874293      10.628901      25.505176     -207.26462    
      9200           4  -48992.779      6.187213e-07   1.5330167e-05  38.7435        248.489        14.9298        13.02184      -51.368368     -26.875198      10.622392      25.508683     -207.28461    
      9300           4  -48992.779      5.7675401e-07  1.4535311e-05  38.7435        248.489        14.9298        13.023936     -51.361949     -26.876188      10.615948      25.512084     -207.30426    
      9400           4  -48992.779      5.2873802e-07  1.3612921e-05  38.7435        248.489        14.9298        13.026492     -51.354611     -26.877477      10.608372      25.515988     -207.32716    
      9453           4  -48992.779      5.1267893e-07  1.3300627e-05  38.7435        248.489        14.9298        13.027387     -51.352157     -26.877949      10.605784      25.517298     -207.33493    
Loop time of 275.698 on 2 procs for 9453 steps with 11052 atoms

98.5% CPU use with 2 MPI tasks x 1 OpenMP threads

Minimization stats:
  Stopping criterion = force tolerance
  Energy initial, next-to-last, final = 
     -48992.3918561865  -48992.7785946076  -48992.7785946082
  Force two-norm initial, final = 1.9186354 1.3300627e-05
  Force max component initial, final = 0.2283129 5.1267893e-07
  Final line search alpha, max atom move = 0 0
  Iterations, force evaluations = 9453 9970

MPI task timing breakdown:
Section |  min time  |  avg time  |  max time  |%varavg| %total
---------------------------------------------------------------
Pair    | 229.96     | 231.46     | 232.96     |   9.9 | 83.95
Neigh   | 0          | 0          | 0          |   0.0 |  0.00
Comm    | 5.4432     | 6.922      | 8.4007     |  56.2 |  2.51
Output  | 0.15109    | 0.15767    | 0.16425    |   1.7 |  0.06
Modify  | 23.201     | 23.215     | 23.229     |   0.3 |  8.42
Other   |            | 13.95      |            |       |  5.06

Nlocal:           5526 ave        5544 max        5508 min
Histogram: 1 0 0 0 0 0 0 0 0 1
Nghost:           8591 ave        8628 max        8554 min
Histogram: 1 0 0 0 0 0 0 0 0 1
Neighs:         234648 ave      235550 max      233746 min
Histogram: 1 0 0 0 0 0 0 0 0 1

Total # of neighbors = 469296
Ave neighs/atom = 42.462541
Neighbor list builds = 0
Dangerous builds = 0
  Parameters for fire:
    dmax  delaystep dtgrow dtshrink alpha0 alphashrink tmax tmin   integrator   halfstepback   abcfire  
     0.1     20      1.1     0.5     0.25     0.99      10  0.02 eulerimplicit      yes          no     
Per MPI rank memory allocation (min/avg/max) = 9.901 | 9.909 | 9.917 Mbytes
   Step        Part         PotEng          Fmax          Fnorm            Lx             Ly             Lz            Pxx            Pyy            Pzz            Pxy            Pxz            Pyz      
      9453           4  -48992.779      5.1267893e-07  1.3300627e-05  38.7435        248.489        14.9298        13.027387     -51.352157     -26.877949      10.605784      25.517298     -207.33493    
      9500           4  -48992.779      0.00025073202  0.0069623082   38.7435        248.489        14.9298        13.181257     -51.95523      -27.131967      10.78221       25.26296      -207.06004    
      9600           4  -48992.778      0.00034380878  0.0098000699   38.7435        248.489        14.9298        14.519454     -57.409459     -29.387662      12.301895      23.068556     -204.79266    
      9700           4  -48992.777      0.000310539    0.008940313    38.7435        248.489        14.9298        15.560938     -61.644819     -31.115204      13.458709      21.483651     -203.29564    
      9800           4  -48992.776      0.00025035421  0.0072504636   38.7435        248.489        14.9298        16.687219     -66.202251     -32.96484       14.700904      19.865892     -201.85004    
      9900           4  -48992.776      0.00017440776  0.0050610853   38.7435        248.489        14.9298        17.634885     -70.018501     -34.498953      15.739507      18.56849      -200.73279    
     10000           4  -48992.776      0.00010176527  0.0029506905   38.7435        248.489        14.9298        18.23497      -72.425504     -35.459137      16.389877      17.771735     -200.0615     
     10100           4  -48992.775      3.9135174e-05  0.0011329997   38.7435        248.489        14.9298        18.536838     -73.63094      -35.937419      16.70681       17.377775     -199.74219    
     10200           4  -48992.775      9.9694935e-06  0.0002814366   38.7435        248.489        14.9298        18.601448     -73.88351      -36.034728      16.757379      17.297431     -199.70404    
     10300           4  -48992.775      3.3460695e-05  0.00094489952  38.7435        248.489        14.9298        18.524936     -73.572175     -35.908098      16.655651      17.403713     -199.8301     
     10400           4  -48992.775      4.3959757e-05  0.0012360538   38.7435        248.489        14.9298        18.387315     -73.016553     -35.684192      16.487364      17.593569     -200.03538    
     10500           4  -48992.776      4.130736e-05   0.0011564601   38.7435        248.489        14.9298        18.173319     -72.154509     -35.33752       16.233052      17.890679     -200.34986    
     10600           4  -48992.776      3.0688219e-05  0.00085943487  38.7435        248.489        14.9298        18.028429     -71.571549     -35.103126      16.063814      18.092237     -200.55981    
     10700           4  -48992.776      1.8559967e-05  0.00052373595  38.7435        248.489        14.9298        17.932276     -71.185251     -34.947946      15.953127      18.224137     -200.69235    
     10800           4  -48992.776      6.6494106e-06  0.00019615758  38.7435        248.489        14.9298        17.877092     -70.964314     -34.859238      15.89123       18.295181     -200.7544     
     10900           4  -48992.776      6.8872417e-07  1.3098075e-05  38.7435        248.489        14.9298        17.865792     -70.919983     -34.841524      15.88027       18.302604     -200.74621    
     11000           4  -48992.776      4.7415139e-06  0.00011649101  38.7435        248.489        14.9298        17.877383     -70.967694     -34.860796      15.89574       18.275871     -200.6984     
     11100           4  -48992.776      5.7718894e-06  0.00014380992  38.7435        248.489        14.9298        17.898181     -71.052142     -34.894803      15.921446      18.236183     -200.63651    
     11200           4  -48992.776      4.3237676e-06  0.00010311247  38.7435        248.489        14.9298        17.926325     -71.165952     -34.940617      15.955816      18.182447     -200.55137    
     11300           4  -48992.776      2.6585391e-06  5.7320164e-05  38.7435        248.489        14.9298        17.93801      -71.213052     -34.959612      15.970279      18.157797     -200.50784    
     11400           4  -48992.776      3.1233014e-07  1.5905443e-05  38.7435        248.489        14.9298        17.944882     -71.240525     -34.970803      15.979438      18.137732     -200.46312    
     11500           4  -48992.776      1.2204178e-06  5.3183462e-05  38.7435        248.489        14.9298        17.943332     -71.233937     -34.968342      15.978601      18.132411     -200.43935    
     11600           4  -48992.776      2.3216272e-06  8.2863889e-05  38.7435        248.489        14.9298        17.937078     -71.20824      -34.958276      15.972362      18.134245     -200.42341    
     11700           4  -48992.776      3.0776811e-06  0.00010314823  38.7435        248.489        14.9298        17.924358     -71.15608      -34.937777      15.959017      18.14377      -200.4105     
     11800           4  -48992.776      3.2135286e-06  0.00010634789  38.7435        248.489        14.9298        17.910411     -71.098717     -34.915294      15.944205      18.156167     -200.40235    
     11900           4  -48992.776      3.0766666e-06  0.00010210941  38.7435        248.489        14.9298        17.899539     -71.053747     -34.897758      15.932639      18.1662       -200.39661    
     12000           4  -48992.776      2.784353e-06   9.3419761e-05  38.7435        248.489        14.9298        17.886966     -71.001318     -34.877461      15.919256      18.177801     -200.38902    
     12100           4  -48992.776      2.4948693e-06  8.472766e-05   38.7435        248.489        14.9298        17.875588     -70.953264     -34.859048      15.907085      18.188169     -200.38051    
     12200           4  -48992.776      2.3362407e-06  7.9740114e-05  38.7435        248.489        14.9298        17.867471     -70.918528     -34.845871      15.898301      18.195547     -200.37361    
     12300           4  -48992.776      2.2516636e-06  7.6638534e-05  38.7435        248.489        14.9298        17.858631     -70.880225     -34.831465      15.888556      18.203753     -200.36599    
     12400           4  -48992.776      2.2617799e-06  7.6200844e-05  38.7435        248.489        14.9298        17.851056     -70.847039     -34.819065      15.879995      18.21112      -200.3602     
     12500           4  -48992.776      2.4898504e-06  8.220769e-05   38.7435        248.489        14.9298        17.83879      -70.792924     -34.79891       15.865671      18.223953     -200.35374    
     12600           4  -48992.776      2.4813194e-06  8.0619262e-05  38.7435        248.489        14.9298        17.831373     -70.759867     -34.786642      15.856818      18.232322     -200.35186    
     12700           4  -48992.776      2.6073139e-06  8.3107926e-05  38.7435        248.489        14.9298        17.822147     -70.718762     -34.771372      15.845551      18.243232     -200.35144    
     12800           4  -48992.776      2.7211383e-06  8.5514264e-05  38.7435        248.489        14.9298        17.810548     -70.66688      -34.752116      15.831104      18.257646     -200.35345    
     12900           4  -48992.776      2.7893412e-06  8.6614933e-05  38.7435        248.489        14.9298        17.8016       -70.626712     -34.737225      15.819759      18.269191     -200.35653    
     13000           4  -48992.776      2.8317401e-06  8.7134248e-05  38.7435        248.489        14.9298        17.792491     -70.585651     -34.722028      15.808042      18.281265     -200.36079    
     13100           4  -48992.776      2.8549581e-06  8.7073961e-05  38.7435        248.489        14.9298        17.781292     -70.534911     -34.703295      15.793401      18.296508     -200.36737    
     13200           4  -48992.776      2.8597058e-06  8.6569656e-05  38.7435        248.489        14.9298        17.771176     -70.488802     -34.686322      15.779946      18.310619     -200.37442    
     13300           4  -48992.776      2.8540282e-06  8.5815671e-05  38.7435        248.489        14.9298        17.760979     -70.442039     -34.669162      15.76616       18.325145     -200.38248    
     13400           4  -48992.776      2.845509e-06   8.5102313e-05  38.7435        248.489        14.9298        17.75252      -70.403023     -34.654886      15.75455       18.337419     -200.38987    
     13500           4  -48992.776      2.8410356e-06  8.4002859e-05  38.7435        248.489        14.9298        17.739585     -70.342969     -34.632985      15.736484      18.356563     -200.40233    
     13600           4  -48992.776      2.8204114e-06  8.3312737e-05  38.7435        248.489        14.9298        17.731557     -70.305447     -34.619348      15.725086      18.368672     -200.41077    
     13700           4  -48992.776      2.8078781e-06  8.2452237e-05  38.7435        248.489        14.9298        17.720879     -70.255273     -34.601161      15.709706      18.385025     -200.42277    
     13800           4  -48992.776      2.7937066e-06  8.1569756e-05  38.7435        248.489        14.9298        17.709746     -70.202628     -34.582135      15.693408      18.40237      -200.43621    
     13900           4  -48992.776      2.7827526e-06  8.0933641e-05  38.7435        248.489        14.9298        17.701867     -70.16518      -34.568637      15.681718      18.414816     -200.44625    
     14000           4  -48992.776      2.7700126e-06  8.0268357e-05  38.7435        248.489        14.9298        17.693936     -70.127317     -34.555018      15.669821      18.427484     -200.45679    
     14100           4  -48992.776      2.7468856e-06  7.9185055e-05  38.7435        248.489        14.9298        17.681891     -70.069503     -34.534277      15.651505      18.446981     -200.47358    
     14200           4  -48992.776      2.7288886e-06  7.8420402e-05  38.7435        248.489        14.9298        17.673998     -70.031406     -34.520647      15.639338      18.459924     -200.48508    
     14300           4  -48992.776      2.7040882e-06  7.7428405e-05  38.7435        248.489        14.9298        17.664351     -69.984618     -34.503948      15.624295      18.475912     -200.49961    
     14400           4  -48992.776      2.6748028e-06  7.6324041e-05  38.7435        248.489        14.9298        17.654236     -69.935284     -34.486388      15.608314      18.492875     -200.51542    
     14500           4  -48992.776      2.6514274e-06  7.5480021e-05  38.7435        248.489        14.9298        17.646821     -69.898942     -34.473484      15.596464      18.505435     -200.52734    
     14600           4  -48992.776      2.627094e-06   7.4623875e-05  38.7435        248.489        14.9298        17.63951      -69.862964     -34.460736      15.584671      18.517918     -200.53937    
     14700           4  -48992.776      2.5916307e-06  7.3410241e-05  38.7435        248.489        14.9298        17.629444     -69.813172     -34.443137      15.568247      18.535273     -200.55635    
     14800           4  -48992.776      2.5629798e-06  7.2458281e-05  38.7435        248.489        14.9298        17.621717     -69.774752     -34.429593      15.555495      18.548722     -200.5697     
     14900           4  -48992.776      2.5308992e-06  7.141056e-05   38.7435        248.489        14.9298        17.613354     -69.732983     -34.414902      15.541555      18.563397     -200.58445    
     15000           4  -48992.776      2.4947792e-06  7.0253431e-05  38.7435        248.489        14.9298        17.604273     -69.687398     -34.398909      15.526254      18.579474     -200.60079    
     15100           4  -48992.776      2.4620352e-06  6.9223536e-05  38.7435        248.489        14.9298        17.596315     -69.647254     -34.384859      15.512703      18.593683     -200.61537    
     15200           4  -48992.776      2.4306377e-06  6.8250894e-05  38.7435        248.489        14.9298        17.588897     -69.609676     -34.371736      15.499957      18.607023     -200.62918    
     15300           4  -48992.776      2.3933967e-06  6.7114464e-05  38.7435        248.489        14.9298        17.580357     -69.566218     -34.356593      15.485145      18.622497     -200.64531    
     15400           4  -48992.776      2.3619445e-06  6.616866e-05   38.7435        248.489        14.9298        17.573345     -69.530377     -34.344132      15.472871      18.635294     -200.65874    
     15500           4  -48992.776      2.3249941e-06  6.5070605e-05  38.7435        248.489        14.9298        17.565303     -69.489101     -34.329811      15.458674      18.650069     -200.67432    
     15600           4  -48992.776      2.2890333e-06  6.4014353e-05  38.7435        248.489        14.9298        17.557672     -69.449761     -34.316192      15.445083      18.664186     -200.68929    
     15700           4  -48992.776      2.2571274e-06  6.3086159e-05  38.7435        248.489        14.9298        17.551037     -69.415424     -34.304328      15.433174      18.676535     -200.70242    
     15800           4  -48992.776      2.2223504e-06  6.2082644e-05  38.7435        248.489        14.9298        17.543927     -69.378496     -34.291592      15.42032       18.689842     -200.71662    
     15900           4  -48992.776      2.1823799e-06  6.0938159e-05  38.7435        248.489        14.9298        17.535906     -69.336662     -34.277193      15.4057        18.704949     -200.73278    
     16000           4  -48992.776      2.1519223e-06  6.0071983e-05  38.7435        248.489        14.9298        17.529884     -69.305143     -34.266365      15.394647      18.716352     -200.745      
     16100           4  -48992.776      2.1179163e-06  5.9111022e-05  38.7435        248.489        14.9298        17.523248     -69.270295     -34.254412      15.382388      18.728981     -200.75855    
     16200           4  -48992.776      2.0807737e-06  5.806779e-05   38.7435        248.489        14.9298        17.516105     -69.232655     -34.241524      15.369105      18.742644     -200.77323    
     16300           4  -48992.776      2.0508459e-06  5.7231533e-05  38.7435        248.489        14.9298        17.510414     -69.20257      -34.231239      15.358457      18.753581     -200.78497    
     16400           4  -48992.776      2.014686e-06   5.6225664e-05  38.7435        248.489        14.9298        17.503607     -69.166482     -34.21892       15.345651      18.766719     -200.79908    
     16500           4  -48992.776      1.9791997e-06  5.5242491e-05  38.7435        248.489        14.9298        17.496996     -69.131325     -34.206936      15.333141      18.779537     -200.81284    
     16600           4  -48992.776      1.9495428e-06  5.442403e-05   38.7435        248.489        14.9298        17.491521     -69.102137     -34.197         15.32273       18.790192     -200.82427    
     16700           4  -48992.776      1.9170186e-06  5.3528978e-05  38.7435        248.489        14.9298        17.485559     -69.070272     -34.186166      15.31134       18.801838     -200.83675    
     16800           4  -48992.776      1.8776033e-06  5.2446624e-05  38.7435        248.489        14.9298        17.47839      -69.031854     -34.17312       15.297577      18.815896     -200.85178    
     16900           4  -48992.776      1.8503413e-06  5.169991e-05   38.7435        248.489        14.9298        17.473464     -69.005399     -34.164147      15.28808       18.825587     -200.86213    
     17000           4  -48992.776      1.8197384e-06  5.0863177e-05  38.7435        248.489        14.9298        17.467962     -68.975795     -34.154114      15.277436      18.836442     -200.87369    
     17100           4  -48992.776      1.7866971e-06  4.9961286e-05  38.7435        248.489        14.9298        17.462057     -68.943964     -34.143336      15.265974      18.848125     -200.88611    
     17200           4  -48992.776      1.7545794e-06  4.908618e-05   38.7435        248.489        14.9298        17.456345     -68.913122     -34.132902      15.254851      18.859456     -200.89813    
     17300           4  -48992.776      1.725599e-06   4.8297407e-05  38.7435        248.489        14.9298        17.451211     -68.885355     -34.123515      15.244824      18.869666     -200.90893    
     17400           4  -48992.776      1.6945747e-06  4.7453198e-05  38.7435        248.489        14.9298        17.44573      -68.855683     -34.113489      15.234097      18.880585     -200.92044    
     17500           4  -48992.776      1.6682527e-06  4.6738161e-05  38.7435        248.489        14.9298        17.441099     -68.83058      -34.105011      15.225014      18.889829     -200.93017    
     17600           4  -48992.776      1.6358968e-06  4.5859071e-05  38.7435        248.489        14.9298        17.435414     -68.799741     -34.094601      15.213846      18.901194     -200.94208    
     17700           4  -48992.776      1.6064932e-06  4.5057445e-05  38.7435        248.489        14.9298        17.430242     -68.77166      -34.085124      15.203669      18.91155      -200.95291    
     17800           4  -48992.776      1.5823848e-06  4.4405959e-05  38.7435        248.489        14.9298        17.426044     -68.748854     -34.077429      15.195401      18.919965     -200.96167    
     17900           4  -48992.776      1.5548471e-06  4.3657953e-05  38.7435        248.489        14.9298        17.421227     -68.722685     -34.068599      15.185909      18.929627     -200.97171    
     18000           4  -48992.776      1.5227943e-06  4.2784004e-05  38.7435        248.489        14.9298        17.415607     -68.692146     -34.058296      15.17483       18.940909     -200.98339    
     18100           4  -48992.776      1.5008577e-06  4.2190121e-05  38.7435        248.489        14.9298        17.411789     -68.671397     -34.051294      15.167301      18.948578     -200.9913     
     18200           4  -48992.776      1.4790933e-06  4.1597461e-05  38.7435        248.489        14.9298        17.40798      -68.650709     -34.044312      15.159795      18.956228     -200.99917    
     18300           4  -48992.776      1.4506217e-06  4.0782855e-05  38.7435        248.489        14.9298        17.402746     -68.622287     -34.034716      15.149484      18.966742     -201.00995    
     18400           4  -48992.776      1.4289551e-06  4.0233502e-05  38.7435        248.489        14.9298        17.399216     -68.603129     -34.028247      15.142537      18.973832     -201.01719    
     18500           4  -48992.776      1.4037188e-06  3.9545556e-05  38.7435        248.489        14.9298        17.394794     -68.579145     -34.020143      15.133841      18.982712     -201.02623    
     18600           4  -48992.776      1.3779204e-06  3.8834239e-05  38.7435        248.489        14.9298        17.390219     -68.554361     -34.011763      15.124861      18.991891     -201.03555    
     18700           4  -48992.776      1.3581473e-06  3.8302301e-05  38.7435        248.489        14.9298        17.386796     -68.535832     -34.005495      15.118152      18.998756     -201.04249    
     18782           4  -48992.776      1.3368614e-06  3.772074e-05   38.7435        248.489        14.9298        17.38305      -68.515585     -33.998641      15.110825      19.006259     -201.05006    
Loop time of 270.99 on 2 procs for 9329 steps with 11052 atoms

98.5% CPU use with 2 MPI tasks x 1 OpenMP threads

Minimization stats:
  Stopping criterion = force tolerance
  Energy initial, next-to-last, final = 
     -48992.7785946082  -48992.7761001967  -48992.7761002633
  Force two-norm initial, final = 1.3300627e-05 3.772074e-05
  Force max component initial, final = 5.1267893e-07 1.3368614e-06
  Final line search alpha, max atom move = 0 0
  Iterations, force evaluations = 9329 9840

MPI task timing breakdown:
Section |  min time  |  avg time  |  max time  |%varavg| %total
---------------------------------------------------------------
Pair    | 227.16     | 228.6      | 230.05     |   9.6 | 84.36
Neigh   | 0          | 0          | 0          |   0.0 |  0.00
Comm    | 5.4476     | 6.8783     | 8.3091     |  54.6 |  2.54
Output  | 0.1487     | 0.15766    | 0.16662    |   2.3 |  0.06
Modify  | 22.48      | 22.495     | 22.511     |   0.3 |  8.30
Other   |            | 12.85      |            |       |  4.74

Nlocal:           5526 ave        5544 max        5508 min
Histogram: 1 0 0 0 0 0 0 0 0 1
Nghost:         8540.5 ave        8566 max        8515 min
Histogram: 1 0 0 0 0 0 0 0 0 1
Neighs:         234624 ave      235438 max      233810 min
Histogram: 1 0 0 0 0 0 0 0 0 1

Total # of neighbors = 469248
Ave neighs/atom = 42.458198
Neighbor list builds = 0
Dangerous builds = 0
write_data /data/home/yazhuo/Project/GBclaw/projects/proj-20260927-164bf2/artifacts/lammps/neb/neb-20260927-045814-1d9965/neb.replica.$i.final.lmp nocoeff
write_data /data/home/yazhuo/Project/GBclaw/projects/proj-20260927-164bf2/artifacts/lammps/neb/neb-20260927-045814-1d9965/neb.replica.4.final.lmp nocoeff
System init for write_data ...
Total wall time: 0:09:07
