LAMMPS (30 Mar 2026)
Processor partition = 13
OMP_NUM_THREADS environment is not set. Defaulting to 1 thread.
  using 1 OpenMP thread(s) per MPI task
clear
OMP_NUM_THREADS environment is not set. Defaulting to 1 thread.
  using 1 OpenMP thread(s) per MPI task
units metal
dimension 3
atom_style atomic
boundary p p p
atom_modify map array
read_data "/data/home/yazhuo/Project/GBclaw/projects/proj-20260927-164bf2/artifacts/lammps/neb/neb-20260927-045814-1d9965/inputs/initial.lmp"
Reading data file ...
  orthogonal box = (-19.37175 -124.2445 -7.4649) to (19.37175 124.2445 7.4649)
  1 by 2 by 1 MPI processor grid
  reading atoms ...
  11052 atoms
  read_data CPU = 0.045 seconds
neighbor 1.0 bin
neigh_modify delay 0 every 1 check yes
pair_style adp
pair_coeff * * "/data/home/yazhuo/Project/GBclaw/src/tools/potentials/NiCr.adp" Ni
group top_boundary empty
0 atoms in group top_boundary
group top_boundary id 5180 5151 5159 5109 5117 5067 5075 5025 5033 4992 5184 5160 5118 5076 5034 5181 5154 5156 5157 5112 5114 5115 5070 5072 5073 5028 5030 5031 4990 4991 5182 5155 5113 5071 5029 5175 5176 5141 5144 5146 5147 5099 5102 5104 5105 5057 5060 5062 5063 5015 5018 5020 5021 4985 4986 5177 5183 5145 5158 5103 5116 5061 5074 5019 5032 5168 5169 5129 5132 5134 5087 5090 5092 5045 5048 5050 5003 5006 5008 4980 5170 5178 5133 5148 5091 5106 5049 5064 5007 5022 11027 11048 10985 11019 10943 10977 10901 10935 10859 10893
100 atoms in group top_boundary
group top_boundary id 10818 10851 11052 11028 10986 10944 10902 10860 11024 11025 11049 10982 10983 11022 10940 10941 10980 10898 10899 10938 10856 10857 10896 10816 10817 10854 11050 11023 10981 10939 10897 10855 11014 11015 11043 11044 10972 10973 11009 11012 10930 10931 10967 10970 10888 10889 10925 10928 10846 10847 10883 10886 10811 10812 10841 10844 11045 11051 11013 11026 10971 10984 10929 10942 10887 10900 10845 10858 11002 11036 11037 10960 10997 11000 10918 10955 10958 10876 10913 10916 10834 10871 10874 10806 10829 10832 11038 11046 11001 11016 10959 10974 10917 10932 10875 10890 10833 10848
198 atoms in group top_boundary
group bottom_boundary empty
0 atoms in group bottom_boundary
group bottom_boundary id 174 125 83 123 84 32 34 10 177 139 175 140 85 87 46 12 47 160 111 124 68 69 126 67 21 33 35 6 7 164 176 128 129 178 127 73 86 88 37 38 9 11 36 152 161 105 110 58 59 109 112 57 70 15 19 20 22 2 3 156 163 114 115 162 165 113 130 63 71 72 74 24 25 5 8 23 39 151 153 104 56 103 106 55 60 13 14 16 1 155 108 154 157 107 116 61 62 64 18 4
100 atoms in group bottom_boundary
group bottom_boundary id 17 26 5345 5390 5303 5343 5304 5247 5249 5214 5190 5215 5391 5359 5360 5307 5263 5305 5264 5216 5218 5331 5344 5378 5288 5289 5346 5287 5235 5248 5250 5203 5204 5188 5189 5202 5392 5347 5348 5349 5293 5306 5252 5253 5308 5251 5208 5217 5219 5325 5330 5372 5379 5278 5279 5329 5332 5277 5290 5229 5233 5234 5236 5194 5195 5186 5187 5193 5205 5380 5381 5333 5334 5335 5350 5283 5292 5238 5239 5291 5294 5237 5254 5199 5206 5207 5209 5324 5371 5373 5276 5323 5326 5275 5280 5227 5228 5230 5192 5185
200 atoms in group bottom_boundary
group bottom_boundary id 5191 5196 5374 5375 5327 5328 5336 5282 5232 5281 5284 5231 5240 5197 5198 5200
216 atoms in group bottom_boundary
group fixed_xy union top_boundary bottom_boundary
414 atoms in group fixed_xy
variable __gb_neb_count_top_boundary equal count(top_boundary)
variable __gb_neb_count_top_boundary delete
variable __gb_neb_count_bottom_boundary equal count(bottom_boundary)
variable __gb_neb_count_bottom_boundary delete
min_style fire
timestep 0.01
fix neb_path all neb 1
fix hold_boundary_xy fixed_xy setforce 0.0 0.0 NULL
thermo 100
thermo_style custom step part pe fmax fnorm lx ly lz pxx pyy pzz pxy pxz pyz
thermo_modify flush yes
variable i equal part
dump neb_dump all custom 1000 /data/home/yazhuo/Project/GBclaw/projects/proj-20260927-164bf2/artifacts/lammps/neb/neb-20260927-045814-1d9965/neb.replica.$i.lammpstrj id type x y z ix iy iz fx fy fz
dump neb_dump all custom 1000 /data/home/yazhuo/Project/GBclaw/projects/proj-20260927-164bf2/artifacts/lammps/neb/neb-20260927-045814-1d9965/neb.replica.13.lammpstrj id type x y z ix iy iz fx fy fz
dump_modify neb_dump sort id
run 0
WARNING: No fixes with time integration, atoms won't move
For more information see https://docs.lammps.org/err0028 (src/verlet.cpp:60)
Neighbor list info ...
  update: every = 1 steps, delay = 0 steps, check = yes
  max neighbors/atom: 2000, page size: 100000
  master list distance cutoff = 6.168302
  ghost atom cutoff = 6.168302
  binsize = 3.084151, bins = 13 81 5
  1 neighbor lists, perpetual/occasional/extra = 1 0 0
  (1) pair adp, perpetual
      attributes: half, newton on
      pair build: half/bin/atomonly/newton
      stencil: half/bin/3d
      bin: standard
Per MPI rank memory allocation (min/avg/max) = 7.422 | 7.43 | 7.438 Mbytes
   Step        Part         PotEng          Fmax          Fnorm            Lx             Ly             Lz            Pxx            Pyy            Pzz            Pxy            Pxz            Pyz      
         0          13  -48992.796      0.0024845783   0.10363051     38.7435        248.489        14.9298        0.19007438     2.918104      -3.7172695      0.3830234      3.2510357e-05 -0.0010155383 
Loop time of 2.675e-06 on 2 procs for 0 steps with 11052 atoms

93.5% CPU use with 2 MPI tasks x 1 OpenMP threads

MPI task timing breakdown:
Section |  min time  |  avg time  |  max time  |%varavg| %total
---------------------------------------------------------------
Pair    | 0          | 0          | 0          |   0.0 |  0.00
Neigh   | 0          | 0          | 0          |   0.0 |  0.00
Comm    | 0          | 0          | 0          |   0.0 |  0.00
Output  | 0          | 0          | 0          |   0.0 |  0.00
Modify  | 0          | 0          | 0          |   0.0 |  0.00
Other   |            | 2.675e-06  |            |       |100.00

Nlocal:           5526 ave        5544 max        5508 min
Histogram: 1 0 0 0 0 0 0 0 0 1
Nghost:           7959 ave        8011 max        7907 min
Histogram: 1 0 0 0 0 0 0 0 0 1
Neighs:         234603 ave      234962 max      234244 min
Histogram: 1 0 0 0 0 0 0 0 0 1

Total # of neighbors = 469206
Ave neighs/atom = 42.454397
Neighbor list builds = 0
Dangerous builds = 0
neb 0 0.0001 10000 10000 100 final "/data/home/yazhuo/Project/GBclaw/projects/proj-20260927-164bf2/artifacts/lammps/neb/neb-20260927-045814-1d9965/inputs/final.neb.coords" verbosity default
  Parameters for fire:
    dmax  delaystep dtgrow dtshrink alpha0 alphashrink tmax tmin   integrator   halfstepback   abcfire  
     0.1     20      1.1     0.5     0.25     0.99      10  0.02 eulerimplicit      yes          no     
Per MPI rank memory allocation (min/avg/max) = 9.901 | 9.909 | 9.917 Mbytes
   Step        Part         PotEng          Fmax          Fnorm            Lx             Ly             Lz            Pxx            Pyy            Pzz            Pxy            Pxz            Pyz      
         0          13  -48992.417      0.26114949     1.7431851      38.7435        248.489        14.9298        143.87026     -477.62327     -161.89865     -73.067556     -7.7255587      63.16732     
       100          13  -48992.781      0.00054375602  0.018104583    38.7435        248.489        14.9298        172.68476     -615.14406     -152.46275     -87.308397     -64.826127      136.88314    
       200          13  -48992.783      0.00029039984  0.013443909    38.7435        248.489        14.9298        175.11512     -624.84851     -154.00547     -88.825913     -73.053407      169.93004    
       300          13  -48992.785      0.00022376413  0.010005067    38.7435        248.489        14.9298        176.91718     -629.51232     -154.40937     -91.509144     -79.271399      194.5578     
       400          13  -48992.786      0.00017102533  0.0079469707   38.7435        248.489        14.9298        178.22064     -632.53819     -154.34427     -94.928893     -84.541386      215.23421    
       500          13  -48992.787      0.00013508849  0.0064834304   38.7435        248.489        14.9298        179.08609     -634.45672     -153.93628     -98.866428     -89.066437      232.88749    
       600          13  -48992.788      0.00011639568  0.0056592792   38.7435        248.489        14.9298        179.50587     -635.34333     -153.48808     -101.92253     -91.898176      244.01154    
       700          13  -48992.788      0.00010116436  0.0050057253   38.7435        248.489        14.9298        179.78385     -635.90032     -152.95959     -105.02251     -94.32303       253.67468    
       800          13  -48992.789      8.0971614e-05  0.0044063637   38.7435        248.489        14.9298        179.92914     -636.1546      -152.10706     -109.34911     -97.013092      264.58849    
       900          13  -48992.789      6.5847062e-05  0.0042185207   38.7435        248.489        14.9298        179.77236     -635.82244     -151.21089     -113.25681     -98.790472      271.79251    
      1000          13  -48992.789      6.2031985e-05  0.0036841463   38.7435        248.489        14.9298        179.47006     -635.24376     -150.15955     -117.62087     -100.43649      278.5781     
      1100          13  -48992.789      5.6062412e-05  0.0032357017   38.7435        248.489        14.9298        179.22245     -634.76929     -149.13746     -121.91324     -101.932        285.15829    
      1200          13  -48992.789      5.1790214e-05  0.0029590478   38.7435        248.489        14.9298        178.99633     -634.3311      -148.31674     -125.27612     -102.93395      289.76147    
      1300          13  -48992.789      4.8438739e-05  0.0027158439   38.7435        248.489        14.9298        178.77155     -633.90787     -147.54417     -128.4009      -103.75643      293.71457    
      1400          13  -48992.789      4.4733346e-05  0.0024689304   38.7435        248.489        14.9298        178.49983     -633.40914     -146.65185     -131.95564     -104.56973      297.84152    
      1500          13  -48992.789      4.1368378e-05  0.002265408    38.7435        248.489        14.9298        178.22511     -632.91619     -145.79724     -135.29002     -105.21468      301.33077    
      1600          13  -48992.789      3.8836933e-05  0.0021219492   38.7435        248.489        14.9298        177.99317     -632.50814     -145.11402     -137.90418     -105.64439      303.80548    
      1700          13  -48992.789      3.5887362e-05  0.0019636726   38.7435        248.489        14.9298        177.68995     -631.98223     -144.2635      -141.08903     -106.08226      306.51262    
      1800          13  -48992.789      3.3425066e-05  0.001837217    38.7435        248.489        14.9298        177.40204     -631.48792     -143.49363     -143.90429     -106.39366      308.62328    
      1900          13  -48992.789      3.1318679e-05  0.0017358184   38.7435        248.489        14.9298        177.12929     -631.02139     -142.79253     -146.41438     -106.61511      310.28738    
      2000          13  -48992.789      2.9374046e-05  0.001648295    38.7435        248.489        14.9298        176.84986     -630.5424      -142.09913     -148.8463      -106.77923      311.69685    
      2100          13  -48992.789      2.7072689e-05  0.001562368    38.7435        248.489        14.9298        176.49689     -629.93037     -141.25344     -151.7453      -106.91131      313.10641    
      2200          13  -48992.789      2.5514973e-05  0.0015152502   38.7435        248.489        14.9298        176.23114     -629.46029     -140.63753     -153.81305     -106.96474      313.92404    
      2300          13  -48992.789      2.8561999e-05  0.0014795948   38.7435        248.489        14.9298        175.85594     -628.77729     -139.79697     -156.5827      -106.98755      314.7679     
      2400          13  -48992.789      3.7938041e-05  0.0014910599   38.7435        248.489        14.9298        175.38522     -627.88225     -138.78957     -159.83609     -106.95223      315.38458    
      2500          13  -48992.789      4.499127e-05   0.0015339389   38.7435        248.489        14.9298        175.01694     -627.15541     -138.03855     -162.22756     -106.89246      315.59089    
      2600          13  -48992.789      5.4200659e-05  0.0016212534   38.7435        248.489        14.9298        174.5883      -626.28717     -137.19723     -164.88533     -106.80203      315.61238    
      2700          13  -48992.789      6.7955298e-05  0.0018072529   38.7435        248.489        14.9298        173.87248     -624.81588     -135.85291     -169.10854     -106.61739      315.2895     
      2800          13  -48992.789      7.4069648e-05  0.0019508944   38.7435        248.489        14.9298        173.25273     -623.5422      -134.72995     -172.62733     -106.42948      314.76655    
      2900          13  -48992.789      7.9704733e-05  0.0021253649   38.7435        248.489        14.9298        172.40328     -621.81407     -133.22801     -177.32953     -106.13226      313.80036    
      3000          13  -48992.789      8.3225336e-05  0.0022801305   38.7435        248.489        14.9298        171.37041     -619.74727     -131.43093     -182.94894     -105.70055      312.31124    
      3100          13  -48992.788      8.3181824e-05  0.0023554465   38.7435        248.489        14.9298        170.60121     -618.22417     -130.10238     -187.09329     -105.32515      310.99554    
      3200          13  -48992.788      8.1950995e-05  0.0024071798   38.7435        248.489        14.9298        169.82422     -616.69156     -128.76358     -191.25637     -104.89614      309.48662    
      3300          13  -48992.788      8.2529942e-05  0.0024658853   38.7435        248.489        14.9298        168.79663     -614.66427     -126.99493     -196.73011     -104.2525       307.21724    
      3400          13  -48992.788      8.1922065e-05  0.0024896926   38.7435        248.489        14.9298        167.93664     -612.95871     -125.51365     -201.28646     -103.64805      305.0769     
      3500          13  -48992.788      8.1379809e-05  0.0024976551   38.7435        248.489        14.9298        167.04105     -611.17317     -123.97174     -205.99943     -102.96057      302.62749    
      3600          13  -48992.787      8.0533631e-05  0.0024834769   38.7435        248.489        14.9298        166.05033     -609.18108     -122.26389     -211.17774     -102.13428      299.65734    
      3700          13  -48992.787      7.9351353e-05  0.0024561191   38.7435        248.489        14.9298        165.3203      -607.70149     -121.00446     -214.96513     -101.48586      297.30175    
      3800          13  -48992.787      7.7893379e-05  0.0024165696   38.7435        248.489        14.9298        164.60909     -606.25105     -119.77742     -218.62722     -100.82624      294.87986    
      3900          13  -48992.787      7.5174391e-05  0.0023306005   38.7435        248.489        14.9298        163.49531     -603.95963     -117.85452     -224.30331     -99.745938      290.85009    
      4000          13  -48992.787      7.3220493e-05  0.0022604716   38.7435        248.489        14.9298        162.77498     -602.46835     -116.61317     -227.9227      -99.023827      288.10535    
      4100          13  -48992.786      7.0701417e-05  0.0021822446   38.7435        248.489        14.9298        162.09636     -601.05516     -115.44391     -231.29379     -98.330936      285.42601    
      4200          13  -48992.786      6.8218703e-05  0.0020907535   38.7435        248.489        14.9298        161.37729     -599.55315     -114.20807     -234.81542     -97.59018       282.50791    
      4300          13  -48992.786      6.5172709e-05  0.0019814597   38.7435        248.489        14.9298        160.60901     -597.94175     -112.89039     -238.51751     -96.796731      279.31154    
      4400          13  -48992.786      6.2698162e-05  0.0018938974   38.7435        248.489        14.9298        160.04004     -596.74571     -111.91731     -241.21302     -96.212348      276.90307    
      4500          13  -48992.786      5.9743138e-05  0.001784763    38.7435        248.489        14.9298        159.36967     -595.33572     -110.77524     -244.3331      -95.532294      274.03521    
      4600          13  -48992.786      5.7359423e-05  0.0016982267   38.7435        248.489        14.9298        158.86346     -594.27054     -109.91593     -246.64618     -95.027676      271.85447    
      4700          13  -48992.785      5.4711797e-05  0.0016057168   38.7435        248.489        14.9298        158.34287     -593.17604     -109.0357      -248.98177     -94.51993       269.60618    
      4800          13  -48992.785      5.2140721e-05  0.001513829    38.7435        248.489        14.9298        157.8388      -592.11886     -108.18787     -251.19846     -94.041566      267.4325     
      4900          13  -48992.785      4.918355e-05   0.0014090486   38.7435        248.489        14.9298        157.27813     -590.9467      -107.25003     -253.60944     -93.527648      265.02611    
      5000          13  -48992.785      4.6716139e-05  0.0013248579   38.7435        248.489        14.9298        156.83645     -590.02685     -106.51547     -255.46522     -93.138609      263.14546    
      5100          13  -48992.785      4.4138647e-05  0.0012364188   38.7435        248.489        14.9298        156.37694     -589.0741      -105.75582     -257.35314     -92.750339      261.20921    
      5200          13  -48992.785      4.1561485e-05  0.0011496991   38.7435        248.489        14.9298        155.93016     -588.15254     -105.02182     -259.14442     -92.39091       259.352      
      5300          13  -48992.785      3.9468606e-05  0.0010815418   38.7435        248.489        14.9298        155.58072     -587.43598     -104.45127     -260.51315     -92.123485      257.92101    
      5400          13  -48992.784      3.7151214e-05  0.0010060701   38.7435        248.489        14.9298        155.1936      -586.64717     -103.82326     -261.99522     -91.842124      256.36153    
      5500          13  -48992.784      3.4675455e-05  0.00092757771  38.7435        248.489        14.9298        154.79059     -585.83198     -103.17396     -263.49823     -91.567139      254.77076    
      5600          13  -48992.784      3.2817922e-05  0.00087011634  38.7435        248.489        14.9298        154.49423     -585.23725     -102.69978     -264.5757      -91.37753       253.6256     
      5700          13  -48992.784      3.0895925e-05  0.00081121968  38.7435        248.489        14.9298        154.18837     -584.62818     -102.21361     -265.66235     -91.193511      252.46786    
      5800          13  -48992.784      2.8762997e-05  0.00074746187  38.7435        248.489        14.9298        153.85476     -583.96991     -101.68714     -266.817       -91.007073      251.23567    
      5900          13  -48992.784      2.6958255e-05  0.00069534407  38.7435        248.489        14.9298        153.57975     -583.43236     -101.25616     -267.74393     -90.865148      250.246      
      6000          13  -48992.784      2.5267901e-05  0.00064716362  38.7435        248.489        14.9298        153.3228      -582.93473     -100.85614     -268.58877     -90.742539      249.34435    
      6100          13  -48992.784      2.3529968e-05  0.00059859241  38.7435        248.489        14.9298        153.06076     -582.4323      -100.45094     -269.42837     -90.627926      248.4496     
      6200          13  -48992.784      2.20937e-05    0.00055941951  38.7435        248.489        14.9298        152.84692     -582.02653     -100.12247     -270.09637     -90.542529      247.73941    
      6300          13  -48992.784      2.0348775e-05  0.00051241961  38.7435        248.489        14.9298        152.58659     -581.53812     -99.725372     -270.88834     -90.448605      246.90039    
      6400          13  -48992.784      1.885041e-05   0.00047317835  38.7435        248.489        14.9298        152.36589     -581.12939     -99.391233     -271.5402      -90.378228      246.21327    
      6500          13  -48992.784      1.7695324e-05  0.00044336006  38.7435        248.489        14.9298        152.19574     -580.81788     -99.13524      -272.03009     -90.329929      245.69959    
      6600          13  -48992.784      1.6428583e-05  0.00041113426  38.7435        248.489        14.9298        152.00913     -580.4801      -98.856173     -272.5544      -90.283002      245.15301    
      6700          13  -48992.784      1.4973537e-05  0.00037480095  38.7435        248.489        14.9298        151.79495     -580.0978      -98.538095     -273.13872     -90.237228      244.5487     
      6800          13  -48992.783      1.3940195e-05  0.00034966157  38.7435        248.489        14.9298        151.64419     -579.83257     -98.315716     -273.53801     -90.210514      244.13947    
      6900          13  -48992.783      1.2970803e-05  0.00032631054  38.7435        248.489        14.9298        151.50186     -579.58537     -98.106981     -273.90565     -90.189486      243.76583    
      7000          13  -48992.783      1.1911544e-05  0.00030113109  38.7435        248.489        14.9298        151.3457      -579.318       -97.879336     -274.29812     -90.171261      243.37095    
      7100          13  -48992.783      1.1081696e-05  0.00028162521  38.7435        248.489        14.9298        151.22256     -579.11024     -97.700888     -274.59915     -90.160594      243.07144    
      7200          13  -48992.783      1.0094159e-05  0.00025863546  38.7435        248.489        14.9298        151.07467     -578.86451     -97.487838     -274.95063     -90.152097      242.72602    
      7300          13  -48992.783      9.2852017e-06  0.00024012083  38.7435        248.489        14.9298        150.95312     -578.666       -97.31382      -275.23065     -90.14885       242.45488    
      7400          13  -48992.783      8.5970125e-06  0.00022451571  38.7435        248.489        14.9298        150.84876     -578.49826     -97.165231     -275.46443     -90.148776      242.2317     
      7500          13  -48992.783      7.9289347e-06  0.0002094408   38.7435        248.489        14.9298        150.74609     -578.3358      -97.01979      -275.68827     -90.151166      242.02112    
      7600          13  -48992.783      7.1511952e-06  0.00019197493  38.7435        248.489        14.9298        150.62456     -578.14704     -96.84863      -275.94494     -90.157211      241.78408    
      7700          13  -48992.783      6.6202375e-06  0.00018013505  38.7435        248.489        14.9298        150.54038     -578.01875     -96.730738     -276.1171      -90.163524      241.62826    
      7800          13  -48992.783      6.1056882e-06  0.00016871422  38.7435        248.489        14.9298        150.45767     -577.89475     -96.615432     -276.2817      -90.171386      241.48198    
      7900          13  -48992.783      5.5677991e-06  0.00015680888  38.7435        248.489        14.9298        150.36967     -577.76526     -96.493368     -276.45156     -90.181589      241.33421    
      8000          13  -48992.783      5.1075968e-06  0.00014664923  38.7435        248.489        14.9298        150.29299     -577.65458     -96.387519     -276.59499     -90.192029      241.21236    
      8100          13  -48992.783      4.6975241e-06  0.00013761006  38.7435        248.489        14.9298        150.2234      -577.556       -96.291896     -276.72128     -90.202743      241.10758    
      8200          13  -48992.783      4.2799236e-06  0.00012839756  38.7435        248.489        14.9298        150.15101     -577.45548     -96.192883     -276.84855     -90.215135      241.00471    
      8300          13  -48992.783      3.9400756e-06  0.00012088594  38.7435        248.489        14.9298        150.09077     -577.37349     -96.110858     -276.95112     -90.226407      240.92408    
      8400          13  -48992.783      3.594172e-06   0.00011321535  38.7435        248.489        14.9298        150.02803     -577.28978     -96.025784     -277.05466     -90.239041      240.845      
      8500          13  -48992.783      3.3369405e-06  0.00010748752  38.7435        248.489        14.9298        149.9803      -577.22731     -95.961313     -277.13106     -90.249255      240.78832    
      8600          13  -48992.783      3.1090342e-06  0.00010191981  38.7435        248.489        14.9298        149.93311     -577.16664     -95.897798     -277.20451     -90.25985       240.73535    
      8700          13  -48992.783      2.828526e-06   9.4947325e-05  38.7435        248.489        14.9298        149.87282     -577.09078     -95.816973     -277.2952      -90.274086      240.67225    
      8800          13  -48992.783      2.584993e-06   8.8867523e-05  38.7435        248.489        14.9298        149.81907     -577.02482     -95.745238     -277.37294     -90.287404      240.62047    
      8900          13  -48992.783      2.4248345e-06  8.4845196e-05  38.7435        248.489        14.9298        149.78285     -576.9813      -95.697072     -277.42361     -90.296691      240.58802    
      9000          13  -48992.783      2.2279711e-06  7.9871002e-05  38.7435        248.489        14.9298        149.73729     -576.92765     -95.636691     -277.48533     -90.308697      240.55001    
      9100          13  -48992.783      2.041666e-06   7.4979334e-05  38.7435        248.489        14.9298        149.6916      -576.87514     -95.576368     -277.54488     -90.321073      240.51512    
      9200          13  -48992.783      1.9231779e-06  7.1481651e-05  38.7435        248.489        14.9298        149.65835     -576.83777     -95.532624     -277.58669     -90.330265      240.49179    
      9300          13  -48992.783      1.8079493e-06  6.806741e-05   38.7435        248.489        14.9298        149.6254      -576.80147     -95.489406     -277.62681     -90.33951       240.4704     
      9400          13  -48992.783      1.6753426e-06  6.4115212e-05  38.7435        248.489        14.9298        149.58662     -576.75972     -95.438705     -277.67228     -90.35054       240.44751    
      9453          13  -48992.783      1.6307806e-06  6.2779947e-05  38.7435        248.489        14.9298        149.57336     -576.74569     -95.421405     -277.68739     -90.354344      240.44025    
Loop time of 275.698 on 2 procs for 9453 steps with 11052 atoms

98.9% CPU use with 2 MPI tasks x 1 OpenMP threads

Minimization stats:
  Stopping criterion = force tolerance
  Energy initial, next-to-last, final = 
     -48992.4168074842  -48992.7829667839  -48992.7829667557
  Force two-norm initial, final = 1.7431851 6.2779947e-05
  Force max component initial, final = 0.26114949 1.6307806e-06
  Final line search alpha, max atom move = 0 0
  Iterations, force evaluations = 9453 9970

MPI task timing breakdown:
Section |  min time  |  avg time  |  max time  |%varavg| %total
---------------------------------------------------------------
Pair    | 215.45     | 217.85     | 220.25     |  16.3 | 79.02
Neigh   | 0          | 0          | 0          |   0.0 |  0.00
Comm    | 2.3        | 4.6839     | 7.0678     | 110.1 |  1.70
Output  | 0.14347    | 0.15052    | 0.15757    |   1.8 |  0.05
Modify  | 19.091     | 19.093     | 19.096     |   0.1 |  6.93
Other   |            | 33.92      |            |       | 12.30

Nlocal:           5526 ave        5544 max        5508 min
Histogram: 1 0 0 0 0 0 0 0 0 1
Nghost:           8594 ave        8631 max        8557 min
Histogram: 1 0 0 0 0 0 0 0 0 1
Neighs:         234672 ave      235410 max      233934 min
Histogram: 1 0 0 0 0 0 0 0 0 1

Total # of neighbors = 469344
Ave neighs/atom = 42.466884
Neighbor list builds = 0
Dangerous builds = 0
  Parameters for fire:
    dmax  delaystep dtgrow dtshrink alpha0 alphashrink tmax tmin   integrator   halfstepback   abcfire  
     0.1     20      1.1     0.5     0.25     0.99      10  0.02 eulerimplicit      yes          no     
Per MPI rank memory allocation (min/avg/max) = 9.901 | 9.909 | 9.917 Mbytes
   Step        Part         PotEng          Fmax          Fnorm            Lx             Ly             Lz            Pxx            Pyy            Pzz            Pxy            Pxz            Pyz      
      9453          13  -48992.783      1.6307806e-06  6.2779947e-05  38.7435        248.489        14.9298        149.57336     -576.74569     -95.421405     -277.68739     -90.354344      240.44025    
      9500          13  -48992.783      0.0002947913   0.003120216    38.7435        248.489        14.9298        149.95212     -577.59169     -95.790353     -276.48196     -90.541008      241.62475    
      9600          13  -48992.784      0.00020838308  0.0028589526   38.7435        248.489        14.9298        151.13694     -581.72325     -97.441008     -271.58216     -90.961068      245.01804    
      9700          13  -48992.785      0.000151372    0.0028170597   38.7435        248.489        14.9298        151.73529     -584.14841     -98.380204     -268.65401     -90.9848        246.27844    
      9800          13  -48992.785      9.5114855e-05  0.0028403884   38.7435        248.489        14.9298        152.22122     -586.26319     -99.151256     -266.04897     -90.741445      246.61746    
      9900          13  -48992.786      5.9708238e-05  0.0029381523   38.7435        248.489        14.9298        152.52944     -587.74467     -99.60824      -264.21403     -90.215902      245.83662    
     10000          13  -48992.786      4.1759459e-05  0.0030164124   38.7435        248.489        14.9298        152.6885      -588.66548     -99.800586     -263.10258     -89.54272       244.33245    
     10100          13  -48992.786      3.3418802e-05  0.0030328622   38.7435        248.489        14.9298        152.76042     -589.27529     -99.839952     -262.41169     -88.777237      242.36701    
     10200          13  -48992.787      3.3783991e-05  0.0029639451   38.7435        248.489        14.9298        152.75648     -589.65034     -99.747636     -262.0553      -87.894525      239.88383    
     10300          13  -48992.787      3.3262056e-05  0.0028405958   38.7435        248.489        14.9298        152.69257     -589.73526     -99.575504     -262.0722      -87.169764      237.69678    
     10400          13  -48992.787      3.2342313e-05  0.0026678104   38.7435        248.489        14.9298        152.57741     -589.63562     -99.317458     -262.36177     -86.437274      235.36877    
     10500          13  -48992.787      2.9863047e-05  0.0023819027   38.7435        248.489        14.9298        152.35913     -589.26504     -98.855766     -263.13481     -85.460393      232.11865    
     10600          13  -48992.788      2.7319931e-05  0.0021427595   38.7435        248.489        14.9298        152.16389     -588.86909     -98.442273     -263.94511     -84.732559      229.62248    
     10700          13  -48992.788      2.4821703e-05  0.0019277155   38.7435        248.489        14.9298        151.98481     -588.4895      -98.053405     -264.75887     -84.100123      227.42591    
     10800          13  -48992.788      2.222737e-05   0.0017177018   38.7435        248.489        14.9298        151.81121     -588.12362     -97.657978     -265.61395     -83.47515       225.24757    
     10900          13  -48992.788      2.01818e-05    0.0015600637   38.7435        248.489        14.9298        151.68551     -587.86965     -97.352684     -266.28353     -82.986419      223.54823    
     11000          13  -48992.788      1.8326311e-05  0.0014208555   38.7435        248.489        14.9298        151.58212     -587.6727      -97.084006     -266.8769      -82.540669      222.00467    
     11100          13  -48992.788      1.677683e-05   0.0013057994   38.7435        248.489        14.9298        151.50458     -587.53194     -96.867976     -267.35677     -82.169664      220.72276    
     11200          13  -48992.788      1.4843393e-05  0.0011608433   38.7435        248.489        14.9298        151.41773     -587.37217     -96.610981     -267.93811     -81.720226      219.16619    
     11300          13  -48992.788      1.3718493e-05  0.0010750208   38.7435        248.489        14.9298        151.37038     -587.27671     -96.466998     -268.27364     -81.472241      218.30112    
     11400          13  -48992.788      1.2232284e-05  0.00096005576  38.7435        248.489        14.9298        151.3091      -587.1379      -96.280861     -268.72243     -81.164023      217.21574    
     11500          13  -48992.788      1.1100931e-05  0.00087205221  38.7435        248.489        14.9298        151.26266     -587.01968     -96.14101      -269.0722      -80.944771      216.43513    
     11600          13  -48992.789      1.0006713e-05  0.00078683458  38.7435        248.489        14.9298        151.21779     -586.89518     -96.006748     -269.41847     -80.744441      215.71539    
     11700          13  -48992.789      8.6536632e-06  0.00068161174  38.7435        248.489        14.9298        151.16305     -586.73002     -95.842305     -269.85681     -80.510951      214.86936    
     11800          13  -48992.789      7.4809513e-06  0.00059072672  38.7435        248.489        14.9298        151.11757     -586.58094     -95.702277     -270.24288     -80.319515      214.17158    
     11900          13  -48992.789      6.6414561e-06  0.0005259148   38.7435        248.489        14.9298        151.0872      -586.47375     -95.60464      -270.51987     -80.187862      213.69085    
     12000          13  -48992.789      5.6965869e-06  0.00045306869  38.7435        248.489        14.9298        151.0565      -586.35582     -95.499183     -270.82795     -80.044709      213.16875    
     12100          13  -48992.789      4.8503132e-06  0.00038796391  38.7435        248.489        14.9298        151.03362     -586.25537     -95.410808     -271.09613     -79.921065      212.71956    
     12200          13  -48992.789      4.257329e-06   0.00034233335  38.7435        248.489        14.9298        151.02102     -586.18918     -95.353714     -271.27675     -79.837303      212.41669    
     12300          13  -48992.789      3.6409768e-06  0.00029482959  38.7435        248.489        14.9298        151.0117      -586.12475     -95.299942     -271.4556      -79.753253      212.11416    
     12400          13  -48992.789      3.1559809e-06  0.00025734499  38.7435        248.489        14.9298        151.00764     -586.07741     -95.262675     -271.58821     -79.689808      211.8867     
     12500          13  -48992.789      2.5762671e-06  0.00020590713  38.7435        248.489        14.9298        151.00764     -586.0159      -95.21975      -271.75912     -79.606245      211.58786    
     12600          13  -48992.789      2.1306749e-06  0.00017784266  38.7435        248.489        14.9298        151.01073     -585.98629     -95.202855     -271.83905     -79.566356      211.44509    
     12700          13  -48992.789      1.8880305e-06  0.00014902489  38.7435        248.489        14.9298        151.01688     -585.95564     -95.189306     -271.91871     -79.526042      211.30039    
     12800          13  -48992.789      1.7051265e-06  0.00011909759  38.7435        248.489        14.9298        151.02756     -585.92476     -95.181687     -271.99441     -79.486944      211.15916    
     12900          13  -48992.789      1.5749655e-06  0.00010020484  38.7435        248.489        14.9298        151.03771     -585.90557     -95.181585     -272.03826     -79.463676      211.0743     
     13000          13  -48992.789      1.4318319e-06  8.4562102e-05  38.7435        248.489        14.9298        151.0496      -585.88956     -95.1859       -272.07223     -79.444977      211.00527    
     13100          13  -48992.789      1.253818e-06   7.0418296e-05  38.7435        248.489        14.9298        151.0664      -585.87444     -95.196894     -272.10085     -79.428002      210.94135    
     13200          13  -48992.789      1.1025489e-06  6.2542932e-05  38.7435        248.489        14.9298        151.08357     -585.86472     -95.211755     -272.11581     -79.417567      210.90063    
     13300          13  -48992.789      9.7324201e-07  5.9078282e-05  38.7435        248.489        14.9298        151.10272     -585.8583      -95.231039     -272.12181     -79.411116      210.87365    
     13400          13  -48992.789      9.8436398e-07  5.9080122e-05  38.7435        248.489        14.9298        151.11996     -585.85533     -95.250111     -272.12054     -79.408599      210.86103    
     13500          13  -48992.789      1.0533713e-06  6.2413081e-05  38.7435        248.489        14.9298        151.14848     -585.85442     -95.284158     -272.10911     -79.409196      210.85695    
     13600          13  -48992.789      1.0886447e-06  6.5565103e-05  38.7435        248.489        14.9298        151.16741     -585.85579     -95.307997     -272.09702     -79.412039      210.8628     
     13700          13  -48992.789      1.127582e-06   7.0226473e-05  38.7435        248.489        14.9298        151.1938      -585.85939     -95.342379     -272.07632     -79.418325      210.87898    
     13800          13  -48992.789      1.1591141e-06  7.5064923e-05  38.7435        248.489        14.9298        151.22261     -585.86485     -95.381053     -272.05027     -79.427606      210.90491    
     13900          13  -48992.789      1.1753966e-06  7.8267536e-05  38.7435        248.489        14.9298        151.24368     -585.86952     -95.409898     -272.02977     -79.435657      210.92812    
     14000          13  -48992.789      1.187726e-06   8.1227164e-05  38.7435        248.489        14.9298        151.26538     -585.87472     -95.439985     -272.00786     -79.444859      210.95506    
     14100          13  -48992.789      1.1983001e-06  8.5119649e-05  38.7435        248.489        14.9298        151.29917     -585.88331     -95.487417     -271.97292     -79.460735      211.00208    
     14200          13  -48992.789      1.2003058e-06  8.724346e-05   38.7435        248.489        14.9298        151.32181     -585.88923     -95.519484     -271.94938     -79.47227       211.0365     
     14300          13  -48992.789      1.1977276e-06  8.9395985e-05  38.7435        248.489        14.9298        151.34991     -585.89662     -95.559528     -271.9204      -79.487415      211.08189    
     14400          13  -48992.789      1.1975675e-06  9.112949e-05   38.7435        248.489        14.9298        151.37984     -585.90438     -95.60236      -271.89021     -79.504418      211.13299    
     14500          13  -48992.789      1.1966958e-06  9.2078365e-05  38.7435        248.489        14.9298        151.40202     -585.90999     -95.634194     -271.86848     -79.517533      211.17247    
     14600          13  -48992.789      1.1928014e-06  9.2758743e-05  38.7435        248.489        14.9298        151.42406     -585.91538     -95.665857     -271.84757     -79.530943      211.21287    
     14700          13  -48992.789      1.1827772e-06  9.329808e-05   38.7435        248.489        14.9298        151.45462     -585.92246     -95.709789     -271.81991     -79.550119      211.27066    
     14800          13  -48992.789      1.171682e-06   9.3419759e-05  38.7435        248.489        14.9298        151.4782      -585.92753     -95.743664     -271.79982     -79.565338      211.31651    
     14900          13  -48992.789      1.1566129e-06  9.329471e-05   38.7435        248.489        14.9298        151.50377     -585.93259     -95.780369     -271.77935     -79.582224      211.36737    
     15000          13  -48992.789      1.136887e-06   9.2872146e-05  38.7435        248.489        14.9298        151.53155     -585.93749     -95.820159     -271.75886     -79.600992      211.42384    
     15100          13  -48992.789      1.1169925e-06  9.2279435e-05  38.7435        248.489        14.9298        151.55584     -585.94119     -95.854875     -271.74258     -79.617759      211.47424    
     15200          13  -48992.789      1.0963944e-06  9.1555804e-05  38.7435        248.489        14.9298        151.5784      -585.9441      -95.887026     -271.72892     -79.633616      211.52183    
     15300          13  -48992.789      1.0704662e-06  9.0533991e-05  38.7435        248.489        14.9298        151.60422     -585.94673     -95.923709     -271.71513     -79.652106      211.57725    
     15400          13  -48992.789      1.0475642e-06  8.9557626e-05  38.7435        248.489        14.9298        151.62526     -585.94827     -95.953499     -271.70546     -79.667448      211.62315    
     15500          13  -48992.789      1.0196692e-06  8.8301706e-05  38.7435        248.489        14.9298        151.64917     -585.94932     -95.987238     -271.69624     -79.685189      211.67614    
     15600          13  -48992.789      9.9172431e-07  8.6982688e-05  38.7435        248.489        14.9298        151.6716      -585.94956     -96.01876      -271.68945     -79.702143      211.72668    
     15700          13  -48992.789      9.6641151e-07  8.5747961e-05  38.7435        248.489        14.9298        151.69087     -585.94914     -96.045726     -271.68513     -79.716957      211.77076    
     15800          13  -48992.789      9.3832824e-07  8.4342756e-05  38.7435        248.489        14.9298        151.71123     -585.94804     -96.074128     -271.68216     -79.732891      211.81808    
     15900          13  -48992.789      9.0558773e-07  8.2664389e-05  38.7435        248.489        14.9298        151.73383     -585.94593     -96.1055       -271.68091     -79.750923      211.8715     
     16000          13  -48992.789      9.0490529e-07  8.134729e-05   38.7435        248.489        14.9298        151.7505      -585.94373     -96.128532     -271.68148     -79.764483      211.91158    
     16100          13  -48992.789      9.1796094e-07  7.9845978e-05  38.7435        248.489        14.9298        151.76854     -585.94069     -96.15338      -271.68357     -79.77944       211.9557     
     16200          13  -48992.789      9.3034635e-07  7.8177409e-05  38.7435        248.489        14.9298        151.78756     -585.93667     -96.179448     -271.68758     -79.795542      212.00307    
     16300          13  -48992.789      9.3933663e-07  7.6814763e-05  38.7435        248.489        14.9298        151.80239     -585.9329      -96.199684     -271.69208     -79.808365      212.04071    
     16400          13  -48992.789      9.486831e-07   7.5151868e-05  38.7435        248.489        14.9298        151.81972     -585.92773     -96.223246     -271.69896     -79.823685      212.08556    
     16500          13  -48992.789      9.5612825e-07  7.350631e-05   38.7435        248.489        14.9298        151.8361      -585.922       -96.245415     -271.7072      -79.838539      212.12892    
     16600          13  -48992.789      9.6132132e-07  7.2125836e-05  38.7435        248.489        14.9298        151.84931     -585.91673     -96.263214     -271.71519     -79.850813      212.16465    
     16700          13  -48992.789      9.656949e-07   7.0606884e-05  38.7435        248.489        14.9298        151.86331     -585.91044     -96.282013     -271.72505     -79.864151      212.20338    
     16800          13  -48992.789      9.6921372e-07  6.8764035e-05  38.7435        248.489        14.9298        151.8796      -585.90212     -96.303777     -271.73849     -79.88014       212.24965    
     16900          13  -48992.789      9.7061847e-07  6.7490447e-05  38.7435        248.489        14.9298        151.89041     -585.89592     -96.318163     -271.74874     -79.891089      212.28124    
     17000          13  -48992.789      9.7117885e-07  6.6063437e-05  38.7435        248.489        14.9298        151.90212     -585.88853     -96.333689     -271.7611      -79.903284      212.31633    
     17100          13  -48992.789      9.7044842e-07  6.4528878e-05  38.7435        248.489        14.9298        151.91423     -585.88006     -96.349687     -271.77545     -79.916324      212.35373    
     17200          13  -48992.789      9.6861777e-07  6.3044957e-05  38.7435        248.489        14.9298        151.92549     -585.87134     -96.364494     -271.79034     -79.928888      212.38964    
     17300          13  -48992.789      9.6599787e-07  6.1712973e-05  38.7435        248.489        14.9298        151.93521     -585.86305     -96.377225     -271.80457     -79.940139      212.42169    
     17400          13  -48992.789      9.6213794e-07  6.0295387e-05  38.7435        248.489        14.9298        151.94514     -585.85374     -96.390197     -271.82061     -79.952098      212.45565    
     17500          13  -48992.789      9.5807675e-07  5.9102289e-05  38.7435        248.489        14.9298        151.95318     -585.84551     -96.400653     -271.83483     -79.962165      212.48414    
     17600          13  -48992.789      9.5211489e-07  5.7645785e-05  38.7435        248.489        14.9298        151.96259     -585.83496     -96.412856     -271.85306     -79.97447       212.51885    
     17700          13  -48992.789      9.45711e-07    5.6329412e-05  38.7435        248.489        14.9298        151.9707      -585.82492     -96.423326     -271.87038     -79.985614      212.55016    
     17800          13  -48992.789      9.3985407e-07  5.5268212e-05  38.7435        248.489        14.9298        151.97695     -585.81647     -96.431377     -271.88495     -79.994623      212.57538    
     17900          13  -48992.789      9.3250717e-07  5.4060226e-05  38.7435        248.489        14.9298        151.98377     -585.80646     -96.440125     -271.90216     -80.004916      212.60411    
     18000          13  -48992.789      9.2304208e-07  5.2664389e-05  38.7435        248.489        14.9298        151.99122     -585.79436     -96.449657     -271.92292     -80.016867      212.63734    
     18100          13  -48992.789      9.1608544e-07  5.1725079e-05  38.7435        248.489        14.9298        151.99597     -585.78588     -96.455714     -271.93741     -80.024951      212.65973    
     18200          13  -48992.789      9.0871612e-07  5.0796059e-05  38.7435        248.489        14.9298        152.00046     -585.77721     -96.461414     -271.95216     -80.032984      212.68191    
     18300          13  -48992.789      8.979071e-07   4.9532736e-05  38.7435        248.489        14.9298        152.00619     -585.76498     -96.468685     -271.9729      -80.043973      212.71214    
     18400          13  -48992.789      8.901927e-07   4.8690148e-05  38.7435        248.489        14.9298        152.00978     -585.75651     -96.473216     -271.98718     -80.05135       212.73237    
     18500          13  -48992.789      8.8011832e-07  4.7645698e-05  38.7435        248.489        14.9298        152.01395     -585.74568     -96.478476     -272.00537     -80.060555      212.75751    
     18600          13  -48992.789      8.6920842e-07  4.6578866e-05  38.7435        248.489        14.9298        152.01788     -585.73421     -96.483424     -272.02451     -80.07003       212.7833     
     18700          13  -48992.789      8.60691e-07    4.5789619e-05  38.7435        248.489        14.9298        152.02057     -585.72545     -96.486796     -272.03905     -80.07709       212.80245    
     18782          13  -48992.789      8.5108758e-07  4.4935452e-05  38.7435        248.489        14.9298        152.02327     -585.71571     -96.490166     -272.05515     -80.084783      212.82324    
Loop time of 270.99 on 2 procs for 9329 steps with 11052 atoms

98.9% CPU use with 2 MPI tasks x 1 OpenMP threads

Minimization stats:
  Stopping criterion = force tolerance
  Energy initial, next-to-last, final = 
     -48992.7829667557  -48992.7885988779  -48992.7885987505
  Force two-norm initial, final = 6.2779947e-05 4.4935452e-05
  Force max component initial, final = 1.6307806e-06 8.5108758e-07
  Final line search alpha, max atom move = 0 0
  Iterations, force evaluations = 9329 9840

MPI task timing breakdown:
Section |  min time  |  avg time  |  max time  |%varavg| %total
---------------------------------------------------------------
Pair    | 214.75     | 216.64     | 218.53     |  12.8 | 79.94
Neigh   | 0          | 0          | 0          |   0.0 |  0.00
Comm    | 2.3492     | 4.2161     | 6.0831     |  90.9 |  1.56
Output  | 0.14339    | 0.15155    | 0.15971    |   2.1 |  0.06
Modify  | 18.882     | 18.886     | 18.89      |   0.1 |  6.97
Other   |            | 31.1       |            |       | 11.47

Nlocal:           5526 ave        5544 max        5508 min
Histogram: 1 0 0 0 0 0 0 0 0 1
Nghost:           8594 ave        8631 max        8557 min
Histogram: 1 0 0 0 0 0 0 0 0 1
Neighs:         234654 ave      235378 max      233930 min
Histogram: 1 0 0 0 0 0 0 0 0 1

Total # of neighbors = 469308
Ave neighs/atom = 42.463626
Neighbor list builds = 0
Dangerous builds = 0
write_data /data/home/yazhuo/Project/GBclaw/projects/proj-20260927-164bf2/artifacts/lammps/neb/neb-20260927-045814-1d9965/neb.replica.$i.final.lmp nocoeff
write_data /data/home/yazhuo/Project/GBclaw/projects/proj-20260927-164bf2/artifacts/lammps/neb/neb-20260927-045814-1d9965/neb.replica.13.final.lmp nocoeff
System init for write_data ...
Total wall time: 0:09:07
