LAMMPS (30 Mar 2026)
Processor partition = 5
OMP_NUM_THREADS environment is not set. Defaulting to 1 thread.
  using 1 OpenMP thread(s) per MPI task
clear
OMP_NUM_THREADS environment is not set. Defaulting to 1 thread.
  using 1 OpenMP thread(s) per MPI task
units metal
dimension 3
atom_style atomic
boundary p p p
atom_modify map array
read_data "/data/home/yazhuo/Project/GBclaw/projects/proj-20260927-164bf2/artifacts/lammps/neb/neb-20260927-045814-1d9965/inputs/initial.lmp"
Reading data file ...
  orthogonal box = (-19.37175 -124.2445 -7.4649) to (19.37175 124.2445 7.4649)
  1 by 2 by 1 MPI processor grid
  reading atoms ...
  11052 atoms
  read_data CPU = 0.045 seconds
neighbor 1.0 bin
neigh_modify delay 0 every 1 check yes
pair_style adp
pair_coeff * * "/data/home/yazhuo/Project/GBclaw/src/tools/potentials/NiCr.adp" Ni
group top_boundary empty
0 atoms in group top_boundary
group top_boundary id 5180 5151 5159 5109 5117 5067 5075 5025 5033 4992 5184 5160 5118 5076 5034 5181 5154 5156 5157 5112 5114 5115 5070 5072 5073 5028 5030 5031 4990 4991 5182 5155 5113 5071 5029 5175 5176 5141 5144 5146 5147 5099 5102 5104 5105 5057 5060 5062 5063 5015 5018 5020 5021 4985 4986 5177 5183 5145 5158 5103 5116 5061 5074 5019 5032 5168 5169 5129 5132 5134 5087 5090 5092 5045 5048 5050 5003 5006 5008 4980 5170 5178 5133 5148 5091 5106 5049 5064 5007 5022 11027 11048 10985 11019 10943 10977 10901 10935 10859 10893
100 atoms in group top_boundary
group top_boundary id 10818 10851 11052 11028 10986 10944 10902 10860 11024 11025 11049 10982 10983 11022 10940 10941 10980 10898 10899 10938 10856 10857 10896 10816 10817 10854 11050 11023 10981 10939 10897 10855 11014 11015 11043 11044 10972 10973 11009 11012 10930 10931 10967 10970 10888 10889 10925 10928 10846 10847 10883 10886 10811 10812 10841 10844 11045 11051 11013 11026 10971 10984 10929 10942 10887 10900 10845 10858 11002 11036 11037 10960 10997 11000 10918 10955 10958 10876 10913 10916 10834 10871 10874 10806 10829 10832 11038 11046 11001 11016 10959 10974 10917 10932 10875 10890 10833 10848
198 atoms in group top_boundary
group bottom_boundary empty
0 atoms in group bottom_boundary
group bottom_boundary id 174 125 83 123 84 32 34 10 177 139 175 140 85 87 46 12 47 160 111 124 68 69 126 67 21 33 35 6 7 164 176 128 129 178 127 73 86 88 37 38 9 11 36 152 161 105 110 58 59 109 112 57 70 15 19 20 22 2 3 156 163 114 115 162 165 113 130 63 71 72 74 24 25 5 8 23 39 151 153 104 56 103 106 55 60 13 14 16 1 155 108 154 157 107 116 61 62 64 18 4
100 atoms in group bottom_boundary
group bottom_boundary id 17 26 5345 5390 5303 5343 5304 5247 5249 5214 5190 5215 5391 5359 5360 5307 5263 5305 5264 5216 5218 5331 5344 5378 5288 5289 5346 5287 5235 5248 5250 5203 5204 5188 5189 5202 5392 5347 5348 5349 5293 5306 5252 5253 5308 5251 5208 5217 5219 5325 5330 5372 5379 5278 5279 5329 5332 5277 5290 5229 5233 5234 5236 5194 5195 5186 5187 5193 5205 5380 5381 5333 5334 5335 5350 5283 5292 5238 5239 5291 5294 5237 5254 5199 5206 5207 5209 5324 5371 5373 5276 5323 5326 5275 5280 5227 5228 5230 5192 5185
200 atoms in group bottom_boundary
group bottom_boundary id 5191 5196 5374 5375 5327 5328 5336 5282 5232 5281 5284 5231 5240 5197 5198 5200
216 atoms in group bottom_boundary
group fixed_xy union top_boundary bottom_boundary
414 atoms in group fixed_xy
variable __gb_neb_count_top_boundary equal count(top_boundary)
variable __gb_neb_count_top_boundary delete
variable __gb_neb_count_bottom_boundary equal count(bottom_boundary)
variable __gb_neb_count_bottom_boundary delete
min_style fire
timestep 0.01
fix neb_path all neb 1
fix hold_boundary_xy fixed_xy setforce 0.0 0.0 NULL
thermo 100
thermo_style custom step part pe fmax fnorm lx ly lz pxx pyy pzz pxy pxz pyz
thermo_modify flush yes
variable i equal part
dump neb_dump all custom 1000 /data/home/yazhuo/Project/GBclaw/projects/proj-20260927-164bf2/artifacts/lammps/neb/neb-20260927-045814-1d9965/neb.replica.$i.lammpstrj id type x y z ix iy iz fx fy fz
dump neb_dump all custom 1000 /data/home/yazhuo/Project/GBclaw/projects/proj-20260927-164bf2/artifacts/lammps/neb/neb-20260927-045814-1d9965/neb.replica.5.lammpstrj id type x y z ix iy iz fx fy fz
dump_modify neb_dump sort id
run 0
WARNING: No fixes with time integration, atoms won't move
For more information see https://docs.lammps.org/err0028 (src/verlet.cpp:60)
Neighbor list info ...
  update: every = 1 steps, delay = 0 steps, check = yes
  max neighbors/atom: 2000, page size: 100000
  master list distance cutoff = 6.168302
  ghost atom cutoff = 6.168302
  binsize = 3.084151, bins = 13 81 5
  1 neighbor lists, perpetual/occasional/extra = 1 0 0
  (1) pair adp, perpetual
      attributes: half, newton on
      pair build: half/bin/atomonly/newton
      stencil: half/bin/3d
      bin: standard
Per MPI rank memory allocation (min/avg/max) = 7.422 | 7.43 | 7.438 Mbytes
   Step        Part         PotEng          Fmax          Fnorm            Lx             Ly             Lz            Pxx            Pyy            Pzz            Pxy            Pxz            Pyz      
         0           5  -48992.796      0.0024845783   0.10363051     38.7435        248.489        14.9298        0.19007438     2.918104      -3.7172695      0.3830234      3.2510357e-05 -0.0010155383 
Loop time of 3.059e-06 on 2 procs for 0 steps with 11052 atoms

81.7% CPU use with 2 MPI tasks x 1 OpenMP threads

MPI task timing breakdown:
Section |  min time  |  avg time  |  max time  |%varavg| %total
---------------------------------------------------------------
Pair    | 0          | 0          | 0          |   0.0 |  0.00
Neigh   | 0          | 0          | 0          |   0.0 |  0.00
Comm    | 0          | 0          | 0          |   0.0 |  0.00
Output  | 0          | 0          | 0          |   0.0 |  0.00
Modify  | 0          | 0          | 0          |   0.0 |  0.00
Other   |            | 3.059e-06  |            |       |100.00

Nlocal:           5526 ave        5544 max        5508 min
Histogram: 1 0 0 0 0 0 0 0 0 1
Nghost:           7959 ave        8011 max        7907 min
Histogram: 1 0 0 0 0 0 0 0 0 1
Neighs:         234603 ave      234962 max      234244 min
Histogram: 1 0 0 0 0 0 0 0 0 1

Total # of neighbors = 469206
Ave neighs/atom = 42.454397
Neighbor list builds = 0
Dangerous builds = 0
neb 0 0.0001 10000 10000 100 final "/data/home/yazhuo/Project/GBclaw/projects/proj-20260927-164bf2/artifacts/lammps/neb/neb-20260927-045814-1d9965/inputs/final.neb.coords" verbosity default
  Parameters for fire:
    dmax  delaystep dtgrow dtshrink alpha0 alphashrink tmax tmin   integrator   halfstepback   abcfire  
     0.1     20      1.1     0.5     0.25     0.99      10  0.02 eulerimplicit      yes          no     
Per MPI rank memory allocation (min/avg/max) = 9.901 | 9.909 | 9.917 Mbytes
   Step        Part         PotEng          Fmax          Fnorm            Lx             Ly             Lz            Pxx            Pyy            Pzz            Pxy            Pxz            Pyz      
         0           5  -48992.255      0.26136423     2.1609508      38.7435        248.489        14.9298        41.08558      -141.99573     -95.369222     -25.939828     -2.6317266      1.4188809    
       100           5  -48992.772      0.00039651692  0.0079385114   38.7435        248.489        14.9298        30.92507      -138.18416     -54.734811      19.689336     -34.667816     -38.37127     
       200           5  -48992.772      0.00013031836  0.0078062837   38.7435        248.489        14.9298        30.914763     -134.59076     -54.864657      24.40648      -31.149787     -51.070052    
       300           5  -48992.772      8.2393141e-05  0.0071015496   38.7435        248.489        14.9298        30.96114      -132.94138     -55.051471      26.884578     -28.135402     -61.5482      
       400           5  -48992.772      0.00033101258  0.006207776    38.7435        248.489        14.9298        30.996282     -131.82958     -55.187522      28.552037     -25.264117     -71.393987    
       500           5  -48992.772      0.0027651491   0.011965466    38.7435        248.489        14.9298        30.966948     -130.81449     -55.210319      29.73275      -22.5094       -80.712985    
       600           5  -48992.772      9.0319451e-05  0.0042688075   38.7435        248.489        14.9298        30.882785     -130.00622     -55.128186      30.326736     -20.586759     -87.1179      
       700           5  -48992.772      5.143259e-05   0.0037014358   38.7435        248.489        14.9298        30.757843     -129.13507     -54.984501      30.770358     -18.781397     -93.085012    
       800           5  -48992.772      0.00017219619  0.0035074924   38.7435        248.489        14.9298        30.567422     -127.99528     -54.751984      31.192001     -16.569319     -100.39778    
       900           5  -48992.772      4.9326484e-05  0.0033100113   38.7435        248.489        14.9298        30.463326     -127.34014     -54.627767      31.470426     -15.021136     -105.64209    
      1000           5  -48992.772      4.3849165e-05  0.002825271    38.7435        248.489        14.9298        30.367343     -126.73133     -54.514259      31.726122     -13.486559     -110.9295     
      1100           5  -48992.772      9.2642945e-05  0.0028507489   38.7435        248.489        14.9298        30.248391     -126.03493     -54.36486       31.934876     -11.89781      -116.44665    
      1200           5  -48992.772      4.2078925e-05  0.0026033221   38.7435        248.489        14.9298        30.201979     -125.67548     -54.311491      32.109919     -10.742235     -120.6129     
      1300           5  -48992.772      3.8439685e-05  0.0023106232   38.7435        248.489        14.9298        30.146946     -125.29587     -54.24245       32.236486     -9.6975107     -124.40617    
      1400           5  -48992.772      3.4454838e-05  0.0020084541   38.7435        248.489        14.9298        30.060493     -124.77        -54.126494      32.32576      -8.5366162     -128.63065    
      1500           5  -48992.772      3.5655657e-05  0.0017692969   38.7435        248.489        14.9298        29.958517     -124.19189     -53.983333      32.355603     -7.4824238     -132.47768    
      1600           5  -48992.772      3.1136689e-05  0.0016032593   38.7435        248.489        14.9298        29.867511     -123.69189     -53.852978      32.345185     -6.6841642     -135.4016     
      1700           5  -48992.772      3.2379328e-05  0.0014261046   38.7435        248.489        14.9298        29.746205     -123.03598     -53.675464      32.294993     -5.7481607     -138.84464    
      1800           5  -48992.772      3.2833102e-05  0.0012867517   38.7435        248.489        14.9298        29.630858     -122.41797     -53.503461      32.21783      -4.9562563     -141.77105    
      1900           5  -48992.772      3.3455912e-05  0.0011747863   38.7435        248.489        14.9298        29.522497     -121.84013     -53.339791      32.12495      -4.2788109     -144.28345    
      2000           5  -48992.772      3.3779273e-05  0.0010763822   38.7435        248.489        14.9298        29.412845     -121.25753     -53.172407      32.013772     -3.6500386     -146.62129    
      2100           5  -48992.772      3.4338499e-05  0.00097437671  38.7435        248.489        14.9298        29.276872     -120.53807     -52.962383      31.85574      -2.9392595     -149.26729    
      2200           5  -48992.772      3.4511624e-05  0.00091157703  38.7435        248.489        14.9298        29.177731     -120.01546     -52.807898      31.728828     -2.4621256     -151.04349    
      2300           5  -48992.772      3.4530878e-05  0.00084227721  38.7435        248.489        14.9298        29.045668     -119.32072     -52.600646      31.547173     -1.8694316     -153.24887    
      2400           5  -48992.772      3.4028903e-05  0.00077942129  38.7435        248.489        14.9298        28.899799     -118.55131     -52.369537      31.331255     -1.2557945     -155.53419    
      2500           5  -48992.772      3.246485e-05   0.00074103129  38.7435        248.489        14.9298        28.805542     -118.04814     -52.218797      31.182484     -0.86950618    -156.98042    
      2600           5  -48992.772      3.0152645e-05  0.00070615612  38.7435        248.489        14.9298        28.717558     -117.56739     -52.076298      31.034829     -0.50218192    -158.37086    
      2700           5  -48992.772      2.5332743e-05  0.00067185126  38.7435        248.489        14.9298        28.615746     -116.97628     -51.907093      30.844306     -0.032969502   -160.19574    
      2800           5  -48992.772      2.0874905e-05  0.00066818079  38.7435        248.489        14.9298        28.562098     -116.62223     -51.813054      30.722924      0.27681339    -161.45457    
      2900           5  -48992.772      1.50743e-05    0.00069425528  38.7435        248.489        14.9298        28.524963     -116.29854     -51.739323      30.60215       0.61192205    -162.89548    
      3000           5  -48992.772      1.3944318e-05  0.00072857261  38.7435        248.489        14.9298        28.518738     -116.07189     -51.708096      30.50212       0.93253593    -164.38614    
      3100           5  -48992.772      1.3914812e-05  0.00073891603  38.7435        248.489        14.9298        28.531737     -115.97762     -51.711157      30.448135      1.1307538     -165.37493    
      3200           5  -48992.772      1.3626e-05     0.0007317758   38.7435        248.489        14.9298        28.554408     -115.92262     -51.728415      30.404229      1.3059129     -166.29618    
      3300           5  -48992.772      1.2969399e-05  0.00070108004  38.7435        248.489        14.9298        28.592469     -115.88478     -51.763238      30.354637      1.5092746     -167.42038    
      3400           5  -48992.772      1.2272967e-05  0.0006631833   38.7435        248.489        14.9298        28.627551     -115.86796     -51.797114      30.315934      1.6607459     -168.29348    
      3500           5  -48992.771      1.1470385e-05  0.00061698155  38.7435        248.489        14.9298        28.664618     -115.85431     -51.833234      30.275326      1.8048639     -169.14851    
      3600           5  -48992.771      1.0529876e-05  0.00056127826  38.7435        248.489        14.9298        28.704448     -115.83581     -51.871343      30.227559      1.9518979     -170.04111    
      3700           5  -48992.771      9.8174138e-06  0.00051864678  38.7435        248.489        14.9298        28.732095     -115.81597     -51.896816      30.189267      2.0537815     -170.66826    
      3800           5  -48992.771      9.1241241e-06  0.00047731345  38.7435        248.489        14.9298        28.757157     -115.78945     -51.918777      30.148794      2.1489092     -171.25766    
      3900           5  -48992.771      8.0406009e-06  0.00041349402  38.7435        248.489        14.9298        28.791895     -115.72974     -51.946231      30.077825      2.2918345     -172.14472    
      4000           5  -48992.771      7.3417489e-06  0.00037323606  38.7435        248.489        14.9298        28.810779     -115.6766      -51.958536      30.026157      2.3813563     -172.69723    
      4100           5  -48992.771      6.6972863e-06  0.00033724812  38.7435        248.489        14.9298        28.825567     -115.614       -51.965487      29.97258       2.4644763     -173.20504    
      4200           5  -48992.771      6.0266909e-06  0.00030133436  38.7435        248.489        14.9298        28.837789     -115.53334     -51.967575      29.910345      2.5518818     -173.73115    
      4300           5  -48992.771      6.4222049e-06  0.0002665222   38.7435        248.489        14.9298        28.846598     -115.42919     -51.963259      29.837032      2.6452843     -174.28187    
      4400           5  -48992.771      6.7544042e-06  0.00024343275  38.7435        248.489        14.9298        28.850063     -115.33906     -51.955345      29.777842      2.7148736     -174.68298    
      4500           5  -48992.771      7.1071691e-06  0.00021960405  38.7435        248.489        14.9298        28.850687     -115.21812     -51.940693      29.702594      2.7977134     -175.14923    
      4600           5  -48992.771      7.3429923e-06  0.00020416084  38.7435        248.489        14.9298        28.84852      -115.11543     -51.925544      29.641516      2.8611928     -175.49752    
      4700           5  -48992.771      7.5510724e-06  0.000190681    38.7435        248.489        14.9298        28.843744     -114.99878     -51.906014      29.574584      2.9275849     -175.85277    
      4800           5  -48992.771      7.7126686e-06  0.00017990887  38.7435        248.489        14.9298        28.836659     -114.87516     -51.883293      29.505807      2.9930816     -176.19429    
      4900           5  -48992.771      7.8345669e-06  0.00017031738  38.7435        248.489        14.9298        28.825844     -114.72479     -51.853449      29.424501      3.0676053     -176.572      
      5000           5  -48992.771      7.883095e-06   0.00016423338  38.7435        248.489        14.9298        28.815102     -114.59647     -51.826462      29.35675       3.1277309     -176.86839    
      5100           5  -48992.771      7.8838835e-06  0.00015893316  38.7435        248.489        14.9298        28.801894     -114.45383     -51.795193      29.282822      3.1916959     -177.17601    
      5200           5  -48992.771      7.8348715e-06  0.00015441848  38.7435        248.489        14.9298        28.787042     -114.30594     -51.76161       29.207447      3.2554157     -177.4748     
      5300           5  -48992.771      7.7600031e-06  0.00015106419  38.7435        248.489        14.9298        28.774062     -114.18394     -51.733169      29.146055      3.3063818     -177.70853    
      5400           5  -48992.771      7.6363888e-06  0.00014729844  38.7435        248.489        14.9298        28.758356     -114.04251     -51.699535      29.075591      3.3640365     -177.96772    
      5500           5  -48992.771      7.4596721e-06  0.00014306185  38.7435        248.489        14.9298        28.74055      -113.88819     -51.662157      28.999404      3.4255059     -178.23831    
      5600           5  -48992.771      7.2975779e-06  0.00013962377  38.7435        248.489        14.9298        28.72655      -113.77018     -51.633181      28.941531      3.47169       -178.43794    
      5700           5  -48992.771      7.098839e-06   0.00013566905  38.7435        248.489        14.9298        28.711368     -113.64459     -51.602056      28.880216      3.5202184     -178.64468    
      5800           5  -48992.771      6.846526e-06   0.00013077648  38.7435        248.489        14.9298        28.694023     -113.50331     -51.566762      28.811486      3.5741943     -178.87128    
      5900           5  -48992.771      6.6077233e-06  0.00012623717  38.7435        248.489        14.9298        28.679164     -113.38359     -51.536683      28.753363      3.6195433     -179.05919    
      6000           5  -48992.771      6.3578875e-06  0.0001215535   38.7435        248.489        14.9298        28.664894     -113.26926     -51.507872      28.6979        3.6625866     -179.23577    
      6100           5  -48992.771      6.077361e-06   0.00011629538  38.7435        248.489        14.9298        28.650028     -113.15038     -51.477879      28.640217      3.7071313     -179.41696    
      6200           5  -48992.771      5.829884e-06   0.0001116249   38.7435        248.489        14.9298        28.637722     -113.05183     -51.453023      28.592333      3.7439466     -179.56571    
      6300           5  -48992.771      5.5031634e-06  0.00010548487  38.7435        248.489        14.9298        28.622621     -112.93029     -51.422438      28.533132      3.7892621     -179.74788    
      6400           5  -48992.771      5.2052655e-06  9.9857851e-05  38.7435        248.489        14.9298        28.609797     -112.82608     -51.396331      28.482179      3.8280716     -179.90334    
      6500           5  -48992.771      4.9661352e-06  9.5284174e-05  38.7435        248.489        14.9298        28.599952     -112.74516     -51.376164      28.442445      3.8582084     -180.02386    
      6600           5  -48992.771      4.6936304e-06  9.0035333e-05  38.7435        248.489        14.9298        28.58924      -112.65598     -51.35407       28.398441      3.8914563     -180.15674    
      6700           5  -48992.771      4.3670909e-06  8.3722635e-05  38.7435        248.489        14.9298        28.577127     -112.55324     -51.328833      28.347401      3.9298432     -180.31024    
      6800           5  -48992.771      4.1271824e-06  7.9093498e-05  38.7435        248.489        14.9298        28.568774     -112.48083     -51.311222      28.311147      3.9569802     -180.41896    
      6900           5  -48992.771      3.8946583e-06  7.4607808e-05  38.7435        248.489        14.9298        28.561062     -112.41254     -51.294771      28.276708      3.9826488     -180.52209    
      7000           5  -48992.771      3.6328886e-06  6.955855e-05   38.7435        248.489        14.9298        28.552842     -112.33781     -51.276982      28.238704      4.0108363     -180.63579    
      7100           5  -48992.771      3.4215291e-06  6.5493925e-05  38.7435        248.489        14.9298        28.546579     -112.27916     -51.263201      28.208598      4.0330511     -180.72585    
      7200           5  -48992.771      3.1628638e-06  6.0533433e-05  38.7435        248.489        14.9298        28.539356     -112.2092      -51.247002      28.17232       4.0596712     -180.83443    
      7300           5  -48992.771      2.9463852e-06  5.6407466e-05  38.7435        248.489        14.9298        28.533714     -112.15222     -51.234042      28.142426      4.0814614     -180.92399    
      7400           5  -48992.771      2.7579123e-06  5.2839163e-05  38.7435        248.489        14.9298        28.529114     -112.1038      -51.223216      28.116733      4.1000714     -181.00107    
      7500           5  -48992.771      2.5711198e-06  4.9314166e-05  38.7435        248.489        14.9298        28.524834     -112.05668     -51.212872      28.091452      4.1182645     -181.07704    
      7600           5  -48992.771      2.3493197e-06  4.5137561e-05  38.7435        248.489        14.9298        28.520124     -112.00173     -51.201081      28.06156       4.139603      -181.16706    
      7700           5  -48992.771      2.1934666e-06  4.225461e-05   38.7435        248.489        14.9298        28.517121     -111.96431     -51.193249      28.040902      4.1542228     -181.22942    
      7800           5  -48992.771      2.0411556e-06  3.9436935e-05  38.7435        248.489        14.9298        28.514393     -111.9281      -51.185844      28.02066       4.1684359     -181.29065    
      7900           5  -48992.771      1.8794475e-06  3.6462113e-05  38.7435        248.489        14.9298        28.511757     -111.8903      -51.178319      27.999215      4.1833583     -181.35568    
      8000           5  -48992.771      1.73845e-06    3.3896715e-05  38.7435        248.489        14.9298        28.509705     -111.85803     -51.172088      27.980625      4.1961665     -181.41219    
      8100           5  -48992.771      1.6115782e-06  3.1596551e-05  38.7435        248.489        14.9298        28.508055     -111.82936     -51.166719      27.963854      4.2076072     -181.4633     
      8200           5  -48992.771      1.4812735e-06  2.9237037e-05  38.7435        248.489        14.9298        28.50657      -111.80023     -51.16145       27.946534      4.2192957     -181.5162     
      8300           5  -48992.771      1.3723034e-06  2.7303707e-05  38.7435        248.489        14.9298        28.505526     -111.77658     -51.15733       27.932238      4.2288343     -181.55997    
      8400           5  -48992.771      1.2611365e-06  2.5322795e-05  38.7435        248.489        14.9298        28.504632     -111.75256     -51.153308      27.917479      4.2385693     -181.60526    
      8500           5  -48992.771      1.1775614e-06  2.3840451e-05  38.7435        248.489        14.9298        28.504091     -111.73475     -51.150444      27.906355      4.2458235     -181.63946    
      8600           5  -48992.771      1.0960633e-06  2.2397882e-05  38.7435        248.489        14.9298        28.503681     -111.71756     -51.147788      27.895459      4.2528531     -181.67303    
      8700           5  -48992.771      9.943748e-07   2.0590254e-05  38.7435        248.489        14.9298        28.503344     -111.69626     -51.144663      27.881703      4.261609      -181.71548    
      8800           5  -48992.771      9.0746852e-07  1.9015196e-05  38.7435        248.489        14.9298        28.503228     -111.67794     -51.142145      27.86962       4.2691803     -181.75285    
      8900           5  -48992.771      8.4579617e-07  1.7973404e-05  38.7435        248.489        14.9298        28.50325      -111.66597     -51.140595      27.861586      4.2741468     -181.77773    
      9000           5  -48992.771      7.7336397e-07  1.6686912e-05  38.7435        248.489        14.9298        28.503393     -111.65138     -51.138817      27.851616      4.2802297     -181.80866    
      9100           5  -48992.771      7.0340268e-07  1.5423916e-05  38.7435        248.489        14.9298        28.503667     -111.63729     -51.137233      27.841786      4.2861318     -181.83919    
      9200           5  -48992.771      6.5222021e-07  1.4522328e-05  38.7435        248.489        14.9298        28.503949     -111.62739     -51.136207      27.834751      4.2902945     -181.86108    
      9300           5  -48992.771      6.0360813e-07  1.3643834e-05  38.7435        248.489        14.9298        28.504297     -111.61789     -51.135298      27.827888      4.2943023     -181.88246    
      9400           5  -48992.771      5.4804516e-07  1.2628937e-05  38.7435        248.489        14.9298        28.504795     -111.60714     -51.134369      27.81996       4.2988604     -181.90718    
      9453           5  -48992.771      5.2946002e-07  1.2286598e-05  38.7435        248.489        14.9298        28.504986     -111.60356     -51.134086      27.817289      4.3003782     -181.91551    
Loop time of 275.698 on 2 procs for 9453 steps with 11052 atoms

98.6% CPU use with 2 MPI tasks x 1 OpenMP threads

Minimization stats:
  Stopping criterion = force tolerance
  Energy initial, next-to-last, final = 
     -48992.2554200851  -48992.7714569157  -48992.7714569177
  Force two-norm initial, final = 2.1609508 1.2286598e-05
  Force max component initial, final = 0.26136423 5.2946002e-07
  Final line search alpha, max atom move = 0 0
  Iterations, force evaluations = 9453 9970

MPI task timing breakdown:
Section |  min time  |  avg time  |  max time  |%varavg| %total
---------------------------------------------------------------
Pair    | 230.56     | 231.9      | 233.24     |   8.8 | 84.11
Neigh   | 0          | 0          | 0          |   0.0 |  0.00
Comm    | 5.4357     | 6.7796     | 8.1235     |  51.6 |  2.46
Output  | 0.15043    | 0.15736    | 0.16428    |   1.7 |  0.06
Modify  | 24.616     | 24.628     | 24.641     |   0.3 |  8.93
Other   |            | 12.23      |            |       |  4.44

Nlocal:           5526 ave        5544 max        5508 min
Histogram: 1 0 0 0 0 0 0 0 0 1
Nghost:           8592 ave        8629 max        8555 min
Histogram: 1 0 0 0 0 0 0 0 0 1
Neighs:         234651 ave      235534 max      233768 min
Histogram: 1 0 0 0 0 0 0 0 0 1

Total # of neighbors = 469302
Ave neighs/atom = 42.463084
Neighbor list builds = 0
Dangerous builds = 0
  Parameters for fire:
    dmax  delaystep dtgrow dtshrink alpha0 alphashrink tmax tmin   integrator   halfstepback   abcfire  
     0.1     20      1.1     0.5     0.25     0.99      10  0.02 eulerimplicit      yes          no     
Per MPI rank memory allocation (min/avg/max) = 9.901 | 9.909 | 9.917 Mbytes
   Step        Part         PotEng          Fmax          Fnorm            Lx             Ly             Lz            Pxx            Pyy            Pzz            Pxy            Pxz            Pyz      
      9453           5  -48992.771      5.2946002e-07  1.2286598e-05  38.7435        248.489        14.9298        28.504986     -111.60356     -51.134086      27.817289      4.3003782     -181.91551    
      9500           5  -48992.771      0.0002806232   0.0096577452   38.7435        248.489        14.9298        28.825694     -112.80198     -51.603287      28.178992      4.0683921     -181.85124    
      9600           5  -48992.77       0.00035837657  0.012212809    38.7435        248.489        14.9298        30.958347     -120.91916     -54.739446      30.588184      2.5321625     -181.44003    
      9700           5  -48992.77       0.00032272965  0.011057545    38.7435        248.489        14.9298        32.584845     -127.07604     -57.085063      32.406178      1.4396608     -181.18728    
      9800           5  -48992.769      0.0002595695   0.0089101839   38.7435        248.489        14.9298        34.33121      -133.65475     -59.579181      34.340538      0.31763956    -180.86994    
      9900           5  -48992.769      0.00018231831  0.0061520554   38.7435        248.489        14.9298        35.799288     -139.152       -61.647393      35.962987     -0.62037961    -180.44667    
     10000           5  -48992.768      0.00011096529  0.0035226447   38.7435        248.489        14.9298        36.747329     -142.67298     -62.970688      37.026362     -1.2711656     -179.94408    
     10100           5  -48992.768      5.0726165e-05  0.0012944975   38.7435        248.489        14.9298        37.262594     -144.56115     -63.688206      37.631142     -1.7118339     -179.362      
     10200           5  -48992.768      6.0259223e-06  0.00049923571  38.7435        248.489        14.9298        37.444215     -145.19726     -63.94204       37.881823     -2.0107648     -178.6842     
     10300           5  -48992.768      1.8860432e-05  0.0012554743   38.7435        248.489        14.9298        37.4045       -145.01947     -63.888862      37.877378     -2.1566475     -178.14153    
     10400           5  -48992.768      2.9918741e-05  0.0015792158   38.7435        248.489        14.9298        37.273646     -144.50709     -63.709276      37.767098     -2.2486176     -177.62192    
     10500           5  -48992.768      2.9857222e-05  0.0014444583   38.7435        248.489        14.9298        37.045453     -143.6325      -63.395004      37.550604     -2.3218128     -176.9932     
     10600           5  -48992.768      2.2060198e-05  0.0010617963   38.7435        248.489        14.9298        36.886539     -143.02803     -63.176057      37.395312     -2.3617196     -176.58345    
     10700           5  -48992.769      1.2549422e-05  0.0006417458   38.7435        248.489        14.9298        36.783381     -142.63591     -63.034671      37.296492     -2.399131      -176.27193    
     10800           5  -48992.769      3.2956051e-06  0.00024448809  38.7435        248.489        14.9298        36.731062     -142.43497     -62.964211      37.253199     -2.4473398     -176.00653    
     10900           5  -48992.769      2.9283099e-06  7.5540909e-05  38.7435        248.489        14.9298        36.730946     -142.42997     -62.966147      37.265388     -2.4968443     -175.82629    
     11000           5  -48992.769      6.1409298e-06  0.00016001598  38.7435        248.489        14.9298        36.759413     -142.53105     -63.007831      37.309572     -2.5513245     -175.67742    
     11100           5  -48992.769      6.8268219e-06  0.00018498688  38.7435        248.489        14.9298        36.797914     -142.66909     -63.063166      37.364077     -2.6019678     -175.55949    
     11200           5  -48992.769      5.3289475e-06  0.00013113556  38.7435        248.489        14.9298        36.848783     -142.84976     -63.136005      37.436344     -2.6653783     -175.41497    
     11300           5  -48992.769      3.7300955e-06  7.8577537e-05  38.7435        248.489        14.9298        36.871915     -142.92973     -63.169239      37.471245     -2.6988645     -175.33089    
     11400           5  -48992.769      1.4782229e-06  4.8582414e-05  38.7435        248.489        14.9298        36.890545     -142.98997     -63.196352      37.503527     -2.7368346     -175.22039    
     11500           5  -48992.769      1.1736444e-06  8.2160138e-05  38.7435        248.489        14.9298        36.895155     -142.9995      -63.203521      37.516773     -2.7604353     -175.13771    
     11600           5  -48992.769      1.4765469e-06  0.00011396738  38.7435        248.489        14.9298        36.892754     -142.98262     -63.200798      37.52129      -2.7791098     -175.05994    
     11700           5  -48992.769      2.0684284e-06  0.00013549781  38.7435        248.489        14.9298        36.882347     -142.9331      -63.186929      37.51762      -2.7970836     -174.96808    
     11800           5  -48992.769      2.3957022e-06  0.00013728528  38.7435        248.489        14.9298        36.86866      -142.8716      -63.168274      37.50832      -2.8086866     -174.89356    
     11900           5  -48992.769      2.4233339e-06  0.00013085494  38.7435        248.489        14.9298        36.857203     -142.82038     -63.152517      37.499235     -2.8150167     -174.84379    
     12000           5  -48992.769      2.3255918e-06  0.0001190973   38.7435        248.489        14.9298        36.843365     -142.75781     -63.133351      37.487279     -2.8203513     -174.79195    
     12100           5  -48992.769      2.2026533e-06  0.00010776934  38.7435        248.489        14.9298        36.830331     -142.69755     -63.115145      37.475057     -2.8234686     -174.74979    
     12200           5  -48992.769      2.1462396e-06  0.0001013431   38.7435        248.489        14.9298        36.820726     -142.65216     -63.10161       37.465362     -2.82461       -174.72285    
     12300           5  -48992.769      2.149401e-06   9.7357214e-05  38.7435        248.489        14.9298        36.809951     -142.60043     -63.086294      37.453676     -2.8246679     -174.69723    
     12400           5  -48992.769      2.2122362e-06  9.6740333e-05  38.7435        248.489        14.9298        36.800451     -142.55445     -63.072682      37.442636     -2.8236642     -174.67882    
     12500           5  -48992.769      2.4676188e-06  0.00010172764  38.7435        248.489        14.9298        36.784656     -142.4781      -63.049877      37.422964     -2.8201988     -174.6557     
     12600           5  -48992.769      2.5090991e-06  0.00010202183  38.7435        248.489        14.9298        36.774866     -142.43102     -63.035658      37.410127     -2.8171771     -174.6451     
     12700           5  -48992.769      2.6477363e-06  0.0001050384   38.7435        248.489        14.9298        36.76256      -142.37226     -63.01773       37.393444     -2.8127003     -174.63474    
     12800           5  -48992.769      2.7843509e-06  0.0001078722   38.7435        248.489        14.9298        36.746887     -142.29788     -62.994817      37.37148      -2.8061463     -174.62519    
     12900           5  -48992.769      2.8638389e-06  0.00010914162  38.7435        248.489        14.9298        36.734678     -142.24013     -62.976913      37.353887     -2.8005171     -174.61994    
     13000           5  -48992.769      2.9189581e-06  0.00010969089  38.7435        248.489        14.9298        36.722157     -142.18094     -62.958503      37.335441     -2.7943437     -174.61618    
     13100           5  -48992.769      2.960204e-06   0.00010952527  38.7435        248.489        14.9298        36.706655     -142.10758     -62.935635      37.312036     -2.7861906     -174.6135     
     13200           5  -48992.769      2.9747769e-06  0.00010883664  38.7435        248.489        14.9298        36.692562     -142.04071     -62.914773      37.290228     -2.7783406     -174.6127     
     13300           5  -48992.769      2.979028e-06   0.00010785429  38.7435        248.489        14.9298        36.678283     -141.97272     -62.893568      37.267633     -2.7700093     -174.61325    
     13400           5  -48992.769      2.9765765e-06  0.00010694278  38.7435        248.489        14.9298        36.666391     -141.91588     -62.875852      37.248433     -2.7628025     -174.61464    
     13500           5  -48992.769      2.9744264e-06  0.00010554657  38.7435        248.489        14.9298        36.648142     -141.82826     -62.848573      37.218318     -2.7513181     -174.61817    
     13600           5  -48992.769      2.957363e-06   0.00010468887  38.7435        248.489        14.9298        36.636785     -141.77348     -62.831538      37.199186     -2.7439344     -174.62111    
     13700           5  -48992.769      2.9436968e-06  0.00010360663  38.7435        248.489        14.9298        36.621658     -141.70025     -62.808789      37.173278     -2.7338622     -174.62572    
     13800           5  -48992.769      2.930935e-06   0.0001024977   38.7435        248.489        14.9298        36.605868     -141.62348     -62.784969      37.145738     -2.7230869     -174.63123    
     13900           5  -48992.769      2.9096417e-06  0.0001016944   38.7435        248.489        14.9298        36.59469      -141.56893     -62.768065      37.125949     -2.7153124     -174.63548    
     14000           5  -48992.769      2.8920643e-06  0.00010085513  38.7435        248.489        14.9298        36.583435     -141.51385     -62.75101       37.10579      -2.7073723     -174.64       
     14100           5  -48992.769      2.8635383e-06  9.9492266e-05  38.7435        248.489        14.9298        36.566341     -141.42987     -62.72504       37.074734     -2.6951044     -174.64725    
     14200           5  -48992.769      2.8383448e-06  9.8528375e-05  38.7435        248.489        14.9298        36.555139     -141.37463     -62.70798       37.054096     -2.6869321     -174.65221    
     14300           5  -48992.769      2.807088e-06   9.727854e-05   38.7435        248.489        14.9298        36.54145      -141.3069      -62.687088      37.028582     -2.6768115     -174.65845    
     14400           5  -48992.769      2.7699934e-06  9.5889652e-05  38.7435        248.489        14.9298        36.527097     -141.23561     -62.665132      37.001491     -2.6660458     -174.66516    
     14500           5  -48992.769      2.7404762e-06  9.4828134e-05  38.7435        248.489        14.9298        36.516579     -141.18318     -62.649009      36.981418     -2.6580577     -174.67016    
     14600           5  -48992.769      2.7105131e-06  9.3752224e-05  38.7435        248.489        14.9298        36.50621      -141.13135     -62.633088      36.961455     -2.6501046     -174.67513    
     14700           5  -48992.769      2.6682561e-06  9.2229722e-05  38.7435        248.489        14.9298        36.491932     -141.05975     -62.611124      36.933685     -2.6390261     -174.68203    
     14800           5  -48992.769      2.6327038e-06  9.1035071e-05  38.7435        248.489        14.9298        36.480973     -141.00459     -62.59423       36.912152     -2.6304231     -174.68733    
     14900           5  -48992.769      2.5941693e-06  8.9719924e-05  38.7435        248.489        14.9298        36.469111     -140.94472     -62.575917      36.888647     -2.6210202     -174.69307    
     15000           5  -48992.769      2.5510315e-06  8.8267769e-05  38.7435        248.489        14.9298        36.456229     -140.8795      -62.555992      36.862891     -2.6107015     -174.69926    
     15100           5  -48992.769      2.5121412e-06  8.6975406e-05  38.7435        248.489        14.9298        36.444936     -140.82216     -62.538496      36.840127     -2.6015674     -174.70465    
     15200           5  -48992.769      2.4751125e-06  8.5754531e-05  38.7435        248.489        14.9298        36.434407     -140.76856     -62.522163      36.818755     -2.5929791     -174.70961    
     15300           5  -48992.769      2.4320503e-06  8.4328169e-05  38.7435        248.489        14.9298        36.42228      -140.70668     -62.503323      36.793969     -2.583002      -174.71524    
     15400           5  -48992.769      2.3958106e-06  8.3141079e-05  38.7435        248.489        14.9298        36.412314     -140.65573     -62.487821      36.773473     -2.574736      -174.71979    
     15500           5  -48992.769      2.3538928e-06  8.1762051e-05  38.7435        248.489        14.9298        36.400874     -140.59712     -62.470006      36.749814     -2.5651747     -174.72493    
     15600           5  -48992.769      2.3134272e-06  8.0436414e-05  38.7435        248.489        14.9298        36.390005     -140.54134     -62.453062      36.727214     -2.5560197     -174.72972    
     15700           5  -48992.769      2.2777039e-06  7.9271319e-05  38.7435        248.489        14.9298        36.380544     -140.49271     -62.438299      36.707453     -2.5479955     -174.73379    
     15800           5  -48992.769      2.2391579e-06  7.8010965e-05  38.7435        248.489        14.9298        36.370392     -140.44047     -62.422445      36.686165     -2.5393309     -174.73808    
     15900           5  -48992.769      2.1947313e-06  7.6573995e-05  38.7435        248.489        14.9298        36.358918     -140.38135     -62.404512      36.662013     -2.5294741     -174.74279    
     16000           5  -48992.769      2.1612766e-06  7.5486559e-05  38.7435        248.489        14.9298        36.350291     -140.33687     -62.391019      36.643796     -2.522019      -174.74624    
     16100           5  -48992.769      2.1242034e-06  7.4279054e-05  38.7435        248.489        14.9298        36.340766     -140.28772     -62.376115      36.623636     -2.5137478     -174.74996    
     16200           5  -48992.769      2.0840644e-06  7.2969198e-05  38.7435        248.489        14.9298        36.330491     -140.2347      -62.360031      36.601843     -2.5047802     -174.75385    
     16300           5  -48992.769      2.0518363e-06  7.1918879e-05  38.7435        248.489        14.9298        36.322287     -140.19235     -62.347182      36.584413     -2.4975866     -174.75687    
     16400           5  -48992.769      2.0132198e-06  7.0654846e-05  38.7435        248.489        14.9298        36.312452     -140.14158     -62.331777      36.563497     -2.4889286     -174.76038    
     16500           5  -48992.769      1.9757908e-06  6.9419292e-05  38.7435        248.489        14.9298        36.302874     -140.09217     -62.316773      36.543113     -2.4804622     -174.76368    
     16600           5  -48992.769      1.9442577e-06  6.8391021e-05  38.7435        248.489        14.9298        36.294922     -140.05117     -62.304316      36.526188     -2.4734099     -174.76634    
     16700           5  -48992.769      1.9098494e-06  6.7265581e-05  38.7435        248.489        14.9298        36.286239     -140.00644     -62.290715      36.507713     -2.4656884     -174.76915    
     16800           5  -48992.769      1.8689648e-06  6.5905018e-05  38.7435        248.489        14.9298        36.275766     -139.95254     -62.274313      36.485447     -2.4563497     -174.77241    
     16900           5  -48992.769      1.8397804e-06  6.496626e-05   38.7435        248.489        14.9298        36.26855      -139.91545     -62.263013      36.470123     -2.4499009     -174.77457    
     17000           5  -48992.769      1.8077683e-06  6.3913715e-05  38.7435        248.489        14.9298        36.260467     -139.87397     -62.250361      36.452985     -2.4426678     -174.77691    
     17100           5  -48992.769      1.7733668e-06  6.2779677e-05  38.7435        248.489        14.9298        36.251766     -139.82939     -62.236748      36.434574     -2.4348719     -174.77932    
     17200           5  -48992.769      1.7400091e-06  6.1679051e-05  38.7435        248.489        14.9298        36.243323     -139.78622     -62.223545      36.416754     -2.4273005     -174.78156    
     17300           5  -48992.769      1.7115164e-06  6.0686643e-05  38.7435        248.489        14.9298        36.235708     -139.74736     -62.211646      36.400728     -2.4204694     -174.7835     
     17400           5  -48992.769      1.6829533e-06  5.9624622e-05  38.7435        248.489        14.9298        36.227555     -139.70586     -62.198913      36.383625     -2.4131542     -174.78548    
     17500           5  -48992.769      1.6515407e-06  5.872476e-05   38.7435        248.489        14.9298        36.220643     -139.67076     -62.188126      36.369174     -2.4069523     -174.78709    
     17600           5  -48992.769      1.6215421e-06  5.7618272e-05  38.7435        248.489        14.9298        36.212129     -139.62765     -62.174852      36.351447     -2.3993179     -174.78899    
     17700           5  -48992.769      1.6145526e-06  5.6616947e-05  38.7435        248.489        14.9298        36.204355     -139.58841     -62.162741      36.335333     -2.3923513     -174.79065    
     17800           5  -48992.769      1.5653115e-06  5.5789155e-05  38.7435        248.489        14.9298        36.198022     -139.55654     -62.152886      36.322267     -2.3866832     -174.79194    
     17900           5  -48992.769      1.5385686e-06  5.4847322e-05  38.7435        248.489        14.9298        36.190735     -139.51998     -62.141557      36.3073       -2.3801682     -174.79336    
     18000           5  -48992.769      1.5243906e-06  5.3751908e-05  38.7435        248.489        14.9298        36.1822       -139.47733     -62.128303      36.289869     -2.3725505     -174.79494    
     18100           5  -48992.769      1.4844617e-06  5.2999005e-05  38.7435        248.489        14.9298        36.17638      -139.44834     -62.119277      36.278051     -2.3673657     -174.79597    
     18200           5  -48992.769      1.4670897e-06  5.225315e-05   38.7435        248.489        14.9298        36.17056      -139.41945     -62.110258      36.266287     -2.3621886     -174.79697    
     18300           5  -48992.769      4.6122119e-06  5.2965172e-05  38.7435        248.489        14.9298        36.162531     -139.37976     -62.097835      36.250162     -2.3550642     -174.79828    
     18400           5  -48992.769      1.4120813e-06  5.0535157e-05  38.7435        248.489        14.9298        36.157098     -139.353       -62.089439      36.239318     -2.3502544     -174.79912    
     18500           5  -48992.769      1.387881e-06   4.9668577e-05  38.7435        248.489        14.9298        36.150269     -139.3195      -62.078899      36.225771     -2.3442239     -174.80014    
     18600           5  -48992.769      1.4010806e-06  4.879525e-05   38.7435        248.489        14.9298        36.143181     -139.28489     -62.067975      36.211808     -2.3379822     -174.80115    
     18700           5  -48992.769      1.3409886e-06  4.8102695e-05  38.7435        248.489        14.9298        36.137859     -139.259       -62.059784      36.201394     -2.3333091     -174.80187    
     18782           5  -48992.769      1.3201257e-06  4.7370128e-05  38.7435        248.489        14.9298        36.13202      -139.23072     -62.050809      36.19004      -2.3281958     -174.80264    
Loop time of 270.99 on 2 procs for 9329 steps with 11052 atoms

98.6% CPU use with 2 MPI tasks x 1 OpenMP threads

Minimization stats:
  Stopping criterion = force tolerance
  Energy initial, next-to-last, final = 
     -48992.7714569177  -48992.7689174278  -48992.7689174953
  Force two-norm initial, final = 1.2286598e-05 4.7370128e-05
  Force max component initial, final = 5.2946002e-07 1.3201257e-06
  Final line search alpha, max atom move = 0 0
  Iterations, force evaluations = 9329 9840

MPI task timing breakdown:
Section |  min time  |  avg time  |  max time  |%varavg| %total
---------------------------------------------------------------
Pair    | 227.58     | 228.74     | 229.89     |   7.6 | 84.41
Neigh   | 0          | 0          | 0          |   0.0 |  0.00
Comm    | 5.4003     | 6.5605     | 7.7208     |  45.3 |  2.42
Output  | 0.1497     | 0.15873    | 0.16777    |   2.3 |  0.06
Modify  | 23.643     | 23.655     | 23.667     |   0.2 |  8.73
Other   |            | 11.88      |            |       |  4.38

Nlocal:           5526 ave        5544 max        5508 min
Histogram: 1 0 0 0 0 0 0 0 0 1
Nghost:           8587 ave        8624 max        8550 min
Histogram: 1 0 0 0 0 0 0 0 0 1
Neighs:         234627 ave      235438 max      233816 min
Histogram: 1 0 0 0 0 0 0 0 0 1

Total # of neighbors = 469254
Ave neighs/atom = 42.45874
Neighbor list builds = 0
Dangerous builds = 0
write_data /data/home/yazhuo/Project/GBclaw/projects/proj-20260927-164bf2/artifacts/lammps/neb/neb-20260927-045814-1d9965/neb.replica.$i.final.lmp nocoeff
write_data /data/home/yazhuo/Project/GBclaw/projects/proj-20260927-164bf2/artifacts/lammps/neb/neb-20260927-045814-1d9965/neb.replica.5.final.lmp nocoeff
System init for write_data ...
Total wall time: 0:09:07
