LAMMPS (30 Mar 2026)
Processor partition = 15
OMP_NUM_THREADS environment is not set. Defaulting to 1 thread.
  using 1 OpenMP thread(s) per MPI task
clear
OMP_NUM_THREADS environment is not set. Defaulting to 1 thread.
  using 1 OpenMP thread(s) per MPI task
units metal
dimension 3
atom_style atomic
boundary p p p
atom_modify map array
read_data "/data/home/yazhuo/Project/GBclaw/projects/proj-20260927-164bf2/artifacts/lammps/neb/neb-20260927-045814-1d9965/inputs/initial.lmp"
Reading data file ...
  orthogonal box = (-19.37175 -124.2445 -7.4649) to (19.37175 124.2445 7.4649)
  1 by 2 by 1 MPI processor grid
  reading atoms ...
  11052 atoms
  read_data CPU = 0.045 seconds
neighbor 1.0 bin
neigh_modify delay 0 every 1 check yes
pair_style adp
pair_coeff * * "/data/home/yazhuo/Project/GBclaw/src/tools/potentials/NiCr.adp" Ni
group top_boundary empty
0 atoms in group top_boundary
group top_boundary id 5180 5151 5159 5109 5117 5067 5075 5025 5033 4992 5184 5160 5118 5076 5034 5181 5154 5156 5157 5112 5114 5115 5070 5072 5073 5028 5030 5031 4990 4991 5182 5155 5113 5071 5029 5175 5176 5141 5144 5146 5147 5099 5102 5104 5105 5057 5060 5062 5063 5015 5018 5020 5021 4985 4986 5177 5183 5145 5158 5103 5116 5061 5074 5019 5032 5168 5169 5129 5132 5134 5087 5090 5092 5045 5048 5050 5003 5006 5008 4980 5170 5178 5133 5148 5091 5106 5049 5064 5007 5022 11027 11048 10985 11019 10943 10977 10901 10935 10859 10893
100 atoms in group top_boundary
group top_boundary id 10818 10851 11052 11028 10986 10944 10902 10860 11024 11025 11049 10982 10983 11022 10940 10941 10980 10898 10899 10938 10856 10857 10896 10816 10817 10854 11050 11023 10981 10939 10897 10855 11014 11015 11043 11044 10972 10973 11009 11012 10930 10931 10967 10970 10888 10889 10925 10928 10846 10847 10883 10886 10811 10812 10841 10844 11045 11051 11013 11026 10971 10984 10929 10942 10887 10900 10845 10858 11002 11036 11037 10960 10997 11000 10918 10955 10958 10876 10913 10916 10834 10871 10874 10806 10829 10832 11038 11046 11001 11016 10959 10974 10917 10932 10875 10890 10833 10848
198 atoms in group top_boundary
group bottom_boundary empty
0 atoms in group bottom_boundary
group bottom_boundary id 174 125 83 123 84 32 34 10 177 139 175 140 85 87 46 12 47 160 111 124 68 69 126 67 21 33 35 6 7 164 176 128 129 178 127 73 86 88 37 38 9 11 36 152 161 105 110 58 59 109 112 57 70 15 19 20 22 2 3 156 163 114 115 162 165 113 130 63 71 72 74 24 25 5 8 23 39 151 153 104 56 103 106 55 60 13 14 16 1 155 108 154 157 107 116 61 62 64 18 4
100 atoms in group bottom_boundary
group bottom_boundary id 17 26 5345 5390 5303 5343 5304 5247 5249 5214 5190 5215 5391 5359 5360 5307 5263 5305 5264 5216 5218 5331 5344 5378 5288 5289 5346 5287 5235 5248 5250 5203 5204 5188 5189 5202 5392 5347 5348 5349 5293 5306 5252 5253 5308 5251 5208 5217 5219 5325 5330 5372 5379 5278 5279 5329 5332 5277 5290 5229 5233 5234 5236 5194 5195 5186 5187 5193 5205 5380 5381 5333 5334 5335 5350 5283 5292 5238 5239 5291 5294 5237 5254 5199 5206 5207 5209 5324 5371 5373 5276 5323 5326 5275 5280 5227 5228 5230 5192 5185
200 atoms in group bottom_boundary
group bottom_boundary id 5191 5196 5374 5375 5327 5328 5336 5282 5232 5281 5284 5231 5240 5197 5198 5200
216 atoms in group bottom_boundary
group fixed_xy union top_boundary bottom_boundary
414 atoms in group fixed_xy
variable __gb_neb_count_top_boundary equal count(top_boundary)
variable __gb_neb_count_top_boundary delete
variable __gb_neb_count_bottom_boundary equal count(bottom_boundary)
variable __gb_neb_count_bottom_boundary delete
min_style fire
timestep 0.01
fix neb_path all neb 1
fix hold_boundary_xy fixed_xy setforce 0.0 0.0 NULL
thermo 100
thermo_style custom step part pe fmax fnorm lx ly lz pxx pyy pzz pxy pxz pyz
thermo_modify flush yes
variable i equal part
dump neb_dump all custom 1000 /data/home/yazhuo/Project/GBclaw/projects/proj-20260927-164bf2/artifacts/lammps/neb/neb-20260927-045814-1d9965/neb.replica.$i.lammpstrj id type x y z ix iy iz fx fy fz
dump neb_dump all custom 1000 /data/home/yazhuo/Project/GBclaw/projects/proj-20260927-164bf2/artifacts/lammps/neb/neb-20260927-045814-1d9965/neb.replica.15.lammpstrj id type x y z ix iy iz fx fy fz
dump_modify neb_dump sort id
run 0
WARNING: No fixes with time integration, atoms won't move
For more information see https://docs.lammps.org/err0028 (src/verlet.cpp:60)
Neighbor list info ...
  update: every = 1 steps, delay = 0 steps, check = yes
  max neighbors/atom: 2000, page size: 100000
  master list distance cutoff = 6.168302
  ghost atom cutoff = 6.168302
  binsize = 3.084151, bins = 13 81 5
  1 neighbor lists, perpetual/occasional/extra = 1 0 0
  (1) pair adp, perpetual
      attributes: half, newton on
      pair build: half/bin/atomonly/newton
      stencil: half/bin/3d
      bin: standard
Per MPI rank memory allocation (min/avg/max) = 7.422 | 7.43 | 7.438 Mbytes
   Step        Part         PotEng          Fmax          Fnorm            Lx             Ly             Lz            Pxx            Pyy            Pzz            Pxy            Pxz            Pyz      
         0          15  -48992.796      0.0024845783   0.10363051     38.7435        248.489        14.9298        0.19007438     2.918104      -3.7172695      0.3830234      3.2510357e-05 -0.0010155383 
Loop time of 3.0555e-06 on 2 procs for 0 steps with 11052 atoms

65.5% CPU use with 2 MPI tasks x 1 OpenMP threads

MPI task timing breakdown:
Section |  min time  |  avg time  |  max time  |%varavg| %total
---------------------------------------------------------------
Pair    | 0          | 0          | 0          |   0.0 |  0.00
Neigh   | 0          | 0          | 0          |   0.0 |  0.00
Comm    | 0          | 0          | 0          |   0.0 |  0.00
Output  | 0          | 0          | 0          |   0.0 |  0.00
Modify  | 0          | 0          | 0          |   0.0 |  0.00
Other   |            | 3.056e-06  |            |       |100.00

Nlocal:           5526 ave        5544 max        5508 min
Histogram: 1 0 0 0 0 0 0 0 0 1
Nghost:           7959 ave        8011 max        7907 min
Histogram: 1 0 0 0 0 0 0 0 0 1
Neighs:         234603 ave      234962 max      234244 min
Histogram: 1 0 0 0 0 0 0 0 0 1

Total # of neighbors = 469206
Ave neighs/atom = 42.454397
Neighbor list builds = 0
Dangerous builds = 0
neb 0 0.0001 10000 10000 100 final "/data/home/yazhuo/Project/GBclaw/projects/proj-20260927-164bf2/artifacts/lammps/neb/neb-20260927-045814-1d9965/inputs/final.neb.coords" verbosity default
  Parameters for fire:
    dmax  delaystep dtgrow dtshrink alpha0 alphashrink tmax tmin   integrator   halfstepback   abcfire  
     0.1     20      1.1     0.5     0.25     0.99      10  0.02 eulerimplicit      yes          no     
Per MPI rank memory allocation (min/avg/max) = 9.901 | 9.909 | 9.917 Mbytes
   Step        Part         PotEng          Fmax          Fnorm            Lx             Ly             Lz            Pxx            Pyy            Pzz            Pxy            Pxz            Pyz      
         0          15  -48992.685      0.1578319      1.0278292      38.7435        248.489        14.9298        173.12417     -570.34399     -162.58751     -85.605505     -7.5059847      43.280926    
       100          15  -48992.805      0.00022536636  0.0088203577   38.7435        248.489        14.9298        189.65159     -643.38911     -156.57948     -94.92234      -35.925309      71.18129     
       200          15  -48992.805      0.00012963488  0.0068718263   38.7435        248.489        14.9298        190.71056     -646.5767      -157.0126      -95.823524     -40.062714      87.499556    
       300          15  -48992.806      9.5137839e-05  0.0052105228   38.7435        248.489        14.9298        191.45165     -648.29309     -157.19987     -96.658968     -43.289195      100.05203    
       400          15  -48992.806      7.2353122e-05  0.0041930207   38.7435        248.489        14.9298        192.04983     -649.50116     -157.29654     -97.472596     -46.060488      110.80096    
       500          15  -48992.806      5.72635e-05    0.0034757635   38.7435        248.489        14.9298        192.53252     -650.35442     -157.33054     -98.24209      -48.488681      120.22344    
       600          15  -48992.806      4.9187113e-05  0.003065508    38.7435        248.489        14.9298        192.82423     -650.80396     -157.32584     -98.772657     -50.039591      126.30817    
       700          15  -48992.807      4.2756439e-05  0.0027326547   38.7435        248.489        14.9298        193.0709      -651.14022     -157.30412     -99.271645     -51.392071      131.70852    
       800          15  -48992.807      3.7484514e-05  0.002427763    38.7435        248.489        14.9298        193.33655     -651.45481     -157.25565     -99.893194     -52.937114      138.03472    
       900          15  -48992.807      4.0109087e-05  0.0023493591   38.7435        248.489        14.9298        193.48853     -651.61343     -157.20414     -100.35028     -54.027299      142.5679     
      1000          15  -48992.807      3.6878248e-05  0.0020830486   38.7435        248.489        14.9298        193.61232     -651.72762     -157.13808     -100.83401     -55.10618       147.14012    
      1100          15  -48992.807      3.3096291e-05  0.0018144451   38.7435        248.489        14.9298        193.7337      -651.82047     -157.05569     -101.37028     -56.088813      151.56262    
      1200          15  -48992.807      3.0910238e-05  0.0016493409   38.7435        248.489        14.9298        193.81267     -651.86991     -156.98292     -101.79903     -56.761064      154.75065    
      1300          15  -48992.807      2.8579638e-05  0.0014969591   38.7435        248.489        14.9298        193.87591     -651.90205     -156.90853     -102.21065     -57.317401      157.53448    
      1400          15  -48992.807      2.593415e-05   0.0013357841   38.7435        248.489        14.9298        193.93647     -651.92456     -156.81568     -102.69579     -57.866114      160.47942    
      1500          15  -48992.807      2.354196e-05   0.0011981944   38.7435        248.489        14.9298        193.9814      -651.93326     -156.72037     -103.16531     -58.296334      163.00694    
      1600          15  -48992.807      2.1733013e-05  0.0010989842   38.7435        248.489        14.9298        194.00834     -651.93263     -156.64076     -103.54157     -58.578173      164.82663    
      1700          15  -48992.807      1.959033e-05   0.00098729742  38.7435        248.489        14.9298        194.03127     -651.92389     -156.53766     -104.0084      -58.858156      166.85123    
      1800          15  -48992.807      1.7748414e-05  0.00089654488  38.7435        248.489        14.9298        194.04248     -651.90956     -156.44103     -104.42771     -59.049418      168.46376    
      1900          15  -48992.807      1.6161688e-05  0.0008219454   38.7435        248.489        14.9298        194.04562     -651.89225     -156.35093     -104.80537     -59.178557      169.76527    
      2000          15  -48992.807      1.4685056e-05  0.00075552559  38.7435        248.489        14.9298        194.04255     -651.87178     -156.26033     -105.17311     -59.267394      170.9007     
      2100          15  -48992.807      1.3035392e-05  0.00068434578  38.7435        248.489        14.9298        194.03139     -651.84328     -156.1487      -105.61003     -59.329551      172.0907     
      2200          15  -48992.807      1.197905e-05   0.00063936762  38.7435        248.489        14.9298        194.01878     -651.82075     -156.06771     -105.91679     -59.348071      172.83098    
      2300          15  -48992.807      1.0794693e-05  0.00058690523  38.7435        248.489        14.9298        193.99649     -651.78855     -155.95953     -106.31437     -59.346319      173.68708    
      2400          15  -48992.807      9.8865974e-06  0.00053737525  38.7435        248.489        14.9298        193.96359     -651.74897     -155.83656     -106.7499      -59.319277      174.51074    
      2500          15  -48992.807      9.5670065e-06  0.00051044873  38.7435        248.489        14.9298        193.93568     -651.71936     -155.7515      -107.04175     -59.293523      175.01246    
      2600          15  -48992.807      9.469031e-06   0.00049116841  38.7435        248.489        14.9298        193.90199     -651.68635     -155.66297     -107.33783     -59.267502      175.49598    
      2700          15  -48992.807      9.4932786e-06  0.00047873111  38.7435        248.489        14.9298        193.84442     -651.63407     -155.5338      -107.75732     -59.23823       176.15421    
      2800          15  -48992.807      9.4767053e-06  0.00047622231  38.7435        248.489        14.9298        193.79397     -651.59075     -155.43399     -108.07271     -59.223965      176.63317    
      2900          15  -48992.807      9.3044803e-06  0.00047288367  38.7435        248.489        14.9298        193.72411     -651.53301     -155.30703     -108.46489     -59.213434      177.20695    
      3000          15  -48992.807      8.7473054e-06  0.00045552874  38.7435        248.489        14.9298        193.63751     -651.46376     -155.15922     -108.91057     -59.202761      177.81113    
      3100          15  -48992.807      8.2067815e-06  0.0004367846   38.7435        248.489        14.9298        193.57152     -651.41225     -155.05058     -109.2316      -59.192232      178.2074     
      3200          15  -48992.807      7.6184103e-06  0.00041601112  38.7435        248.489        14.9298        193.50322     -651.35985     -154.94046     -109.55184     -59.177714      178.56682    
      3300          15  -48992.807      6.9018718e-06  0.00039212395  38.7435        248.489        14.9298        193.40989     -651.28951     -154.79271     -109.97418     -59.151929      178.9867     
      3400          15  -48992.807      6.302049e-06   0.00037293641  38.7435        248.489        14.9298        193.32848     -651.22913     -154.66589     -110.33063     -59.124871      179.29565    
      3500          15  -48992.807      5.7345992e-06  0.00035649256  38.7435        248.489        14.9298        193.24002     -651.16442     -154.52985     -110.70754     -59.091675      179.58094    
      3600          15  -48992.807      5.1167177e-06  0.00034006978  38.7435        248.489        14.9298        193.13677     -651.08989     -154.37294     -111.13585     -59.048817      179.85638    
      3700          15  -48992.807      4.9533775e-06  0.00032940185  38.7435        248.489        14.9298        193.05646     -651.03257     -154.25208     -111.46151     -59.013108      180.03382    
      3800          15  -48992.807      4.8231807e-06  0.00031992307  38.7435        248.489        14.9298        192.9743      -650.97447     -154.12936     -111.78867     -58.97496       180.18671    
      3900          15  -48992.807      4.6228747e-06  0.00030814151  38.7435        248.489        14.9298        192.83658     -650.87818     -153.92542     -112.32515     -58.908103      180.38669    
      4000          15  -48992.807      4.6808858e-06  0.00030243106  38.7435        248.489        14.9298        192.74076     -650.81197     -153.78471     -112.6903      -58.86          180.48942    
      4100          15  -48992.807      4.7393269e-06  0.00029683777  38.7435        248.489        14.9298        192.64461     -650.74615     -153.64434     -113.05047     -58.81093       180.56637    
      4200          15  -48992.807      4.8131154e-06  0.00029329319  38.7435        248.489        14.9298        192.53609     -650.67254     -153.48683     -113.45015     -58.754988      180.6267     
      4300          15  -48992.807      4.8887065e-06  0.00029056132  38.7435        248.489        14.9298        192.4114      -650.58885     -153.30693     -113.90085     -58.690668      180.66644    
      4400          15  -48992.807      4.9380834e-06  0.00028895058  38.7435        248.489        14.9298        192.31245     -650.52309     -153.16494     -114.25221     -58.639941      180.67851    
      4500          15  -48992.807      4.9994147e-06  0.00028806051  38.7435        248.489        14.9298        192.188       -650.44119     -152.98727     -114.68663     -58.576902      180.67345    
      4600          15  -48992.807      5.0402138e-06  0.00028761363  38.7435        248.489        14.9298        192.08759     -650.37579     -152.84461     -115.0311      -58.526926      180.65504    
      4700          15  -48992.807      5.0754677e-06  0.00028725748  38.7435        248.489        14.9298        191.97776     -650.30493     -152.68925     -115.40173     -58.473391      180.62211    
      4800          15  -48992.807      5.1086274e-06  0.00028716859  38.7435        248.489        14.9298        191.86465     -650.23272     -152.52999     -115.77689     -58.419706      180.57679    
      4900          15  -48992.807      5.1398851e-06  0.00028708257  38.7435        248.489        14.9298        191.73007     -650.14779     -152.34141     -116.21481     -58.357994      180.5103     
      5000          15  -48992.807      5.1562866e-06  0.00028683596  38.7435        248.489        14.9298        191.61671     -650.07709     -152.18332     -116.57648     -58.308042      180.44551    
      5100          15  -48992.807      5.168905e-06   0.00028643709  38.7435        248.489        14.9298        191.49133     -649.99976     -152.00924     -116.96914     -58.25504       180.36647    
      5200          15  -48992.807      5.1740497e-06  0.00028575713  38.7435        248.489        14.9298        191.36116     -649.92047     -151.82936     -117.36849     -58.202678      180.27776    
      5300          15  -48992.807      5.1704208e-06  0.00028491287  38.7435        248.489        14.9298        191.25308     -649.8554      -151.68065     -117.6937      -58.161349      180.20011    
      5400          15  -48992.807      5.1601829e-06  0.00028364366  38.7435        248.489        14.9298        191.12644     -649.78003     -151.50713     -118.06761     -58.115398      180.10575    
      5500          15  -48992.807      5.1395508e-06  0.00028181692  38.7435        248.489        14.9298        190.98591     -649.6975      -151.31547     -118.47347     -58.0676        179.99789    
      5600          15  -48992.807      5.1163764e-06  0.00028006727  38.7435        248.489        14.9298        190.8763      -649.63395     -151.16662     -118.78342     -58.032684      179.91221    
      5700          15  -48992.807      5.0856255e-06  0.00027787147  38.7435        248.489        14.9298        190.75718     -649.56569     -151.00549     -119.1138      -57.997048      179.8183     
      5800          15  -48992.807      5.0420096e-06  0.0002749337   38.7435        248.489        14.9298        190.61956     -649.48786     -150.82014     -119.48716     -57.958866      179.70945    
      5900          15  -48992.807      4.9962366e-06  0.00027200603  38.7435        248.489        14.9298        190.49941     -649.42083     -150.659       -119.80587     -57.928128      179.61463    
      6000          15  -48992.807      4.9453894e-06  0.00026882139  38.7435        248.489        14.9298        190.38117     -649.35569     -150.50103     -120.11296     -57.900185      179.52194    
      6100          15  -48992.807      4.8840616e-06  0.00026506084  38.7435        248.489        14.9298        190.25401     -649.28657     -150.33184     -120.43592     -57.872658      179.42336    
      6200          15  -48992.807      4.8255917e-06  0.00026155418  38.7435        248.489        14.9298        190.14488     -649.22802     -150.18718     -120.70714     -57.851077      179.33993    
      6300          15  -48992.807      4.7441113e-06  0.00025672125  38.7435        248.489        14.9298        190.00504     -649.15404     -150.00256     -121.04678     -57.826055      179.23491    
      6400          15  -48992.807      4.6639392e-06  0.00025204736  38.7435        248.489        14.9298        189.87967     -649.08873     -149.83777     -121.34354     -57.80614       179.14286    
      6500          15  -48992.807      4.5945254e-06  0.00024804554  38.7435        248.489        14.9298        189.77837     -649.03666     -149.70508     -121.57804     -57.791726      179.07007    
      6600          15  -48992.807      4.5103417e-06  0.0002432305   38.7435        248.489        14.9298        189.6623      -648.97777     -149.55359     -121.841       -57.776965      178.98853    
      6700          15  -48992.807      4.4018197e-06  0.00023708868  38.7435        248.489        14.9298        189.52206     -648.90769     -149.37127     -122.15058     -57.761555      178.8928     
      6800          15  -48992.807      4.3165411e-06  0.00023230979  38.7435        248.489        14.9298        189.41827     -648.85662     -149.23689     -122.37378     -57.751845      178.82408    
      6900          15  -48992.807      4.2291119e-06  0.00022743634  38.7435        248.489        14.9298        189.31622     -648.80706     -149.10517     -122.58846     -57.743617      178.75828    
      7000          15  -48992.807      4.1243713e-06  0.00022163849  38.7435        248.489        14.9298        189.19928     -648.75106     -148.95477     -122.82857     -57.735754      178.68513    
      7100          15  -48992.807      4.0345955e-06  0.00021669972  38.7435        248.489        14.9298        189.10308     -648.70565     -148.83145     -123.02134     -57.730504      178.62681    
      7200          15  -48992.807      3.9179188e-06  0.00021031597  38.7435        248.489        14.9298        188.98263     -648.64961     -148.6776      -123.25674     -57.725382      178.55612    
      7300          15  -48992.807      3.8137544e-06  0.00020464914  38.7435        248.489        14.9298        188.87915     -648.60222     -148.54588     -123.4535      -57.722261      178.49757    
      7400          15  -48992.807      3.7179718e-06  0.00019945962  38.7435        248.489        14.9298        188.78686     -648.56054     -148.42878     -123.62473     -57.720425      178.44706    
      7500          15  -48992.807      3.6176115e-06  0.00019404254  38.7435        248.489        14.9298        188.69275     -648.51862     -148.30974     -123.79519     -57.719424      178.3972     
      7600          15  -48992.807      3.4902582e-06  0.00018719705  38.7435        248.489        14.9298        188.57684     -648.46778     -148.1636      -123.9994      -57.719349      178.33809    
      7700          15  -48992.807      3.3960663e-06  0.00018215074  38.7435        248.489        14.9298        188.49338     -648.43174     -148.05872     -124.14235     -57.720069      178.29714    
      7800          15  -48992.807      3.2985605e-06  0.00017693973  38.7435        248.489        14.9298        188.40874     -648.39568     -147.95266     -124.28389     -57.721412      178.25698    
      7900          15  -48992.807      3.1889264e-06  0.00017109724  38.7435        248.489        14.9298        188.31564     -648.35658     -147.83633     -124.43551     -57.723578      178.21439    
      8000          15  -48992.807      3.0881703e-06  0.00016573901  38.7435        248.489        14.9298        188.23178     -648.32188     -147.73185     -124.56841     -57.726116      178.17746    
      8100          15  -48992.807      2.9922598e-06  0.0001606485   38.7435        248.489        14.9298        188.15334     -648.28988     -147.63441     -124.68951     -57.728964      178.14414    
      8200          15  -48992.807      2.8876436e-06  0.00015510728  38.7435        248.489        14.9298        188.06926     -648.25607     -147.53025     -124.81583     -57.7325        178.10975    
      8300          15  -48992.807      2.7966696e-06  0.00015029459  38.7435        248.489        14.9298        187.99726     -648.22753     -147.44129     -124.9211      -57.735906      178.08139    
      8400          15  -48992.807      2.6979639e-06  0.00014507999  38.7435        248.489        14.9298        187.92024     -648.19742     -147.34638     -125.03076     -57.739904      178.05214    
      8500          15  -48992.807      2.6200147e-06  0.00014096665  38.7435        248.489        14.9298        187.86018     -648.17425     -147.27255     -125.11409     -57.743263      178.03011    
      8600          15  -48992.807      2.5404407e-06  0.00013677077  38.7435        248.489        14.9298        187.79952     -648.15113     -147.19814     -125.19631     -57.746858      178.00857    
      8700          15  -48992.807      2.4349602e-06  0.00013121275  38.7435        248.489        14.9298        187.72006     -648.12129     -147.10092     -125.30097     -57.751853      177.98141    
      8800          15  -48992.807      2.3371502e-06  0.0001260629   38.7435        248.489        14.9298        187.6473      -648.0944      -147.01215     -125.39373     -57.756688      177.95761    
      8900          15  -48992.807      2.2692221e-06  0.00012248556  38.7435        248.489        14.9298        187.5972      -648.07613     -146.95118     -125.45586     -57.760149      177.94181    
      9000          15  -48992.807      2.1813359e-06  0.00011786029  38.7435        248.489        14.9298        187.53298     -648.05302     -146.87318     -125.53346     -57.764725      177.92224    
      9100          15  -48992.807      2.0904143e-06  0.00011307578  38.7435        248.489        14.9298        187.46715     -648.02968     -146.79343     -125.61053     -57.769563      177.90298    
      9200          15  -48992.807      2.0224993e-06  0.00010950129  38.7435        248.489        14.9298        187.41834     -648.01261     -146.73443     -125.66605     -57.773233      177.88922    
      9300          15  -48992.807      1.9536918e-06  0.00010587944  38.7435        248.489        14.9298        187.3692      -647.99563     -146.67516     -125.72052     -57.776989      177.8758     
      9400          15  -48992.807      1.8706908e-06  0.00010150966  38.7435        248.489        14.9298        187.31034     -647.97558     -146.60431     -125.78382     -57.781559      177.86033    
      9453          15  -48992.807      1.8418147e-06  9.9988487e-05  38.7435        248.489        14.9298        187.28995     -647.9687      -146.57981     -125.80525     -57.783157      177.85512    
Loop time of 275.698 on 2 procs for 9453 steps with 11052 atoms

99.0% CPU use with 2 MPI tasks x 1 OpenMP threads

Minimization stats:
  Stopping criterion = force tolerance
  Energy initial, next-to-last, final = 
     -48992.6847846071  -48992.8066644827  -48992.8066644819
  Force two-norm initial, final = 1.0278292 9.9988487e-05
  Force max component initial, final = 0.1578319 1.8418147e-06
  Final line search alpha, max atom move = 0 0
  Iterations, force evaluations = 9453 9970

MPI task timing breakdown:
Section |  min time  |  avg time  |  max time  |%varavg| %total
---------------------------------------------------------------
Pair    | 215.32     | 217.7      | 220.07     |  16.1 | 78.96
Neigh   | 0          | 0          | 0          |   0.0 |  0.00
Comm    | 2.2715     | 4.6564     | 7.0413     | 110.5 |  1.69
Output  | 0.14264    | 0.14892    | 0.15519    |   1.6 |  0.05
Modify  | 18.332     | 18.333     | 18.334     |   0.0 |  6.65
Other   |            | 34.86      |            |       | 12.65

Nlocal:           5526 ave        5544 max        5508 min
Histogram: 1 0 0 0 0 0 0 0 0 1
Nghost:           8594 ave        8631 max        8557 min
Histogram: 1 0 0 0 0 0 0 0 0 1
Neighs:         234657 ave      235364 max      233950 min
Histogram: 1 0 0 0 0 0 0 0 0 1

Total # of neighbors = 469314
Ave neighs/atom = 42.464169
Neighbor list builds = 0
Dangerous builds = 0
  Parameters for fire:
    dmax  delaystep dtgrow dtshrink alpha0 alphashrink tmax tmin   integrator   halfstepback   abcfire  
     0.1     20      1.1     0.5     0.25     0.99      10  0.02 eulerimplicit      yes          no     
Per MPI rank memory allocation (min/avg/max) = 9.901 | 9.909 | 9.917 Mbytes
   Step        Part         PotEng          Fmax          Fnorm            Lx             Ly             Lz            Pxx            Pyy            Pzz            Pxy            Pxz            Pyz      
      9453          15  -48992.807      1.8418147e-06  9.9988487e-05  38.7435        248.489        14.9298        187.28995     -647.9687      -146.57981     -125.80525     -57.783157      177.85512    
      9500          15  -48992.807      1.3616639e-05  0.0012535863   38.7435        248.489        14.9298        187.28687     -647.98671     -146.57411     -125.74607     -57.735761      177.70419    
      9600          15  -48992.807      1.3718675e-05  0.0012535523   38.7435        248.489        14.9298        187.43774     -648.14718     -146.73114     -125.17267     -57.395619      176.69445    
      9700          15  -48992.807      1.3999568e-05  0.0012723801   38.7435        248.489        14.9298        187.55459     -648.26256     -146.85077     -124.74307     -57.132251      175.90851    
      9800          15  -48992.807      1.4190148e-05  0.0012806981   38.7435        248.489        14.9298        187.69774     -648.39942     -146.99648     -124.22678     -56.804395      174.92535    
      9900          15  -48992.807      1.4410382e-05  0.0012906129   38.7435        248.489        14.9298        187.85142     -648.54216     -147.1517      -123.68403     -56.444897      173.84157    
     10000          15  -48992.807      1.451707e-05   0.0012902394   38.7435        248.489        14.9298        187.99607     -648.67313     -147.29656     -123.18385     -56.098941      172.79324    
     10100          15  -48992.807      1.4419976e-05  0.0012713129   38.7435        248.489        14.9298        188.13485     -648.7961      -147.43448     -122.71322     -55.758781      171.75716    
     10200          15  -48992.807      1.3862016e-05  0.0012102066   38.7435        248.489        14.9298        188.27398     -648.91719     -147.57109     -122.24885     -55.406142      170.67696    
     10300          15  -48992.807      1.3038837e-05  0.0011279304   38.7435        248.489        14.9298        188.37348     -649.00287     -147.66728     -121.91962     -55.142162      169.86343    
     10400          15  -48992.807      1.1984953e-05  0.0010254892   38.7435        248.489        14.9298        188.46123     -649.07818     -147.75042     -121.62977     -54.895182      169.09745    
     10500          15  -48992.807      1.0503342e-05  0.00088267002  38.7435        248.489        14.9298        188.55986     -649.16329     -147.84044     -121.30243     -54.587514      168.13454    
     10600          15  -48992.807      9.5199713e-06  0.00078709612  38.7435        248.489        14.9298        188.62136     -649.21731     -147.893       -121.09639     -54.364311      167.42815    
     10700          15  -48992.807      8.8106037e-06  0.00071679824  38.7435        248.489        14.9298        188.66781     -649.25923     -147.9294      -120.93957     -54.165748      166.79321    
     10800          15  -48992.808      8.2737214e-06  0.00066163701  38.7435        248.489        14.9298        188.708       -649.29693     -147.95654     -120.80371     -53.956389      166.11644    
     10900          15  -48992.808      7.9428862e-06  0.00062621201  38.7435        248.489        14.9298        188.73547     -649.32409     -147.97079     -120.71175     -53.777295      165.53129    
     11000          15  -48992.808      7.6545507e-06  0.00059508496  38.7435        248.489        14.9298        188.75688     -649.34676     -147.97721     -120.64165     -53.598802      164.94227    
     11100          15  -48992.808      7.3878503e-06  0.0005670093   38.7435        248.489        14.9298        188.77081     -649.36329     -147.97585     -120.59787     -53.437875      164.40574    
     11200          15  -48992.808      6.9819762e-06  0.00052638463  38.7435        248.489        14.9298        188.77994     -649.37837     -147.96205     -120.57266     -53.228331      163.69782    
     11300          15  -48992.808      6.6976902e-06  0.00049928513  38.7435        248.489        14.9298        188.77944     -649.38305     -147.94633     -120.57786     -53.106854      163.28152    
     11400          15  -48992.808      6.2811388e-06  0.00046108329  38.7435        248.489        14.9298        188.77109     -649.38374     -147.91595     -120.61021     -52.951371      162.74099    
     11500          15  -48992.808      5.9442774e-06  0.00043136948  38.7435        248.489        14.9298        188.75812     -649.37958     -147.88464     -120.65627     -52.837897      162.33977    
     11600          15  -48992.808      5.6130795e-06  0.00040318433  38.7435        248.489        14.9298        188.73963     -649.37145     -147.84691     -120.71987     -52.731893      161.95877    
     11700          15  -48992.808      5.204006e-06   0.00036994422  38.7435        248.489        14.9298        188.70741     -649.3551      -147.78827     -120.82816     -52.604377      161.49083    
     11800          15  -48992.808      4.8532512e-06  0.00034304992  38.7435        248.489        14.9298        188.66935     -649.33434     -147.72406     -120.95396     -52.494903      161.07908    
     11900          15  -48992.808      4.6031205e-06  0.00032491184  38.7435        248.489        14.9298        188.63481     -649.31488     -147.66826     -121.0668      -52.415698      160.77444    
     12000          15  -48992.808      4.3169295e-06  0.00030530778  38.7435        248.489        14.9298        188.58692     -649.28739     -147.59314     -121.22176     -52.32449       160.41583    
     12100          15  -48992.808      4.0499864e-06  0.00028815361  38.7435        248.489        14.9298        188.53337     -649.25629     -147.5112      -121.39329     -52.239746      160.07395    
     12200          15  -48992.808      3.8509971e-06  0.00027604052  38.7435        248.489        14.9298        188.48831     -649.22997     -147.44342     -121.53632     -52.178261      159.81999    
     12300          15  -48992.808      3.6283345e-06  0.00026311069  38.7435        248.489        14.9298        188.43323     -649.19771     -147.36167     -121.70961     -52.112358      159.54141    
     12400          15  -48992.808      3.4392142e-06  0.00025259622  38.7435        248.489        14.9298        188.38261     -649.16804     -147.2874      -121.86743     -52.059108      159.31061    
     12500          15  -48992.808      3.2567062e-06  0.00023808352  38.7435        248.489        14.9298        188.29887     -649.11897     -147.166       -122.12554     -51.983141      158.97081    
     12600          15  -48992.808      2.9812466e-06  0.00022863409  38.7435        248.489        14.9298        188.2486      -649.08956     -147.0939      -122.2787      -51.943704      158.78828    
     12700          15  -48992.808      2.790951e-06   0.00021918702  38.7435        248.489        14.9298        188.18761     -649.05398     -147.00706     -122.46274     -51.900968      158.58471    
     12800          15  -48992.808      2.7197173e-06  0.00020854584  38.7435        248.489        14.9298        188.11286     -649.01051     -146.90149     -122.68569     -51.855263      158.35868    
     12900          15  -48992.808      2.7219196e-06  0.0002010576   38.7435        248.489        14.9298        188.05626     -648.97773     -146.82209     -122.85262     -51.824835      158.2023     
     13000          15  -48992.808      2.7196491e-06  0.00019391668  38.7435        248.489        14.9298        187.99918     -648.9448      -146.74245     -123.01932     -51.797316      158.05587    
     13100          15  -48992.808      2.7032997e-06  0.00018561775  38.7435        248.489        14.9298        187.92939     -648.90475     -146.64563     -123.22082     -51.767585      157.89085    
     13200          15  -48992.808      2.6772836e-06  0.00017843338  38.7435        248.489        14.9298        187.86648     -648.86885     -146.55882     -123.40029     -51.744037      157.75381    
     13300          15  -48992.808      2.6417053e-06  0.00017138444  38.7435        248.489        14.9298        187.8031      -648.8329      -146.47177     -123.57902     -51.72305       157.62569    
     13400          15  -48992.808      2.6050961e-06  0.00016565398  38.7435        248.489        14.9298        187.75061     -648.80329     -146.39996     -123.72547     -51.707597      157.52661    
     13500          15  -48992.808      2.5382477e-06  0.00015703433  38.7435        248.489        14.9298        187.67068     -648.75852     -146.29112     -123.94559     -51.687153      157.38713    
     13600          15  -48992.808      2.4906401e-06  0.00015175059  38.7435        248.489        14.9298        187.62144     -648.73114     -146.22437     -124.0794      -51.676319      157.30773    
     13700          15  -48992.808      2.4215019e-06  0.00014479987  38.7435        248.489        14.9298        187.55662     -648.69533     -146.1368      -124.25353     -51.663919      157.21016    
     13800          15  -48992.808      2.3428282e-06  0.00013764546  38.7435        248.489        14.9298        187.49004     -648.65883     -146.04725     -124.42986     -51.653308      157.11793    
     13900          15  -48992.808      2.2837167e-06  0.00013264069  38.7435        248.489        14.9298        187.44368     -648.63359     -145.98511     -124.55114     -51.647138      157.05832    
     14000          15  -48992.808      2.2215974e-06  0.00012765257  38.7435        248.489        14.9298        187.39768     -648.60869     -145.92364     -124.67021     -51.641968      157.00279    
     14100          15  -48992.808      2.1228891e-06  0.00012017449  38.7435        248.489        14.9298        187.32923     -648.57192     -145.83252     -124.84501     -51.636006      156.92678    
     14200          15  -48992.808      2.0557083e-06  0.00011533927  38.7435        248.489        14.9298        187.28538     -648.54854     -145.77437     -124.95545     -51.633281      156.88229    
     14300          15  -48992.808      1.9714602e-06  0.00010950473  38.7435        248.489        14.9298        187.23287     -648.52073     -145.70496     -125.08609     -51.631097      156.83316    
     14400          15  -48992.808      1.8808608e-06  0.00010347902  38.7435        248.489        14.9298        187.17917     -648.49251     -145.63424     -125.21783     -51.630098      156.78769    
     14500          15  -48992.808      1.8132829e-06  9.9127041e-05  38.7435        248.489        14.9298        187.14073     -648.47244     -145.58379     -125.31097     -51.630154      156.75813    
     14600          15  -48992.808      1.7458771e-06  9.4894199e-05  38.7435        248.489        14.9298        187.10362     -648.45317     -145.53521     -125.39994     -51.630825      156.73198    
     14700          15  -48992.808      1.6521508e-06  8.9169003e-05  38.7435        248.489        14.9298        187.05387     -648.42752     -145.47031     -125.51771     -51.632712      156.70073    
     14800          15  -48992.808      1.5797156e-06  8.4862616e-05  38.7435        248.489        14.9298        187.0168      -648.40853     -145.42212     -125.60432     -51.634885      156.68041    
     14900          15  -48992.808      1.5011877e-06  8.0299269e-05  38.7435        248.489        14.9298        186.97778     -648.38866     -145.37156     -125.6944      -51.637891      156.66181    
     15000          15  -48992.808      1.416003e-06   7.5468716e-05  38.7435        248.489        14.9298        186.93679     -648.36792     -145.31863     -125.78783     -51.641899      156.64553    
     15100          15  -48992.808      1.34163e-06    7.1350213e-05  38.7435        248.489        14.9298        186.90208     -648.35046     -145.27398     -125.86594     -51.646018      156.63452    
     15200          15  -48992.808      1.2727747e-06  6.7617894e-05  38.7435        248.489        14.9298        186.87079     -648.3348      -145.23385     -125.93558     -51.65034       156.62691    
     15300          15  -48992.808      1.1942656e-06  6.3457894e-05  38.7435        248.489        14.9298        186.83605     -648.3175      -145.18945     -126.012       -51.655866      156.62122    
     15400          15  -48992.808      1.1305257e-06  6.0157362e-05  38.7435        248.489        14.9298        186.80859     -648.3039      -145.15449     -126.07172     -51.660827      156.61897    
     15500          15  -48992.808      1.0584285e-06  5.6510156e-05  38.7435        248.489        14.9298        186.77828     -648.28894     -145.11603     -126.13694     -51.666959      156.61893    
     15600          15  -48992.808      9.9117935e-07  5.3195105e-05  38.7435        248.489        14.9298        186.75074     -648.2754      -145.08121     -126.19556     -51.673204      156.62141    
     15700          15  -48992.808      9.337133e-07   5.0433382e-05  38.7435        248.489        14.9298        186.72778     -648.26414     -145.05228     -126.24398     -51.678954      156.62547    
     15800          15  -48992.808      8.7331829e-07  4.76063e-05    38.7435        248.489        14.9298        186.70419     -648.25261     -145.02266     -126.29329     -51.68543       156.63173    
     15900          15  -48992.808      8.06782e-07    4.4590535e-05  38.7435        248.489        14.9298        186.67885     -648.24024     -144.99099     -126.34575     -51.693112      156.64111    
     16000          15  -48992.808      7.5802613e-07  4.2451076e-05  38.7435        248.489        14.9298        186.66075     -648.23142     -144.96845     -126.38293     -51.699134      156.64974    
     16100          15  -48992.808      7.0555965e-07  4.0223899e-05  38.7435        248.489        14.9298        186.6417      -648.22214     -144.94482     -126.42179     -51.706007      156.66075    
     16200          15  -48992.808      6.5067691e-07  3.7985749e-05  38.7435        248.489        14.9298        186.62227     -648.21268     -144.92083     -126.46117     -51.713675      156.67434    
     16300          15  -48992.808      6.0817276e-07  3.6321611e-05  38.7435        248.489        14.9298        186.6076      -648.20552     -144.90278     -126.49075     -51.719979      156.68641    
     16400          15  -48992.808      5.5882514e-07  3.4475067e-05  38.7435        248.489        14.9298        186.59098     -648.19739     -144.88243     -126.52412     -51.72773       156.70225    
     16500          15  -48992.808      5.1254397e-07  3.2834915e-05  38.7435        248.489        14.9298        186.57582     -648.18995     -144.86397     -126.55444     -51.735474      156.71907    
     16600          15  -48992.808      4.754724e-07   3.1588682e-05  38.7435        248.489        14.9298        186.56401     -648.18412     -144.84966     -126.57803     -51.74204       156.73403    
     16700          15  -48992.808      4.3642776e-07  3.0348636e-05  38.7435        248.489        14.9298        186.55189     -648.17811     -144.83505     -126.60221     -51.749343      156.75136    
     16800          15  -48992.808      3.9147329e-07  2.9016765e-05  38.7435        248.489        14.9298        186.53835     -648.17133     -144.81883     -126.62927     -51.758324      156.77356    
     16900          15  -48992.808      3.6217692e-07  2.8198631e-05  38.7435        248.489        14.9298        186.52972     -648.16697     -144.80856     -126.64658     -51.764618      156.78967    
     17000          15  -48992.808      3.3062183e-07  2.737525e-05   38.7435        248.489        14.9298        186.52069     -648.16235     -144.79788     -126.66477     -51.77176       156.80844    
     17100          15  -48992.808      2.9817439e-07  2.6593165e-05  38.7435        248.489        14.9298        186.51173     -648.15771     -144.78737     -126.68294     -51.77955       156.82948    
     17200          15  -48992.808      2.7351313e-07  2.5928465e-05  38.7435        248.489        14.9298        186.50377     -648.15352     -144.77812     -126.69926     -51.787204      156.85068    
     17300          15  -48992.808      2.7411451e-07  2.5402785e-05  38.7435        248.489        14.9298        186.49721     -648.14999     -144.77057     -126.71289     -51.794179      156.87042    
     17400          15  -48992.808      2.7436951e-07  2.4910476e-05  38.7435        248.489        14.9298        186.49082     -648.14647     -144.76328     -126.7264      -51.801718      156.89218    
     17500          15  -48992.808      2.7426841e-07  2.4542769e-05  38.7435        248.489        14.9298        186.4859      -648.14369     -144.75775     -126.73701     -51.808163      156.91111    
     17600          15  -48992.808      2.7378288e-07  2.4145775e-05  38.7435        248.489        14.9298        186.48045     -648.14052     -144.75169     -126.74907     -51.816157      156.93498    
     17700          15  -48992.808      2.7642301e-07  2.3829339e-05  38.7435        248.489        14.9298        186.47605     -648.13784     -144.7469      -126.75913     -51.82351       156.95728    
     17800          15  -48992.808      2.7859001e-07  2.3598312e-05  38.7435        248.489        14.9298        186.47286     -648.13582     -144.7435      -126.7667      -51.82953       156.97579    
     17900          15  -48992.808      2.8060088e-07  2.3357519e-05  38.7435        248.489        14.9298        186.46961     -648.13366     -144.74012     -126.77475     -51.83649       156.99743    
     18000          15  -48992.808      2.8232516e-07  2.3102965e-05  38.7435        248.489        14.9298        186.46635     -648.13135     -144.73685     -126.78331     -51.844679      157.02321    
     18100          15  -48992.808      2.8311963e-07  2.2941862e-05  38.7435        248.489        14.9298        186.46447     -648.1299      -144.73504     -126.78865     -51.850282      157.04104    
     18200          15  -48992.808      2.8362107e-07  2.2788287e-05  38.7435        248.489        14.9298        186.46284     -648.12855     -144.73355     -126.7936      -51.8559        157.05906    
     18300          15  -48992.808      2.8385134e-07  2.2584978e-05  38.7435        248.489        14.9298        186.461       -648.12684     -144.73201     -126.79981     -51.863666      157.08421    
     18400          15  -48992.808      2.8370859e-07  2.2450003e-05  38.7435        248.489        14.9298        186.46002     -648.12578     -144.73129     -126.80362     -51.868931      157.1014     
     18500          15  -48992.808      2.8321923e-07  2.228184e-05   38.7435        248.489        14.9298        186.45907     -648.12456     -144.73074     -126.80801     -51.875557      157.12318    
     18600          15  -48992.808      2.8235846e-07  2.2106203e-05  38.7435        248.489        14.9298        186.4584      -648.12341     -144.73057     -126.81211     -51.88244       157.14598    
     18700          15  -48992.808      2.8148202e-07  2.1971711e-05  38.7435        248.489        14.9298        186.4581      -648.12263     -144.73069     -126.81489     -51.88761       157.16322    
     18782          15  -48992.808      2.8031153e-07  2.1820903e-05  38.7435        248.489        14.9298        186.45796     -648.12184     -144.73106     -126.81768     -51.893283      157.18223    
Loop time of 270.99 on 2 procs for 9329 steps with 11052 atoms

99.0% CPU use with 2 MPI tasks x 1 OpenMP threads

Minimization stats:
  Stopping criterion = force tolerance
  Energy initial, next-to-last, final = 
     -48992.8066644819  -48992.8078373247  -48992.8078372979
  Force two-norm initial, final = 9.9988487e-05 2.1820903e-05
  Force max component initial, final = 1.8418147e-06 2.8031153e-07
  Final line search alpha, max atom move = 0 0
  Iterations, force evaluations = 9329 9840

MPI task timing breakdown:
Section |  min time  |  avg time  |  max time  |%varavg| %total
---------------------------------------------------------------
Pair    | 212.31     | 214.69     | 217.08     |  16.3 | 79.23
Neigh   | 0          | 0          | 0          |   0.0 |  0.00
Comm    | 2.2228     | 4.6141     | 7.0054     | 111.3 |  1.70
Output  | 0.14092    | 0.14961    | 0.1583     |   2.2 |  0.06
Modify  | 19.324     | 19.325     | 19.326     |   0.0 |  7.13
Other   |            | 32.21      |            |       | 11.89

Nlocal:           5526 ave        5544 max        5508 min
Histogram: 1 0 0 0 0 0 0 0 0 1
Nghost:           8594 ave        8631 max        8557 min
Histogram: 1 0 0 0 0 0 0 0 0 1
Neighs:         234651 ave      235342 max      233960 min
Histogram: 1 0 0 0 0 0 0 0 0 1

Total # of neighbors = 469302
Ave neighs/atom = 42.463084
Neighbor list builds = 0
Dangerous builds = 0
write_data /data/home/yazhuo/Project/GBclaw/projects/proj-20260927-164bf2/artifacts/lammps/neb/neb-20260927-045814-1d9965/neb.replica.$i.final.lmp nocoeff
write_data /data/home/yazhuo/Project/GBclaw/projects/proj-20260927-164bf2/artifacts/lammps/neb/neb-20260927-045814-1d9965/neb.replica.15.final.lmp nocoeff
System init for write_data ...
Total wall time: 0:09:07
