LAMMPS data file via write_data, version 30 Mar 2026, timestep = 580, units = metal

11052 atoms
1 atom types

-19.37175440091473 19.37174559908527 xlo xhi
-123.7982680891511 124.690731910849 ylo yhi
-7.464885943232366 7.464914056767634 zlo zhi

Masses

1 58.6934

Atoms # atomic

174 1 -17.276333896662837 -103.00987741037657 -5.274135419627155 0 0 0
176 1 -17.992433585066124 -100.96882318088831 -4.029985415993336 0 0 0
177 1 -17.99243358516714 -100.96882318085574 -6.518285416000942 0 0 0
123 1 -12.971500147796004 -103.00987808455942 -5.274135419423278 0 0 0
124 1 -15.123917031286778 -103.00987782839087 -4.029985420396785 0 0 0
125 1 -15.123917031260106 -103.00987782827981 -6.518285420360674 0 0 0
129 1 -13.687599975405538 -100.96882397033282 -4.02998541701742 0 0 0
139 1 -13.68759997553125 -100.96882397030714 -6.518285417012533 0 0 0
175 1 -15.840016784976886 -100.96882365320988 -5.274135417978523 0 0 0
69 1 -10.819083269398162 -103.00987815126832 -4.029985417528057 0 0 0
83 1 -10.81908326942278 -103.00987815124066 -6.518285417503326 0 0 0
140 1 -11.535183174653596 -100.96882409872589 -5.274135415446285 0 0 0
33 1 -6.5142496295868355 -103.00987770828415 -4.029985415083195 0 0 0
34 1 -6.514249629620231 -103.0098777082736 -6.5182854150861145 0 0 0
84 1 -8.666666423030199 -103.00987802123834 -5.274135416238919 0 0 0
85 1 -7.23034965696073 -100.9688237502784 -5.274135414097061 0 0 0
86 1 -9.382766397067654 -100.96882402239757 -4.029985415094963 0 0 0
87 1 -9.38276639714181 -100.96882402235826 -6.518285415138166 0 0 0
32 1 -4.361832904346626 -103.00987724769233 -5.274135414376159 0 0 0
38 1 -5.077932962558399 -100.96882331310157 -4.029985412199264 0 0 0
46 1 -5.077932962615361 -100.96882331307266 -6.51828541230634 0 0 0
7 1 -2.2094162550705847 -103.00987669804924 -4.029985413867297 0 0 0
10 1 -2.209416255116234 -103.00987669796103 -6.518285413876042 0 0 0
11 1 -0.773099719455765 -100.96882217046172 -4.029985409481591 0 0 0
12 1 -0.7730997195427367 -100.96882217045228 -6.5182854095060305 0 0 0
47 1 -2.9255163173006844 -100.96882276483163 -5.27413541339868 0 0 0
5390 1 -0.056999678956831085 -103.00987612479675 -5.274135411483227 0 0 0
181 1 -16.556208558405295 -98.93500199982374 -4.029985415215751 0 0 0
187 1 -16.556208558509166 -98.93500199987187 -6.518285415196804 0 0 0
200 1 -18.70862534308424 -98.93500147474015 -5.27413541078626 0 0 0
204 1 -17.272405417512726 -96.90271791557895 -5.274135411719507 0 0 0
188 1 -14.40379177074306 -98.93500238007925 -5.274135414806697 0 0 0
189 1 -12.967571847264555 -96.90271862028888 -5.274135412427111 0 0 0
190 1 -15.119988623979586 -96.902718362328 -4.029985412663392 0 0 0
191 1 -15.11998862390766 -96.90271836227676 -6.518285412597543 0 0 0
141 1 -10.098958250549407 -98.93500255108647 -5.274135413125299 0 0 0
142 1 -12.251374998113816 -98.93500257111596 -4.029985414135098 0 0 0
143 1 -12.251374998094157 -98.93500257103017 -6.518285414161021 0 0 0
147 1 -10.815155099322258 -96.90271865977434 -4.02998541060983 0 0 0
149 1 -10.81515509928595 -96.90271865981032 -6.518285410618059 0 0 0
91 1 -7.946541538565426 -98.93500232298697 -4.02998541150018 0 0 0
97 1 -7.946541538607876 -98.935002322991 -6.518285411524306 0 0 0
100 1 -6.510321728243585 -96.90271809463296 -4.029985406452255 0 0 0
101 1 -6.510321728282743 -96.90271809455697 -6.518285406393253 0 0 0
150 1 -8.66273839107202 -96.9027184755969 -5.274135407415882 0 0 0
49 1 -3.641708238961186 -98.93500137263716 -4.0299854104484005 0 0 0
50 1 -3.6417082389402577 -98.93500137261377 -6.518285410407334 0 0 0
98 1 -5.794124867967284 -98.93500191389133 -5.274135410190115 0 0 0
99 1 -4.357905108971472 -96.90271755695571 -5.274135404441371 0 0 0
48 1 -1.4892916471510476 -98.93500076267613 -5.274135406402927 0 0 0
53 1 -2.205488528553553 -96.902716928665 -4.029985402854059 0 0 0
54 1 -2.2054885284781363 -96.90271692855151 -6.5182854028601565 0 0 0
5412 1 -0.05307197555282395 -96.90271628616463 -5.274135400638396 0 0 0
160 1 -17.27633389665944 -103.00987741034203 -2.785835419640379 0 0 0
161 1 -17.27633389666578 -103.00987741037703 -0.29753541961472685 0 0 0
164 1 -17.99243358506236 -100.96882318084303 -1.5416854160524163 0 0 0
109 1 -12.971500147739505 -103.00987808456499 -0.2975354195147251 0 0 0
111 1 -15.123917031279777 -103.00987782838227 -1.5416854203635084 0 0 0
126 1 -12.97150014777165 -103.00987808450678 -2.7858354194093913 0 0 0
128 1 -13.687599975425917 -100.96882397028881 -1.5416854170835235 0 0 0
162 1 -15.840016784996543 -100.96882365313934 -0.29753541787994076 0 0 0
178 1 -15.84001678505772 -100.96882365311276 -2.785835417831886 0 0 0
68 1 -10.819083269426013 -103.00987815129541 -1.5416854174358119 0 0 0
127 1 -11.535183174665931 -100.96882409867482 -2.7858354154780156 0 0 0
130 1 -11.535183174652863 -100.96882409868782 -0.2975354153944785 0 0 0
21 1 -6.51424962967575 -103.00987770826242 -1.5416854150784003 0 0 0
67 1 -8.666666423016077 -103.00987802112677 -2.7858354163129433 0 0 0
70 1 -8.666666423077874 -103.00987802124465 -0.2975354162386487 0 0 0
71 1 -7.230349656935435 -100.96882375029107 -0.29753541406504724 0 0 0
73 1 -9.38276639706688 -100.9688240223024 -1.541685415169793 0 0 0
88 1 -7.230349657056197 -100.96882375027457 -2.7858354140586843 0 0 0
19 1 -4.361832904404268 -103.00987724768815 -0.297535414419905 0 0 0
35 1 -4.361832904392872 -103.00987724761536 -2.7858354143825306 0 0 0
37 1 -5.077932962583779 -100.96882331310597 -1.541685412310423 0 0 0
6 1 -2.2094162550779073 -103.00987669803094 -1.541685413805157 0 0 0
9 1 -0.7730997194870619 -100.96882217043316 -1.5416854095047792 0 0 0
36 1 -2.9255163173937553 -100.96882276481095 -2.785835413335175 0 0 0
39 1 -2.9255163171961627 -100.96882276480905 -0.29753541336219547 0 0 0
5378 1 -0.05699967895018558 -103.0098761247224 -2.7858354115557087 0 0 0
5379 1 -0.05699967899992161 -103.0098761247982 -0.2975354115021755 0 0 0
180 1 -16.55620855849049 -98.93500199987386 -1.541685415244666 0 0 0
196 1 -18.708625343097925 -98.93500147472412 -0.2975354108034762 0 0 0
201 1 -18.708625343064092 -98.93500147471529 -2.78583541074954 0 0 0
202 1 -17.27240541747606 -96.90271791549736 -2.785835411855827 0 0 0
203 1 -17.27240541750193 -96.9027179156137 -0.2975354117590337 0 0 0
179 1 -14.40379177074904 -98.93500238006494 -2.7858354148194615 0 0 0
182 1 -14.403791770752154 -98.9350023800831 -0.297535414762414 0 0 0
183 1 -12.967571847190337 -96.90271862029344 -0.2975354124680675 0 0 0
185 1 -15.119988623904531 -96.90271836222503 -1.5416854126451038 0 0 0
192 1 -12.96757184718955 -96.90271862028277 -2.78583541239554 0 0 0
131 1 -10.098958250550659 -98.93500255110271 -0.29753541310040427 0 0 0
133 1 -12.251374998113146 -98.93500257107834 -1.5416854141354184 0 0 0
144 1 -10.098958250508565 -98.93500255109927 -2.7858354130844907 0 0 0
146 1 -10.81515509934501 -96.90271865980905 -1.5416854105923206 0 0 0
90 1 -7.946541538605464 -98.93500232305587 -1.541685411574838 0 0 0
95 1 -6.510321728259355 -96.90271809460167 -1.5416854063251235 0 0 0
145 1 -8.662738391052388 -96.90271847562755 -2.785835407525348 0 0 0
148 1 -8.662738391092498 -96.90271847556899 -0.2975354074542574 0 0 0
42 1 -3.6417082389942794 -98.93500137264348 -1.5416854104312765 0 0 0
89 1 -5.794124867944108 -98.93500191393103 -2.7858354101948413 0 0 0
92 1 -5.794124867950524 -98.93500191395702 -0.29753541016221474 0 0 0
93 1 -4.3579051089479846 -96.90271755696266 -0.2975354043919031 0 0 0
102 1 -4.357905108905689 -96.90271755691874 -2.7858354044019893 0 0 0
40 1 -1.4892916471696787 -98.9350007626579 -0.29753540650494226 0 0 0
51 1 -1.489291647087008 -98.93500076262953 -2.7858354064763073 0 0 0
52 1 -2.2054885284837367 -96.90271692858428 -1.5416854029348939 0 0 0
5410 1 -0.053071975658413595 -96.90271628618662 -2.785835400694561 0 0 0
5411 1 -0.05307197560383888 -96.90271628621619 -0.2975354007170643 0 0 0
152 1 -17.276333896668298 -103.00987741036832 2.1907645803222584 0 0 0
156 1 -17.99243358502433 -100.96882318083979 3.4349145839993813 0 0 0
163 1 -17.992433585202203 -100.96882318088196 0.9466145839671007 0 0 0
105 1 -15.123917031284853 -103.00987782836586 3.4349145796252705 0 0 0
110 1 -15.12391703126405 -103.00987782829422 0.9466145796327656 0 0 0
112 1 -12.971500147803617 -103.00987808456416 2.1907645805877314 0 0 0
114 1 -13.687599975437571 -100.96882397036693 3.4349145829676258 0 0 0
115 1 -13.687599975495893 -100.96882397028045 0.9466145829991741 0 0 0
165 1 -15.840016784986734 -100.9688236532138 2.190764582067154 0 0 0
58 1 -10.819083269409296 -103.00987815130742 3.4349145824721825 0 0 0
59 1 -10.819083269438424 -103.00987815123247 0.9466145824755359 0 0 0
113 1 -11.535183174639736 -100.96882409869944 2.1907645845131665 0 0 0
15 1 -6.514249629597596 -103.00987770828989 3.4349145849305796 0 0 0
20 1 -6.514249629615718 -103.00987770827233 0.946614584858128 0 0 0
57 1 -8.666666423040263 -103.00987802126608 2.190764583738641 0 0 0
63 1 -9.382766397043408 -100.968824022362 3.4349145849487868 0 0 0
72 1 -9.382766397161802 -100.9688240223704 0.9466145848547547 0 0 0
74 1 -7.230349656948839 -100.96882375028119 2.190764585930572 0 0 0
22 1 -4.361832904364771 -103.00987724767889 2.1907645856240365 0 0 0
24 1 -5.077932962551389 -100.96882331311066 3.434914587778004 0 0 0
25 1 -5.077932962598501 -100.96882331306772 0.946614587692453 0 0 0
2 1 -2.2094162550692213 -103.00987669801262 3.4349145860975527 0 0 0
3 1 -2.2094162551135557 -103.00987669795883 0.9466145861201667 0 0 0
5 1 -0.773099719452498 -100.96882217044481 3.434914590551561 0 0 0
8 1 -0.7730997195324716 -100.96882217042551 0.9466145904810181 0 0 0
23 1 -2.925516317310487 -100.96882276483208 2.190764586573199 0 0 0
5372 1 -0.056999678946366816 -103.00987612479896 2.1907645885006644 0 0 0
167 1 -16.556208558444016 -98.93500199988132 3.43491458480694 0 0 0
168 1 -16.556208558438012 -98.9350019997972 0.9466145847948783 0 0 0
197 1 -18.708625343094422 -98.93500147474312 2.1907645893004823 0 0 0
198 1 -17.272405417509557 -96.90271791556711 2.1907645881917865 0 0 0
166 1 -14.403791770741122 -98.93500238007658 2.1907645851174498 0 0 0
172 1 -15.11998862391764 -96.90271836228268 3.4349145873296005 0 0 0
184 1 -15.119988623953812 -96.90271836233704 0.9466145873904864 0 0 0
186 1 -12.96757184724735 -96.90271862030103 2.190764587647153 0 0 0
119 1 -12.25137499808395 -98.93500257106714 3.4349145858857306 0 0 0
132 1 -12.251374998133393 -98.93500257106781 0.9466145858709709 0 0 0
134 1 -10.098958250523811 -98.93500255105542 2.190764586915121 0 0 0
136 1 -10.815155099384095 -96.90271865983406 3.4349145893965414 0 0 0
137 1 -10.815155099236017 -96.90271865976763 0.946614589399775 0 0 0
76 1 -7.946541538551363 -98.935002322999 3.434914588498699 0 0 0
77 1 -7.9465415385912825 -98.93500232296985 0.9466145885022427 0 0 0
81 1 -6.510321728229071 -96.90271809460205 3.434914593602967 0 0 0
94 1 -6.51032172830713 -96.90271809458773 0.9466145936036064 0 0 0
135 1 -8.662738391103117 -96.90271847559724 2.1907645925507557 0 0 0
29 1 -3.6417082389394326 -98.93500137263446 3.4349145895674837 0 0 0
41 1 -3.6417082389482935 -98.93500137263312 0.9466145895381668 0 0 0
75 1 -5.794124867964985 -98.93500191393004 2.1907645897798482 0 0 0
96 1 -4.357905108953035 -96.90271755693814 2.1907645955625616 0 0 0
43 1 -1.4892916471305864 -98.93500076265569 2.190764593557176 0 0 0
44 1 -2.205488528542823 -96.90271692867663 3.43491459711165 0 0 0
45 1 -2.2054885284982606 -96.90271692855781 0.946614597132007 0 0 0
5408 1 -0.053071975590071756 -96.9027162862349 2.190764599347709 0 0 0
151 1 -17.276333896683056 -103.00987741037319 7.167364580395541 0 0 0
153 1 -17.27633389666823 -103.00987741033128 4.679064580374031 0 0 0
155 1 -17.99243358506765 -100.96882318088781 5.923214583961197 0 0 0
103 1 -12.97150014779202 -103.0098780845088 4.679064580618292 0 0 0
104 1 -15.123917031303984 -103.00987782840127 5.9232145796641085 0 0 0
106 1 -12.971500147739778 -103.00987808455871 7.167364580543759 0 0 0
108 1 -13.68759997539379 -100.96882397024659 5.923214582927559 0 0 0
154 1 -15.840016785059234 -100.96882365311379 4.679064582098443 0 0 0
157 1 -15.840016784989958 -100.96882365315413 7.167364582179526 0 0 0
56 1 -10.819083269434778 -103.00987815129642 5.923214582544774 0 0 0
107 1 -11.535183174652847 -100.9688240986934 7.167364584543602 0 0 0
116 1 -11.535183174658735 -100.96882409867207 4.679064584542926 0 0 0
14 1 -6.5142496296843655 -103.00987770829549 5.923214584924571 0 0 0
55 1 -8.666666423079025 -103.00987802128044 7.1673645837785935 0 0 0
60 1 -8.666666423012003 -103.00987802115739 4.679064583704428 0 0 0
61 1 -7.2303496570494215 -100.9688237503149 4.679064585918909 0 0 0
62 1 -9.382766397070691 -100.96882402233095 5.923214584827567 0 0 0
64 1 -7.230349656912752 -100.96882375028217 7.1673645859474275 0 0 0
13 1 -4.361832904418767 -103.00987724762041 4.679064585621368 0 0 0
16 1 -4.36183290441156 -103.00987724768808 7.167364585587937 0 0 0
18 1 -5.0779329625689495 -100.96882331308203 5.923214587712662 0 0 0
1 1 -2.209416255081515 -103.00987669800541 5.9232145861815795 0 0 0
4 1 -0.77309971947705 -100.96882217040292 5.923214590471576 0 0 0
17 1 -2.9255163172279555 -100.9688227648041 7.167364586634314 0 0 0
26 1 -2.9255163173757266 -100.96882276479027 4.679064586660485 0 0 0
5371 1 -0.056999678995747025 -103.00987612480911 7.167364588516847 0 0 0
5373 1 -0.05699967894608054 -103.00987612471074 4.6790645884227375 0 0 0
159 1 -16.556208558468715 -98.93500199981939 5.923214584737981 0 0 0
193 1 -18.708625343061907 -98.93500147471121 4.679064589169733 0 0 0
194 1 -18.70862534314389 -98.9350014747349 7.167364589271486 0 0 0
195 1 -17.27240541750646 -96.90271791558922 7.167364588129839 0 0 0
199 1 -17.272405417495527 -96.90271791552503 4.679064588255579 0 0 0
158 1 -14.40379177076971 -98.93500238009372 7.167364585174649 0 0 0
169 1 -14.403791770765736 -98.93500238010017 4.679064585246644 0 0 0
170 1 -12.967571847205575 -96.90271862030126 4.679064587533426 0 0 0
171 1 -15.119988623967028 -96.90271836232657 5.923214587373516 0 0 0
173 1 -12.967571847201569 -96.90271862032377 7.1673645876391845 0 0 0
117 1 -10.09895825048471 -98.9350025510951 4.679064586898159 0 0 0
118 1 -12.251374998136226 -98.93500257112713 5.923214585875464 0 0 0
120 1 -10.098958250527115 -98.93500255109775 7.167364586968773 0 0 0
122 1 -10.815155099331074 -96.90271865974101 5.923214589420661 0 0 0
66 1 -7.946541538544914 -98.93500232302982 5.923214588430516 0 0 0
80 1 -6.510321728270002 -96.90271809462597 5.923214593632215 0 0 0
121 1 -8.66273839113663 -96.90271847558617 7.167364592475067 0 0 0
138 1 -8.66273839106069 -96.90271847559761 4.679064592540025 0 0 0
28 1 -3.6417082389676323 -98.93500137265359 5.923214589549594 0 0 0
65 1 -5.79412486793495 -98.93500191396741 7.1673645898307 0 0 0
78 1 -5.794124867907082 -98.93500191392877 4.679064589817713 0 0 0
79 1 -4.357905108900089 -96.90271755696683 4.679064595576149 0 0 0
82 1 -4.357905108897206 -96.90271755694248 7.16736459563466 0 0 0
27 1 -1.4892916471091702 -98.93500076264256 4.679064593540025 0 0 0
30 1 -1.4892916471332396 -98.93500076263942 7.167364593521881 0 0 0
31 1 -2.205488528443779 -96.90271692859801 5.923214597087915 0 0 0
5407 1 -0.05307197560442225 -96.9027162862596 7.167364599294579 0 0 0
5409 1 -0.05307197562107197 -96.90271628617464 4.6790645992756055 0 0 0
424 1 -17.9886060714009 -94.86952043366158 -4.029985407138827 0 0 0
425 1 -17.988606071363378 -94.86952043350715 -6.518285407151368 0 0 0
429 1 -16.552389682308952 -92.83631381135473 -4.029985402015178 0 0 0
445 1 -16.55238968233675 -92.83631381138349 -6.518285401975207 0 0 0
500 1 -18.704806526496107 -92.8363132056443 -5.274135401326637 0 0 0
333 1 -13.683772457795417 -94.86952128690291 -4.029985407349506 0 0 0
349 1 -13.683772457935548 -94.86952128701238 -6.518285407310648 0 0 0
423 1 -15.83618925688004 -94.8695209531361 -5.274135408713028 0 0 0
446 1 -14.399972852017818 -92.8363142283842 -5.274135401379601 0 0 0
350 1 -11.531355691359188 -94.8695213892507 -5.274135405986416 0 0 0
351 1 -10.095139303826548 -92.83631432476813 -5.274135401547636 0 0 0
352 1 -12.247556054056435 -92.83631440748867 -4.0299854009563365 0 0 0
353 1 -12.247556054023477 -92.83631440739092 -6.51828540095107 0 0 0
267 1 -7.226522296588173 -94.86952089665665 -5.274135404767606 0 0 0
268 1 -9.378938968900377 -94.86952125403556 -4.029985404743314 0 0 0
269 1 -9.37893896892865 -94.86952125394254 -6.518285404702453 0 0 0
273 1 -7.9427226111449425 -92.83631399384129 -4.029985401540976 0 0 0
288 1 -7.942722611154224 -92.83631399392192 -6.518285401521151 0 0 0
224 1 -5.074105677090154 -94.86952035991101 -4.029985401598774 0 0 0
234 1 -5.074105677099842 -94.86952035991082 -6.5182854016548495 0 0 0
237 1 -3.6378894049285146 -92.83631276802049 -4.029985398709032 0 0 0
238 1 -3.637889404894375 -92.83631276787585 -6.518285398649691 0 0 0
289 1 -5.790305979708455 -92.83631345234797 -5.274135398606474 0 0 0
209 1 -0.7692725626335635 -94.8695190183829 -4.0299853996143185 0 0 0
210 1 -0.7692725626569985 -94.86951901834372 -6.518285399545043 0 0 0
235 1 -2.9216891027355083 -94.86951970664325 -5.274135400622965 0 0 0
236 1 -1.485472876012729 -92.83631202145936 -5.274135397628338 0 0 0
518 1 -17.268590161859866 -90.80309143923523 -5.274135395760454 0 0 0
447 1 -12.963756453795678 -90.80309222395925 -5.274135393898399 0 0 0
448 1 -15.116173292257129 -90.8030919585024 -4.029985394865495 0 0 0
449 1 -15.116173292189318 -90.80309195838531 -6.518285394849415 0 0 0
357 1 -10.811339664995453 -90.80309220485749 -4.029985394004414 0 0 0
373 1 -10.81133966500008 -90.80309220492427 -6.518285393970516 0 0 0
291 1 -6.506506290089994 -90.80309135730944 -4.029985394709907 0 0 0
292 1 -6.506506290116487 -90.80309135726374 -6.5182853946459 0 0 0
374 1 -8.65892294272961 -90.80309190388596 -5.2741353949135945 0 0 0
290 1 -4.354089709007331 -90.80309063396875 -5.274135396761957 0 0 0
241 1 -2.2016731877388303 -90.80308981756995 -4.029985394523754 0 0 0
244 1 -2.2016731877295364 -90.80308981756873 -6.518285394505334 0 0 0
5764 1 -0.04925670803544664 -90.80308900554802 -5.274135392305902 0 0 0
520 1 -17.98479064726334 -88.7698721585804 -4.029985388487779 0 0 0
521 1 -17.98479064731271 -88.7698721585647 -6.51828538852263 0 0 0
525 1 -16.54857420011592 -86.73665352423221 -4.02998537806835 0 0 0
535 1 -16.548574200144806 -86.73665352431681 -6.518285378011474 0 0 0
558 1 -18.70099115831886 -86.73665273798795 -5.274135378940616 0 0 0
453 1 -13.679956848942657 -88.76987317096182 -4.029985385882929 0 0 0
467 1 -13.679956849024673 -88.7698731709145 -6.518285385885225 0 0 0
519 1 -15.83237373485061 -88.7698727978897 -5.274135386608433 0 0 0
536 1 -14.396157259866888 -86.7366540249392 -5.274135377671483 0 0 0
468 1 -11.527540014773564 -88.769873227408 -5.274135386029273 0 0 0
469 1 -10.09132356155677 -86.73665396829202 -5.274135384083677 0 0 0
470 1 -12.243740372104957 -86.73665417828947 -4.029985381125557 0 0 0
471 1 -12.243740372090446 -86.73665417823885 -6.518285381106311 0 0 0
375 1 -7.222706573904038 -88.76987241578983 -5.2741353913275715 0 0 0
376 1 -9.375123252493283 -88.76987296530196 -4.0299853884206165 0 0 0
377 1 -9.375123252502805 -88.76987296524064 -6.518285388437577 0 0 0
381 1 -7.938906844997671 -86.7366534213816 -4.029985389875559 0 0 0
391 1 -7.938906845052186 -86.73665342143995 -6.5182853898246575 0 0 0
296 1 -5.070289978302048 -88.76987164551983 -4.029985393070311 0 0 0
306 1 -5.07028997839794 -88.76987164546696 -6.518285393043751 0 0 0
309 1 -3.634073706491046 -86.73665160954233 -4.029985391057942 0 0 0
310 1 -3.6340737064977673 -86.73665160953502 -6.518285390994719 0 0 0
392 1 -5.786490229021465 -86.73665260060648 -5.274135390386406 0 0 0
245 1 -0.7654569972132534 -88.7698698279081 -4.029985390300289 0 0 0
246 1 -0.7654569972783262 -88.76986982800622 -6.5182853902995905 0 0 0
307 1 -2.9178734585462633 -88.76987074762573 -5.27413539214974 0 0 0
308 1 -1.481657259665249 -86.73665056213062 -5.2741353881979816 0 0 0
566 1 -17.264774689377674 -84.70343433837253 -5.274135371209295 0 0 0
568 1 -17.98097520835707 -82.67021513082108 -4.0299853661553575 0 0 0
569 1 -17.980975208490534 -82.67021513092196 -6.518285366188929 0 0 0
537 1 -12.959940739595904 -84.7034352735756 -5.274135379335069 0 0 0
538 1 -15.11235768943678 -84.70343499789342 -4.0299853733320585 0 0 0
539 1 -15.112357689375168 -84.70343499792646 -6.518285373276255 0 0 0
543 1 -13.676141118461832 -82.67021641438201 -4.029985376696651 0 0 0
545 1 -13.676141118457776 -82.670216414404 -6.518285376697196 0 0 0
567 1 -15.828558141626594 -82.67021598474017 -5.2741353706739735 0 0 0
475 1 -10.807523869191083 -84.70343513355363 -4.029985383588036 0 0 0
481 1 -10.807523869218743 -84.70343513361796 -6.518285383516188 0 0 0
546 1 -11.52372418014709 -82.67021637087801 -5.274135381716691 0 0 0
394 1 -6.502690460943829 -84.70343372847101 -4.0299853895982025 0 0 0
395 1 -6.502690460860093 -84.7034337284384 -6.5182853896644355 0 0 0
482 1 -8.655107105702454 -84.70343459721826 -5.274135388210381 0 0 0
483 1 -7.218890673781261 -82.67021494540775 -5.2741353890297225 0 0 0
484 1 -9.371307358823497 -82.6702158610162 -4.029985385650432 0 0 0
485 1 -9.371307358850288 -82.6702158610071 -6.518285385685485 0 0 0
393 1 -4.350273928449391 -84.70343263235519 -5.2741353889036215 0 0 0
399 1 -5.066474125075416 -82.67021373944877 -4.029985387523682 0 0 0
401 1 -5.066474125035538 -82.67021373944627 -6.5182853875062925 0 0 0
313 1 -2.197857494401234 -84.70343143939212 -4.029985386808205 0 0 0
316 1 -2.1978574943694116 -84.70343143940057 -6.518285386804181 0 0 0
317 1 -0.7616413666836575 -82.67021102908667 -4.029985386491099 0 0 0
318 1 -0.7616413666883001 -82.67021102911806 -6.518285386472606 0 0 0
402 1 -2.9140576983276443 -82.67021238004575 -5.274135386902003 0 0 0
5800 1 -0.0454411312180031 -84.70343028900018 -5.27413538515102 0 0 0
411 1 -17.98860607132272 -94.86952043358218 -1.5416854072092225 0 0 0
428 1 -16.552389682402563 -92.836313811427 -1.5416854020128474 0 0 0
490 1 -18.704806526434304 -92.83631320558327 -0.2975354013049427 0 0 0
501 1 -18.704806526496718 -92.8363132056257 -2.7858354011694177 0 0 0
332 1 -13.683772457865404 -94.86952128701444 -1.5416854073389021 0 0 0
409 1 -15.836189256957834 -94.8695209532291 -0.29753540873213097 0 0 0
426 1 -15.83618925706035 -94.86952095317763 -2.7858354086035315 0 0 0
427 1 -14.39997285198914 -92.83631422830845 -2.7858354015122218 0 0 0
430 1 -14.399972852044758 -92.83631422841803 -0.29753540140325097 0 0 0
331 1 -11.531355691418577 -94.86952138924812 -2.7858354060517403 0 0 0
334 1 -11.531355691404364 -94.86952138928727 -0.29753540586610217 0 0 0
335 1 -10.095139303826826 -92.83631432479551 -0.29753540154938063 0 0 0
337 1 -12.247556054040786 -92.83631440745313 -1.5416854009434844 0 0 0
354 1 -10.095139303820515 -92.8363143247657 -2.785835401449058 0 0 0
253 1 -7.226522296612163 -94.86952089666714 -0.2975354047068874 0 0 0
255 1 -9.378938968900394 -94.86952125396259 -1.5416854047540964 0 0 0
270 1 -7.226522296633772 -94.86952089661324 -2.785835404739765 0 0 0
272 1 -7.942722611247175 -92.83631399394082 -1.541685401504596 0 0 0
223 1 -5.074105677016755 -94.86952035996636 -1.541685401670144 0 0 0
228 1 -3.6378894049233854 -92.83631276793099 -1.5416853986109762 0 0 0
271 1 -5.7903059798070995 -92.83631345238153 -2.7858353986431807 0 0 0
274 1 -5.790305979731224 -92.83631345236041 -0.2975353985946071 0 0 0
208 1 -0.7692725626157567 -94.86951901841239 -1.541685399600993 0 0 0
222 1 -2.9216891027981915 -94.86951970674943 -2.785835400601526 0 0 0
225 1 -2.9216891027414724 -94.86951970666283 -0.2975354006036606 0 0 0
226 1 -1.4854728760195142 -92.83631202148167 -0.2975353976546843 0 0 0
239 1 -1.4854728759379507 -92.83631202139915 -2.7858353976880705 0 0 0
502 1 -17.268590161807126 -90.80309143918296 -2.7858353958034465 0 0 0
503 1 -17.268590161819475 -90.80309143928407 -0.29753539576372756 0 0 0
431 1 -12.963756453842583 -90.80309222391077 -0.2975353940002177 0 0 0
433 1 -15.116173292176093 -90.80309195839405 -1.541685394879194 0 0 0
450 1 -12.9637564538244 -90.80309222391956 -2.7858353938902525 0 0 0
356 1 -10.811339664996074 -90.80309220486598 -1.5416853940093989 0 0 0
277 1 -6.506506290102119 -90.80309135732465 -1.5416853946239166 0 0 0
355 1 -8.658922942706607 -90.8030919038645 -2.7858353950650265 0 0 0
358 1 -8.658922942666473 -90.803091903906 -0.2975353949744615 0 0 0
275 1 -4.35408970900899 -90.80309063388742 -0.29753539676737484 0 0 0
293 1 -4.354089709016011 -90.80309063393375 -2.785835396750403 0 0 0
240 1 -2.201673187741792 -90.80308981754442 -1.5416853944287305 0 0 0
5750 1 -0.04925670805660945 -90.80308900549994 -2.785835392281616 0 0 0
5751 1 -0.04925670805666258 -90.80308900553342 -0.2975353923517885 0 0 0
506 1 -17.984790647248044 -88.76987215855674 -1.5416853886071737 0 0 0
524 1 -16.548574200146035 -86.73665352428463 -1.5416853779174944 0 0 0
550 1 -18.700991158310423 -86.73665273814724 -0.2975353789594752 0 0 0
559 1 -18.700991158346266 -86.73665273811037 -2.7858353789242662 0 0 0
452 1 -13.679956848975392 -88.76987317101671 -1.541685385989268 0 0 0
504 1 -15.832373734859432 -88.7698727978341 -0.2975353866487432 0 0 0
522 1 -15.832373734902871 -88.76987279793703 -2.7858353865590746 0 0 0
523 1 -14.396157259860844 -86.73665402496609 -2.785835377669627 0 0 0
526 1 -14.396157259897864 -86.7366540249329 -0.2975353776225524 0 0 0
451 1 -11.527540014844151 -88.76987322743742 -2.785835386085301 0 0 0
454 1 -11.527540014816465 -88.76987322745997 -0.29753538604781266 0 0 0
455 1 -10.091323561586343 -86.73665396833765 -0.2975353841422413 0 0 0
457 1 -12.243740372072198 -86.73665417821073 -1.5416853810021027 0 0 0
472 1 -10.091323561589737 -86.73665396832186 -2.785835384105618 0 0 0
359 1 -7.222706573874542 -88.76987241577798 -0.2975353913522074 0 0 0
361 1 -9.375123252470445 -88.76987296528272 -1.5416853884418495 0 0 0
378 1 -7.222706573963381 -88.76987241575016 -2.7858353913252527 0 0 0
380 1 -7.9389068450260725 -86.73665342139493 -1.5416853898156198 0 0 0
295 1 -5.070289978306646 -88.76987164550205 -1.5416853930745544 0 0 0
300 1 -3.634073706447644 -86.7366516095515 -1.5416853910261898 0 0 0
379 1 -5.7864902290271605 -86.73665260060847 -2.785835390367086 0 0 0
382 1 -5.786490228993569 -86.73665260059913 -0.2975353904019102 0 0 0
243 1 -0.7654569971790063 -88.7698698280356 -1.5416853902860876 0 0 0
294 1 -2.9178734585683292 -88.76987074767963 -2.785835392127947 0 0 0
297 1 -2.9178734585236854 -88.76987074762188 -0.2975353920760097 0 0 0
298 1 -1.4816572595744604 -86.7366505621068 -0.2975353882357819 0 0 0
311 1 -1.4816572596016755 -86.73665056210525 -2.785835388234804 0 0 0
560 1 -17.264774689316376 -84.70343433838642 -2.785835371255669 0 0 0
561 1 -17.26477468935261 -84.70343433840728 -0.29753537126316804 0 0 0
564 1 -17.980975208331493 -82.67021513083556 -1.54168536610608 0 0 0
527 1 -12.959940739565381 -84.70343527361263 -0.2975353793166815 0 0 0
529 1 -15.112357689399683 -84.70343499799037 -1.5416853732242792 0 0 0
540 1 -12.959940739590971 -84.70343527358277 -2.785835379231313 0 0 0
542 1 -13.67614111841136 -82.67021641437655 -1.541685376660656 0 0 0
562 1 -15.828558141617487 -82.67021598475931 -0.2975353706727399 0 0 0
570 1 -15.828558141705237 -82.67021598464268 -2.7858353706529098 0 0 0
474 1 -10.807523869234325 -84.7034351336129 -1.5416853835159288 0 0 0
541 1 -11.523724180179986 -82.67021637086454 -2.7858353816744357 0 0 0
544 1 -11.523724180158505 -82.67021637089968 -0.29753538170310206 0 0 0
385 1 -6.502690460934458 -84.70343372847886 -1.5416853897249043 0 0 0
473 1 -8.655107105660035 -84.70343459719719 -2.785835388296487 0 0 0
476 1 -8.65510710569185 -84.70343459723858 -0.2975353883313206 0 0 0
477 1 -7.218890673743826 -82.67021494542455 -0.2975353890514473 0 0 0
479 1 -9.371307358877885 -82.67021586105409 -1.541685385660492 0 0 0
486 1 -7.218890673726524 -82.67021494550622 -2.7858353890686227 0 0 0
383 1 -4.350273928431822 -84.70343263237449 -0.2975353889788336 0 0 0
396 1 -4.3502739284269305 -84.70343263239738 -2.785835388936441 0 0 0
398 1 -5.066474125096264 -82.67021373944628 -1.5416853874490006 0 0 0
312 1 -2.197857494320324 -84.7034314393776 -1.5416853867144293 0 0 0
315 1 -0.7616413666609667 -82.67021102911302 -1.5416853864740412 0 0 0
397 1 -2.91405769833779 -82.67021238000959 -2.7858353868987704 0 0 0
400 1 -2.9140576983286772 -82.67021237999325 -0.297535386895039 0 0 0
5796 1 -0.04544113123730965 -84.70343028904115 -2.785835385187778 0 0 0
5797 1 -0.04544113124471571 -84.70343028903307 -0.2975353852031651 0 0 0
405 1 -17.988606071305984 -94.86952043357856 3.4349145928232794 0 0 0
410 1 -17.988606071425792 -94.86952043361046 0.9466145928647309 0 0 0
414 1 -16.552389682352516 -92.83631381144407 3.4349145980023423 0 0 0
415 1 -16.552389682263367 -92.83631381130668 0.9466145980343633 0 0 0
491 1 -18.704806526485072 -92.8363132057072 2.190764598799109 0 0 0
322 1 -13.683772457851981 -94.86952128702367 3.4349145926721425 0 0 0
323 1 -13.683772457883018 -94.86952128693802 0.9466145926747441 0 0 0
412 1 -15.836189256893526 -94.86952095316263 2.190764591386742 0 0 0
413 1 -14.399972852016054 -92.8363142283962 2.1907645985279447 0 0 0
321 1 -11.531355691353466 -94.86952138923299 2.190764593925201 0 0 0
327 1 -12.24755605400296 -92.83631440742235 3.4349145990191685 0 0 0
336 1 -12.247556054092216 -92.8363144074472 0.9466145990750992 0 0 0
338 1 -10.095139303827922 -92.83631432476315 2.190764598512889 0 0 0
249 1 -9.378938968880316 -94.8695212539652 3.4349145952637294 0 0 0
254 1 -9.378938968978341 -94.8695212540015 0.9466145952834022 0 0 0
256 1 -7.226522296586835 -94.86952089663728 2.19076459528346 0 0 0
258 1 -7.942722611170988 -92.83631399388479 3.434914598439675 0 0 0
259 1 -7.9427226111290805 -92.83631399388298 0.9466145984821885 0 0 0
214 1 -5.074105677090112 -94.86952035991634 3.434914598389309 0 0 0
215 1 -5.07410567707993 -94.86952035989019 0.9466145983958727 0 0 0
219 1 -3.6378894048870474 -92.83631276801162 3.434914601325818 0 0 0
227 1 -3.6378894048973924 -92.83631276787501 0.9466146013520631 0 0 0
257 1 -5.79030597972072 -92.83631345236606 2.1907646013412885 0 0 0
206 1 -0.7692725626208485 -94.869519018405 3.434914600437278 0 0 0
207 1 -0.7692725626665241 -94.86951901833558 0.9466146003755015 0 0 0
213 1 -2.9216891027400647 -94.86951970667374 2.190764599366174 0 0 0
229 1 -1.4854728759605271 -92.83631202142449 2.190764602360802 0 0 0
492 1 -17.26859016184051 -90.80309143923824 2.1907646041361573 0 0 0
419 1 -15.116173292191979 -90.80309195843856 3.4349146051145554 0 0 0
432 1 -15.116173292251817 -90.80309195847211 0.9466146051976309 0 0 0
434 1 -12.963756453826432 -90.80309222395205 2.1907646062046977 0 0 0
340 1 -10.811339665025452 -90.80309220491941 3.4349146060205347 0 0 0
341 1 -10.81133966497246 -90.80309220486284 0.9466146060273793 0 0 0
263 1 -6.506506290052696 -90.80309135726324 3.4349146053097126 0 0 0
276 1 -6.50650629013708 -90.80309135730126 0.9466146053530446 0 0 0
339 1 -8.658922942710532 -90.80309190388097 2.19076460502388 0 0 0
278 1 -4.354089708981768 -90.80309063393884 2.1907646032837915 0 0 0
230 1 -2.2016731877498343 -90.80308981758202 3.434914605433924 0 0 0
231 1 -2.201673187744007 -90.80308981757143 0.9466146055286474 0 0 0
5744 1 -0.04925670807702036 -90.80308900557112 2.1907646077320795 0 0 0
496 1 -17.984790647222518 -88.76987215852952 3.4349146114888622 0 0 0
505 1 -17.984790647374126 -88.76987215864538 0.9466146114855275 0 0 0
509 1 -16.548574200131313 -86.73665352426819 3.434914621956062 0 0 0
510 1 -16.548574200132155 -86.73665352427709 0.9466146219373007 0 0 0
551 1 -18.700991158316533 -86.73665273799891 2.1907646210887024 0 0 0
436 1 -13.679956848990821 -88.7698731709843 3.4349146141453484 0 0 0
437 1 -13.679956849006082 -88.76987317084554 0.9466146141479317 0 0 0
507 1 -15.832373734890897 -88.76987279791484 2.1907646134910808 0 0 0
508 1 -14.396157259864083 -86.73665402490911 2.1907646222797132 0 0 0
435 1 -11.527540014765439 -88.76987322740712 2.190764613923824 0 0 0
441 1 -12.243740372071937 -86.73665417825401 3.4349146188683553 0 0 0
456 1 -12.243740372096575 -86.73665417827164 0.9466146189325314 0 0 0
458 1 -10.091323561547409 -86.73665396831508 2.190764615918508 0 0 0
345 1 -9.375123252429916 -88.76987296527463 3.43491461156092 0 0 0
360 1 -9.375123252536293 -88.76987296527861 0.9466146115503492 0 0 0
362 1 -7.222706573895248 -88.7698724157831 2.1907646086723163 0 0 0
364 1 -7.938906845013159 -86.73665342142048 3.4349146101324783 0 0 0
365 1 -7.938906845040778 -86.73665342143867 0.9466146101482311 0 0 0
280 1 -5.070289978301196 -88.76987164552584 3.434914606946919 0 0 0
281 1 -5.070289978376767 -88.76987164543732 0.9466146069785198 0 0 0
285 1 -3.634073706511382 -86.73665160954516 3.4349146089575573 0 0 0
299 1 -3.634073706485914 -86.73665160954863 0.9466146089619665 0 0 0
363 1 -5.786490229042994 -86.73665260060874 2.1907646096011173 0 0 0
233 1 -0.7654569972143147 -88.76986982792639 3.4349146097040864 0 0 0
242 1 -0.7654569972745023 -88.76986982800476 0.9466146096817772 0 0 0
279 1 -2.9178734585358117 -88.76987074764455 2.190764607850913 0 0 0
301 1 -1.4816572596541222 -86.7366505621403 2.190764611792973 0 0 0
552 1 -17.264774689386066 -84.70343433834557 2.1907646287536053 0 0 0
556 1 -17.980975208361013 -82.67021513084056 3.434914633832426 0 0 0
563 1 -17.980975208480864 -82.67021513089398 0.9466146337804755 0 0 0
514 1 -15.112357689436648 -84.70343499789001 3.434914626684316 0 0 0
528 1 -15.112357689393411 -84.70343499793395 0.9466146267277528 0 0 0
530 1 -12.959940739602283 -84.70343527357286 2.1907646206991886 0 0 0
532 1 -13.676141118453062 -82.67021641435569 3.4349146233259935 0 0 0
533 1 -13.676141118460544 -82.67021641442894 0.9466146232933901 0 0 0
565 1 -15.828558141613495 -82.67021598473065 2.190764629304575 0 0 0
460 1 -10.807523869182704 -84.70343513359893 3.4349146164231197 0 0 0
461 1 -10.807523869189529 -84.70343513361938 0.9466146164706092 0 0 0
531 1 -11.52372418016604 -82.67021637088907 2.190764618316958 0 0 0
369 1 -6.5026904609494345 -84.70343372849811 3.4349146103847144 0 0 0
384 1 -6.502690460846432 -84.703433728444 0.9466146103258531 0 0 0
459 1 -8.655107105675851 -84.70343459724624 2.1907646117937705 0 0 0
465 1 -9.371307358846712 -82.67021586106127 3.434914614358761 0 0 0
478 1 -9.371307358848549 -82.67021586098474 0.9466146143109458 0 0 0
480 1 -7.218890673771876 -82.67021494543323 2.1907646109196977 0 0 0
386 1 -4.350273928463663 -84.70343263237503 2.190764611068817 0 0 0
388 1 -5.066474125030053 -82.67021373943861 3.434914612478493 0 0 0
389 1 -5.0664741250538246 -82.67021373946604 0.9466146124943837 0 0 0
302 1 -2.1978574944067875 -84.70343143938572 3.434914613198281 0 0 0
303 1 -2.1978574943657057 -84.70343143941415 0.9466146131942412 0 0 0
305 1 -0.7616413666937327 -82.67021102910145 3.4349146134950397 0 0 0
314 1 -0.7616413666798205 -82.67021102910968 0.9466146135287632 0 0 0
387 1 -2.914057698326193 -82.67021238002313 2.1907646131301655 0 0 0
5792 1 -0.04544113120854661 -84.70343028900209 2.190764614880011 0 0 0
404 1 -17.98860607136356 -94.86952043367108 5.923214592844202 0 0 0
408 1 -16.552389682308842 -92.83631381132281 5.923214597970398 0 0 0
487 1 -18.70480652643829 -92.8363132055964 4.679064598719255 0 0 0
488 1 -18.7048065264498 -92.83631320562804 7.167364598808945 0 0 0
320 1 -13.6837724578183 -94.86952128698745 5.923214592629804 0 0 0
403 1 -15.836189257030984 -94.86952095318921 4.6790645912899045 0 0 0
406 1 -15.83618925695737 -94.86952095323086 7.167364591399167 0 0 0
407 1 -14.399972852020122 -92.83631422840034 7.167364598484027 0 0 0
416 1 -14.399972851971416 -92.83631422835819 4.679064598586015 0 0 0
319 1 -11.531355691408319 -94.86952138926937 7.167364594052088 0 0 0
324 1 -11.531355691443169 -94.86952138924936 4.679064594020332 0 0 0
325 1 -10.095139303787121 -92.83631432474097 4.67906459847911 0 0 0
326 1 -12.247556054071262 -92.83631440754628 5.92321459905712 0 0 0
328 1 -10.09513930380946 -92.83631432479405 7.167364598542729 0 0 0
247 1 -7.22652229662895 -94.86952089662239 4.679064595205342 0 0 0
248 1 -9.378938968955612 -94.86952125398766 5.923214595245444 0 0 0
250 1 -7.2265222966074685 -94.86952089665252 7.167364595342656 0 0 0
252 1 -7.942722611186314 -92.8363139938924 5.923214598507102 0 0 0
212 1 -5.074105676973612 -94.86952035993983 5.9232145983488795 0 0 0
218 1 -3.637889404895786 -92.8363127679547 5.923214601357751 0 0 0
251 1 -5.790305979738664 -92.83631345237418 7.167364601369228 0 0 0
260 1 -5.790305979755924 -92.83631345232847 4.679064601380745 0 0 0
205 1 -0.7692725625865442 -94.86951901843167 5.9232146003351 0 0 0
211 1 -2.921689102736308 -94.86951970670542 7.16736459938807 0 0 0
216 1 -2.921689102742689 -94.86951970672946 4.6790645993952005 0 0 0
217 1 -1.4854728759313238 -92.83631202145378 4.6790646023270925 0 0 0
220 1 -1.485472875985007 -92.83631202146826 7.167364602358983 0 0 0
489 1 -17.268590161785177 -90.80309143925881 7.167364604113003 0 0 0
493 1 -17.268590161828843 -90.80309143920265 4.679064604289862 0 0 0
417 1 -12.963756453815828 -90.80309222390949 4.679064606019458 0 0 0
418 1 -15.116173292223273 -90.80309195846544 5.923214605141378 0 0 0
420 1 -12.963756453843274 -90.80309222393124 7.167364606078486 0 0 0
330 1 -10.811339664945793 -90.8030922048121 5.92321460597838 0 0 0
262 1 -6.506506290111224 -90.80309135734802 5.923214605347915 0 0 0
329 1 -8.65892294265415 -90.80309190390223 7.167364604983714 0 0 0
342 1 -8.658922942686655 -90.80309190386642 4.679064604991017 0 0 0
261 1 -4.354089709013336 -90.80309063393621 4.679064603218411 0 0 0
264 1 -4.354089708964768 -90.80309063388319 7.16736460324561 0 0 0
221 1 -2.201673187738109 -90.80308981757118 5.923214605613742 0 0 0
5743 1 -0.04925670807893854 -90.80308900556282 7.167364607648061 0 0 0
5745 1 -0.04925670804733241 -90.80308900550715 4.679064607702763 0 0 0
495 1 -17.984790647283354 -88.76987215861507 5.92321461141134 0 0 0
499 1 -16.5485742001165 -86.73665352424895 5.923214622062995 0 0 0
547 1 -18.700991158305275 -86.73665273809483 4.679064621020716 0 0 0
548 1 -18.700991158315638 -86.73665273814525 7.1673646211072 0 0 0
422 1 -13.679956848907917 -88.76987317094431 5.923214613995612 0 0 0
494 1 -15.832373734887556 -88.76987279791597 4.679064613382488 0 0 0
497 1 -15.832373734855185 -88.76987279784318 7.167364613409761 0 0 0
498 1 -14.396157259885285 -86.73665402490792 7.167364622329571 0 0 0
511 1 -14.39615725986775 -86.73665402495698 4.679064622382015 0 0 0
421 1 -11.52754001478228 -88.76987322745995 7.167364613872914 0 0 0
438 1 -11.52754001483 -88.76987322745836 4.679064613979587 0 0 0
439 1 -10.091323561580367 -86.73665396833918 4.679064615873118 0 0 0
440 1 -12.243740372091812 -86.73665417825599 5.923214618991664 0 0 0
442 1 -10.091323561601587 -86.73665396834716 7.1673646159227715 0 0 0
343 1 -7.222706573937531 -88.76987241576113 4.679064608627914 0 0 0
344 1 -9.37512325247881 -88.76987296531219 5.923214611570727 0 0 0
346 1 -7.2227065738917045 -88.76987241577099 7.167364608729472 0 0 0
348 1 -7.938906845019176 -86.73665342141435 5.9232146101764975 0 0 0
266 1 -5.070289978301488 -88.76987164548312 5.923214606919881 0 0 0
284 1 -3.634073706495607 -86.73665160955615 5.92321460895203 0 0 0
347 1 -5.786490229019201 -86.73665260059474 7.167364609601253 0 0 0
366 1 -5.786490229045524 -86.73665260059705 4.679064609637528 0 0 0
232 1 -0.7654569971593194 -88.76986982803342 5.923214609678002 0 0 0
265 1 -2.917873458525847 -88.76987074763908 7.167364607929654 0 0 0
282 1 -2.9178734585447272 -88.76987074765375 4.679064607876052 0 0 0
283 1 -1.4816572596732358 -86.7366505621128 4.679064611767929 0 0 0
286 1 -1.4816572595953352 -86.73665056212253 7.167364611753441 0 0 0
549 1 -17.26477468933599 -84.70343433839678 7.167364628711962 0 0 0
553 1 -17.264774689298395 -84.70343433839125 4.679064628774939 0 0 0
555 1 -17.980975208312017 -82.67021513083533 5.923214633911454 0 0 0
512 1 -12.959940739581612 -84.70343527358541 4.679064620739442 0 0 0
513 1 -15.112357689416099 -84.70343499800013 5.923214626763557 0 0 0
515 1 -12.959940739574936 -84.70343527360652 7.167364620673645 0 0 0
517 1 -13.676141118450298 -82.67021641440031 5.923214623326741 0 0 0
554 1 -15.828558141708253 -82.67021598466522 4.679064629379206 0 0 0
557 1 -15.82855814163083 -82.67021598473531 7.167364629292348 0 0 0
444 1 -10.807523869230362 -84.70343513362839 5.923214616465515 0 0 0
516 1 -11.523724180169134 -82.6702163708866 7.16736461830963 0 0 0
534 1 -11.523724180194886 -82.67021637088325 4.6790646182882325 0 0 0
368 1 -6.502690460940489 -84.70343372848683 5.923214610310107 0 0 0
443 1 -8.655107105697509 -84.70343459726641 7.167364611662313 0 0 0
462 1 -8.655107105667943 -84.70343459721755 4.679064611694297 0 0 0
463 1 -7.218890673712194 -82.67021494553903 4.679064610966184 0 0 0
464 1 -9.37130735886776 -82.67021586104438 5.923214614330008 0 0 0
466 1 -7.218890673740322 -82.67021494544339 7.16736461092577 0 0 0
367 1 -4.350273928425394 -84.70343263241207 4.679064611055618 0 0 0
370 1 -4.350273928449259 -84.7034326323702 7.167364611020104 0 0 0
372 1 -5.0664741250862 -82.67021373947598 5.923214612542676 0 0 0
287 1 -2.197857494334076 -84.70343143940337 5.923214613258357 0 0 0
304 1 -0.7616413666644096 -82.67021102908203 5.923214613535144 0 0 0
371 1 -2.9140576983145037 -82.6702123799729 7.167364613124902 0 0 0
390 1 -2.9140576983053235 -82.67021238005135 4.6790646130872675 0 0 0
5791 1 -0.04544113126401656 -84.70343028904367 7.167364614821722 0 0 0
5793 1 -0.04544113129325089 -84.70343028903994 4.679064614794773 0 0 0
753 1 -16.544758624046693 -80.63699699277697 -4.029985366270473 0 0 0
769 1 -16.54475862399577 -80.63699699271223 -6.51828536637833 0 0 0
836 1 -18.697175767497924 -80.63699590036401 -5.274135357450201 0 0 0
770 1 -14.392341517097368 -80.63699761544142 -5.274135373376861 0 0 0
675 1 -10.08750760657698 -80.6369972393899 -5.27413538641042 0 0 0
676 1 -12.239924497458421 -80.6369977008673 -4.029985379256769 0 0 0
677 1 -12.239924497542681 -80.63699770090074 -6.518285379293694 0 0 0
609 1 -7.935090869051674 -80.63699628740956 -4.02998538934163 0 0 0
624 1 -7.935090869023926 -80.63699628734457 -6.518285389379661 0 0 0
585 1 -3.630257868436084 -80.63699342049968 -4.029985388359155 0 0 0
586 1 -3.6302578683881346 -80.63699342058278 -6.5182853883309475 0 0 0
625 1 -5.782674293277334 -80.63699496382397 -5.274135389900061 0 0 0
584 1 -1.477841565673241 -80.63699183910387 -5.274135385776906 0 0 0
854 1 -17.260959141115556 -78.60377800810011 -5.274135359360959 0 0 0
856 1 -17.97715969854479 -76.57055901374447 -4.029985348014639 0 0 0
857 1 -17.977159698662508 -76.57055901377959 -6.5182853478673906 0 0 0
771 1 -12.95612482280023 -78.6037791287208 -5.274135377991563 0 0 0
772 1 -15.108541939146484 -78.60377887401293 -4.029985367876649 0 0 0
773 1 -15.108541939155408 -78.60377887407486 -6.518285367810549 0 0 0
777 1 -13.67232516152207 -76.57056065924549 -4.029985380572384 0 0 0
793 1 -13.672325161440652 -76.57056065916974 -6.518285380523921 0 0 0
855 1 -15.82474238905006 -76.57056018418683 -5.274135363279251 0 0 0
681 1 -10.803707845167258 -78.60377874461261 -4.02998538883691 0 0 0
697 1 -10.803707845159428 -78.60377874456908 -6.518285388883674 0 0 0
794 1 -11.519908082161054 -76.57056039142226 -5.274135392406695 0 0 0
627 1 -6.498874431126271 -78.6037763281846 -4.029985394743398 0 0 0
628 1 -6.498874431140592 -78.60377632831522 -6.518285394685784 0 0 0
698 1 -8.65129104392823 -78.60377777155453 -5.274135392414565 0 0 0
699 1 -7.215074532748481 -76.57055785956035 -5.274135404399175 0 0 0
700 1 -9.367491197276061 -76.57055941965152 -4.029985400307289 0 0 0
701 1 -9.36749119731392 -76.570559419789 -6.518285400184296 0 0 0
626 1 -4.346457999469469 -78.6037745821974 -5.274135392298745 0 0 0
632 1 -5.0626580854148395 -76.57055589714118 -4.029985401011908 0 0 0
642 1 -5.062658085404931 -76.57055589703023 -6.518285400923736 0 0 0
589 1 -2.194041723279487 -78.60377273985432 -4.029985386826283 0 0 0
592 1 -2.1940417232424956 -78.60377273977673 -6.518285386833341 0 0 0
593 1 -0.7578257220988752 -76.57055169493047 -4.029985373589849 0 0 0
594 1 -0.7578257221468951 -76.57055169496968 -6.51828537362298 0 0 0
643 1 -2.910241830178465 -76.57055375913585 -5.274135389993426 0 0 0
6130 1 -0.041625557091729284 -78.60377101644872 -5.274135374759064 0 0 0
861 1 -16.540942878859422 -74.53734153513253 -4.029985363263426 0 0 0
875 1 -16.54094287884518 -74.53734153501286 -6.518285363267379 0 0 0
908 1 -18.693360311583863 -74.53733998984612 -5.274135336600246 0 0 0
920 1 -17.25714341831875 -72.50412291271431 -5.274135370322494 0 0 0
876 1 -14.388525520488285 -74.53734229543232 -5.274135388901595 0 0 0
877 1 -12.952308560409941 -72.50412416707282 -5.2741354326803656 0 0 0
878 1 -15.104725910011487 -72.50412403781066 -4.029985405668016 0 0 0
879 1 -15.10472591012255 -72.50412403799803 -6.518285405634619 0 0 0
795 1 -10.083691332452922 -74.53734125413497 -5.274135417195797 0 0 0
796 1 -12.23610831855526 -74.5373421944038 -4.029985405457391 0 0 0
797 1 -12.236108318647359 -74.5373421944852 -6.518285405440329 0 0 0
801 1 -10.799891448513652 -72.50412330043635 -4.02998544744177 0 0 0
811 1 -10.799891448363892 -72.50412330029081 -6.518285447474969 0 0 0
705 1 -7.931274597536554 -74.53733959010749 -4.029985422507924 0 0 0
719 1 -7.931274597502873 -74.53733958996642 -6.518285422514763 0 0 0
722 1 -6.495058096651731 -72.50411912637924 -4.029985436972613 0 0 0
723 1 -6.49505809671826 -72.50411912650382 -6.518285436938931 0 0 0
812 1 -8.647474621107218 -72.50412155256548 -5.274135450550706 0 0 0
645 1 -3.626441878993607 -74.53733493283039 -4.029985397034919 0 0 0
646 1 -3.6264418790388944 -74.53733493290943 -6.518285397017979 0 0 0
720 1 -5.778858120103481 -74.53733739847134 -5.274135414845545 0 0 0
721 1 -4.342641858861322 -72.50411629924228 -5.274135408912642 0 0 0
644 1 -1.4740258270142257 -74.53733247526324 -5.274135373863893 0 0 0
649 1 -2.1902258609300342 -72.50411339528333 -4.029985372025264 0 0 0
652 1 -2.1902258608955703 -72.50411339522157 -6.5182853719912615 0 0 0
6184 1 -0.03781002631889047 -72.50411075090477 -5.2741353315105775 0 0 0
922 1 -17.97334402038819 -70.47090429975373 -4.029985389781527 0 0 0
923 1 -17.97334402056272 -70.47090429990521 -6.51828538961924 0 0 0
883 1 -13.668508812907186 -70.47090632096574 -4.029985474569911 0 0 0
889 1 -13.668508812872666 -70.47090632083035 -6.51828547463316 0 0 0
921 1 -15.820926336123277 -70.47090588222252 -5.274135438591173 0 0 0
890 1 -11.516091546940627 -70.47090558673627 -5.274135494778854 0 0 0
813 1 -7.21125800981596 -70.47090112035205 -5.274135469583473 0 0 0
814 1 -9.363674602943814 -70.47090378272294 -4.02998549307821 0 0 0
815 1 -9.363674602938042 -70.47090378286558 -6.518285492932137 0 0 0
727 1 -5.058841760987903 -70.4708979050979 -4.029985428205092 0 0 0
733 1 -5.0588417608949126 -70.47089790514372 -6.518285428276654 0 0 0
653 1 -0.7540100780547563 -70.4708912914435 -4.0299853133164145 0 0 0
654 1 -0.7540100780354776 -70.47089129144825 -6.518285313257678 0 0 0
734 1 -2.90642580841515 -70.47089449801629 -5.2741353729092335 0 0 0
752 1 -16.544758623943416 -80.63699699271974 -1.5416853663425614 0 0 0
826 1 -18.6971757674954 -80.6369959003101 -0.29753535761483507 0 0 0
837 1 -18.697175767522037 -80.63699590035361 -2.785835357581973 0 0 0
751 1 -14.392341517103654 -80.63699761544832 -2.7858353732952668 0 0 0
754 1 -14.392341517070072 -80.63699761543754 -0.29753537335468355 0 0 0
661 1 -10.087507606615027 -80.63699723939797 -0.29753538638097704 0 0 0
663 1 -12.239924497493286 -80.63699770087398 -1.5416853791895835 0 0 0
678 1 -10.087507606626346 -80.6369972393627 -2.785835386451551 0 0 0
608 1 -7.935090868999857 -80.63699628732792 -1.5416853892708366 0 0 0
578 1 -3.6302578684264044 -80.63699342059013 -1.5416853883827712 0 0 0
607 1 -5.782674293291156 -80.63699496386089 -2.785835389827453 0 0 0
610 1 -5.7826742933177915 -80.6369949638564 -0.29753538989627604 0 0 0
576 1 -1.477841565681244 -80.63699183908227 -0.2975353858585591 0 0 0
587 1 -1.477841565628273 -80.63699183915402 -2.7858353857908127 0 0 0
838 1 -17.26095914115319 -78.60377800818507 -2.785835359252992 0 0 0
839 1 -17.26095914114477 -78.60377800805976 -0.2975353594005508 0 0 0
842 1 -17.97715969865131 -76.57055901385013 -1.5416853478926889 0 0 0
755 1 -12.956124822794742 -78.603779128738 -0.29753537799418306 0 0 0
757 1 -15.108541939217922 -78.60377887410198 -1.5416853678211735 0 0 0
774 1 -12.956124822767755 -78.60377912865509 -2.785835378085067 0 0 0
776 1 -13.672325161456522 -76.57056065911914 -1.5416853805200783 0 0 0
840 1 -15.824742389061617 -76.57056018418277 -0.2975353632398204 0 0 0
858 1 -15.82474238905658 -76.57056018411275 -2.7858353634275383 0 0 0
680 1 -10.80370784505327 -78.60377874451238 -1.5416853887730466 0 0 0
775 1 -11.519908082212144 -76.57056039146751 -2.7858353922783197 0 0 0
778 1 -11.51990808216799 -76.570560391428 -0.2975353924055924 0 0 0
613 1 -6.498874431250847 -78.60377632819542 -1.541685394681664 0 0 0
679 1 -8.651291043889072 -78.6037777715622 -2.7858353923334156 0 0 0
682 1 -8.651291043905426 -78.60377777158173 -0.2975353925173084 0 0 0
683 1 -7.215074532824044 -76.57055785956821 -0.29753540445859994 0 0 0
685 1 -9.367491197306578 -76.57055941974362 -1.5416854001855098 0 0 0
702 1 -7.215074532850297 -76.57055785955497 -2.7858354045309266 0 0 0
611 1 -4.346457999462993 -78.60377458212861 -0.29753539240162113 0 0 0
629 1 -4.346457999425862 -78.60377458222571 -2.7858353924142674 0 0 0
631 1 -5.062658085379312 -76.57055589708098 -1.5416854009668028 0 0 0
588 1 -2.194041723234013 -78.60377273979304 -1.541685386823279 0 0 0
591 1 -0.7578257220755718 -76.5705516949406 -1.5416853736185776 0 0 0
630 1 -2.910241830107743 -76.57055375923039 -2.7858353899743586 0 0 0
633 1 -2.910241830148442 -76.57055375920285 -0.29753539006721047 0 0 0
6116 1 -0.041625557017554556 -78.60377101641852 -2.78583537469847 0 0 0
6117 1 -0.0416255570705716 -78.60377101639318 -0.2975353748170785 0 0 0
860 1 -16.540942878733055 -74.5373415349511 -1.5416853632491374 0 0 0
898 1 -18.69336031164139 -74.53733998983704 -0.297535336611507 0 0 0
909 1 -18.693360311533976 -74.53733998979376 -2.785835336811196 0 0 0
910 1 -17.25714341836071 -72.50412291288202 -2.7858353702201764 0 0 0
911 1 -17.257143418312882 -72.50412291278019 -0.29753537040660283 0 0 0
859 1 -14.388525520575767 -74.53734229544933 -2.785835388774178 0 0 0
862 1 -14.388525520539789 -74.53734229539441 -0.29753538889128084 0 0 0
863 1 -12.952308560402079 -72.50412416706544 -0.2975354326946557 0 0 0
865 1 -15.104725910123113 -72.50412403800355 -1.5416854055555067 0 0 0
880 1 -12.952308560315743 -72.50412416703439 -2.785835432867409 0 0 0
779 1 -10.08369133247137 -74.5373412541606 -0.2975354171791595 0 0 0
781 1 -12.236108318675747 -74.53734219449167 -1.5416854053542906 0 0 0
798 1 -10.08369133247002 -74.53734125411796 -2.7858354173655107 0 0 0
800 1 -10.799891448430513 -72.50412330031057 -1.541685447477691 0 0 0
704 1 -7.931274597552434 -74.53733958998198 -1.5416854225393313 0 0 0
709 1 -6.495058096713345 -72.50411912646203 -1.5416854368731738 0 0 0
799 1 -8.647474621052472 -72.50412155260875 -2.7858354503689347 0 0 0
802 1 -8.647474621065827 -72.50412155258297 -0.29753545054083536 0 0 0
636 1 -3.626441879005049 -74.53733493296333 -1.5416853969834723 0 0 0
703 1 -5.778858120116565 -74.53733739846298 -2.785835414756704 0 0 0
706 1 -5.778858120081319 -74.53733739840825 -0.29753541488172025 0 0 0
707 1 -4.342641858819989 -72.50411629924879 -0.29753540887328495 0 0 0
724 1 -4.342641858854039 -72.50411629927122 -2.78583540893194 0 0 0
634 1 -1.4740258270135234 -74.53733247532783 -0.2975353738692746 0 0 0
647 1 -1.4740258270342201 -74.53733247533785 -2.785835373946723 0 0 0
648 1 -2.190225860851151 -72.50411339521835 -1.5416853719952692 0 0 0
6176 1 -0.03781002623291438 -72.50411075090689 -2.7858353315731015 0 0 0
6177 1 -0.037810026335321205 -72.50411075088874 -0.2975353315328071 0 0 0
914 1 -17.973344020473718 -70.47090429978245 -1.5416853896970346 0 0 0
882 1 -13.66850881283702 -70.47090632084686 -1.541685474701487 0 0 0
912 1 -15.820926336143003 -70.47090588228089 -0.2975354386778523 0 0 0
924 1 -15.82092633601902 -70.47090588223642 -2.7858354387823185 0 0 0
881 1 -11.516091546995574 -70.47090558687721 -2.785835494636441 0 0 0
884 1 -11.51609154693394 -70.47090558675715 -0.29753549479230157 0 0 0
803 1 -7.211258009810806 -70.47090112033763 -0.29753546964776567 0 0 0
805 1 -9.36367460304517 -70.47090378282861 -1.5416854929611796 0 0 0
816 1 -7.21125800974085 -70.47090112028145 -2.7858354697239167 0 0 0
726 1 -5.0588417609367715 -70.47089790503706 -1.5416854282474417 0 0 0
651 1 -0.754010077968621 -70.4708912914627 -1.5416853132800123 0 0 0
725 1 -2.906425808436029 -70.47089449809876 -2.785835372885232 0 0 0
728 1 -2.9064258084429127 -70.47089449805588 -0.29753537295353977 0 0 0
742 1 -16.54475862401047 -80.63699699275163 3.4349146336659637 0 0 0
743 1 -16.544758624017195 -80.63699699276458 0.9466146336338703 0 0 0
827 1 -18.697175767475276 -80.63699590035462 2.190764642480947 0 0 0
741 1 -14.39234151712015 -80.63699761546278 2.1907646267097474 0 0 0
657 1 -12.23992449750468 -80.6369977009068 3.4349146207731334 0 0 0
662 1 -12.239924497482521 -80.63699770083873 0.946614620713437 0 0 0
664 1 -10.08750760657294 -80.63699723939222 2.1907646135161976 0 0 0
598 1 -7.9350908690364 -80.63699628737496 3.434914610693251 0 0 0
599 1 -7.935090869069623 -80.63699628738614 0.9466146106220299 0 0 0
573 1 -3.6302578684573943 -80.63699342054295 3.434914611638784 0 0 0
577 1 -3.6302578683893008 -80.63699342055587 0.9466146116750409 0 0 0
597 1 -5.782674293271727 -80.63699496381986 2.190764610167172 0 0 0
579 1 -1.4778415657256523 -80.6369918391238 2.1907646141902126 0 0 0
828 1 -17.260959141153045 -78.60377800815422 2.1907646407251224 0 0 0
832 1 -17.977159698625606 -76.57055901388496 3.4349146520977283 0 0 0
841 1 -17.977159698580547 -76.57055901365575 0.9466146520233789 0 0 0
747 1 -15.108541939246006 -78.60377887409682 3.4349146321328847 0 0 0
756 1 -15.10854193909809 -78.6037788739895 0.9466146321377064 0 0 0
758 1 -12.956124822799516 -78.60377912869123 2.1907646219009203 0 0 0
760 1 -13.672325161433134 -76.5705606591233 3.43491461938282 0 0 0
761 1 -13.672325161540057 -76.57056065928298 0.9466146195518633 0 0 0
843 1 -15.824742389035952 -76.57056018411164 2.190764636603399 0 0 0
666 1 -10.803707845119673 -78.60377874455554 3.434914611127122 0 0 0
667 1 -10.803707845200938 -78.60377874465362 0.9466146111382848 0 0 0
759 1 -11.51990808218506 -76.57056039147288 2.190764607704932 0 0 0
603 1 -6.498874431153315 -78.60377632823766 3.4349146052821524 0 0 0
612 1 -6.498874431107275 -78.6037763282603 0.9466146053396807 0 0 0
665 1 -8.651291043933226 -78.6037777715558 2.1907646076654226 0 0 0
671 1 -9.36749119733545 -76.57055941976327 3.434914599737362 0 0 0
684 1 -9.36749119726945 -76.57055941969129 0.9466145997570302 0 0 0
686 1 -7.215074532755247 -76.5705578595326 2.1907645955043398 0 0 0
614 1 -4.34645799946831 -78.6037745822244 2.1907646076640077 0 0 0
616 1 -5.0626580853582555 -76.57055589704413 3.434914598993615 0 0 0
617 1 -5.062658085448785 -76.57055589709266 0.9466145990598107 0 0 0
580 1 -2.1940417232741467 -78.60377273981084 3.434914613160703 0 0 0
581 1 -2.1940417232739438 -78.60377273981882 0.9466146131290674 0 0 0
583 1 -0.7578257220999131 -76.57055169493026 3.434914626349886 0 0 0
590 1 -0.7578257221270414 -76.57055169494038 0.9466146264710257 0 0 0
615 1 -2.9102418301457216 -76.57055375911968 2.1907646100402163 0 0 0
6110 1 -0.04162555709614581 -78.60377101641079 2.1907646252475947 0 0 0
845 1 -16.54094287877846 -74.53734153499389 3.434914636673961 0 0 0
846 1 -16.54094287895566 -74.53734153515387 0.9466146368471855 0 0 0
899 1 -18.69336031151904 -74.53733998977978 2.1907646632327387 0 0 0
900 1 -17.257143418435763 -72.50412291280885 2.190764629880418 0 0 0
844 1 -14.388525520543032 -74.53734229549339 2.1907646113091253 0 0 0
850 1 -15.104725910167295 -72.50412403794667 3.434914594455015 0 0 0
864 1 -15.104725910047831 -72.5041240378494 0.94661459427867 0 0 0
866 1 -12.952308560357656 -72.50412416701354 2.190764567153116 0 0 0
765 1 -12.236108318618083 -74.53734219452005 3.434914594635984 0 0 0
780 1 -12.236108318554141 -74.53734219437729 0.9466145945103618 0 0 0
782 1 -10.083691332420187 -74.5373412541173 2.190764582679841 0 0 0
784 1 -10.799891448400682 -72.50412330029911 3.434914552483506 0 0 0
785 1 -10.799891448433257 -72.50412330042046 0.9466145526070692 0 0 0
688 1 -7.931274597467342 -74.5373395900185 3.434914577472027 0 0 0
689 1 -7.931274597580894 -74.53733959006821 0.9466145775068217 0 0 0
693 1 -6.495058096721242 -72.50411912647573 3.434914563034502 0 0 0
708 1 -6.495058096638964 -72.50411912642741 0.9466145630328238 0 0 0
783 1 -8.647474621101964 -72.50412155263983 2.1907645495872607 0 0 0
621 1 -3.6264418790094544 -74.53733493283488 3.4349146029611966 0 0 0
635 1 -3.6264418789892097 -74.53733493286317 0.9466146029859903 0 0 0
687 1 -5.778858120121437 -74.5373373984665 2.190764585279763 0 0 0
710 1 -4.342641858862351 -72.50411629920264 2.190764591021309 0 0 0
637 1 -1.4740258270099276 -74.53733247529576 2.190764626097277 0 0 0
638 1 -2.1902258609143717 -72.50411339523049 3.4349146279971015 0 0 0
639 1 -2.1902258609103633 -72.50411339525705 0.9466146279877076 0 0 0
6170 1 -0.03781002627457698 -72.50411075087854 2.1907646684958255 0 0 0
904 1 -17.97334402051784 -70.47090429990405 3.43491461035674 0 0 0
913 1 -17.973344020453478 -70.47090429974588 0.9466146102217483 0 0 0
868 1 -13.668508812830192 -70.4709063208149 3.4349145253132907 0 0 0
869 1 -13.668508813002157 -70.47090632099453 0.9466145254720523 0 0 0
915 1 -15.820926336081113 -70.47090588209763 2.1907645612049933 0 0 0
867 1 -11.516091546999563 -70.47090558681664 2.1907645054271945 0 0 0
789 1 -9.36367460297847 -70.47090378283285 3.434914507000138 0 0 0
804 1 -9.363674602857383 -70.47090378273974 0.9466145069588583 0 0 0
806 1 -7.211258009772389 -70.47090112029247 2.1907645302653758 0 0 0
712 1 -5.058841760969806 -70.4708979050256 3.434914571760366 0 0 0
713 1 -5.058841760956091 -70.4708979052209 0.9466145717686467 0 0 0
641 1 -0.7540100780737318 -70.47089129146552 3.4349146866955613 0 0 0
650 1 -0.7540100780202471 -70.47089129144015 0.9466146867136952 0 0 0
711 1 -2.9064258084498404 -70.47089449800184 2.1907646271577983 0 0 0
740 1 -16.544758623988685 -80.63699699278557 5.923214633696587 0 0 0
823 1 -18.697175767526712 -80.63699590038007 4.679064642470915 0 0 0
824 1 -18.69717576747418 -80.6369959003222 7.167364642313311 0 0 0
739 1 -14.392341517132751 -80.63699761544646 7.167364626708821 0 0 0
744 1 -14.392341517120077 -80.63699761543775 4.679064626627838 0 0 0
655 1 -10.087507606635135 -80.63699723938294 4.679064613628907 0 0 0
656 1 -12.239924497491693 -80.63699770080883 5.923214620770428 0 0 0
658 1 -10.087507606617802 -80.63699723938248 7.167364613583804 0 0 0
596 1 -7.935090869029255 -80.63699628736912 5.92321461072132 0 0 0
572 1 -3.6302578683859172 -80.63699342056996 5.92321461167556 0 0 0
595 1 -5.782674293284273 -80.6369949638706 7.167364610150761 0 0 0
600 1 -5.782674293304064 -80.63699496388496 4.6790646101621025 0 0 0
571 1 -1.4778415656071553 -80.63699183912284 4.679064614238212 0 0 0
574 1 -1.4778415657035482 -80.63699183907136 7.1673646141352485 0 0 0
825 1 -17.26095914115307 -78.60377800812823 7.167364640721846 0 0 0
829 1 -17.260959141122722 -78.60377800814996 4.679064640632481 0 0 0
831 1 -17.977159698556374 -76.57055901375375 5.923214652044199 0 0 0
745 1 -12.956124822838133 -78.60377912867031 4.679064622007895 0 0 0
746 1 -15.108541939180402 -78.60377887402399 5.9232146321474195 0 0 0
748 1 -12.956124822802364 -78.60377912870673 7.1673646218912275 0 0 0
750 1 -13.672325161514681 -76.57056065922522 5.923214619537831 0 0 0
830 1 -15.824742389063532 -76.57056018415813 4.679064636731905 0 0 0
833 1 -15.824742389021033 -76.57056018413013 7.167364636590465 0 0 0
660 1 -10.803707845142773 -78.603778744604 5.923214611251932 0 0 0
749 1 -11.519908082154794 -76.57056039146505 7.167364607723413 0 0 0
762 1 -11.519908082172607 -76.57056039145084 4.679064607603935 0 0 0
602 1 -6.498874431199742 -78.60377632814514 5.923214605326495 0 0 0
659 1 -8.651291043924337 -78.60377777160241 7.1673646075587065 0 0 0
668 1 -8.65129104388739 -78.60377777152573 4.6790646075882005 0 0 0
669 1 -7.215074532819731 -76.57055785953908 4.679064595572073 0 0 0
670 1 -9.367491197220241 -76.57055941967154 5.923214599790981 0 0 0
672 1 -7.215074532816216 -76.57055785955656 7.167364595438361 0 0 0
601 1 -4.346457999421075 -78.60377458218302 4.6790646076523315 0 0 0
604 1 -4.346457999445489 -78.60377458214533 7.1673646075337185 0 0 0
606 1 -5.062658085392393 -76.57055589711119 5.923214598989764 0 0 0
575 1 -2.1940417232630733 -78.60377273979431 5.923214613167876 0 0 0
582 1 -0.7578257220554017 -76.57055169490691 5.923214626412694 0 0 0
605 1 -2.910241830116018 -76.57055375917051 7.1673646099764055 0 0 0
618 1 -2.9102418301356137 -76.57055375920872 4.679064609944973 0 0 0
6109 1 -0.04162555705474807 -78.60377101635089 7.167364625211406 0 0 0
6111 1 -0.04162555704654229 -78.60377101645133 4.679064625255832 0 0 0
835 1 -16.54094287886006 -74.53734153509099 5.923214636843133 0 0 0
895 1 -18.69336031160822 -74.53733998989858 4.679064663377405 0 0 0
896 1 -18.693360311593022 -74.53733998975645 7.167364663197255 0 0 0
897 1 -17.25714341838623 -72.50412291287414 7.167364629771775 0 0 0
901 1 -17.25714341831529 -72.50412291278174 4.679064629585672 0 0 0
834 1 -14.388525520587658 -74.53734229545276 7.167364611237836 0 0 0
847 1 -14.388525520527763 -74.53734229535944 4.679064611057307 0 0 0
848 1 -12.952308560391797 -72.50412416709179 4.679064567290861 0 0 0
849 1 -15.104725910036798 -72.5041240378369 5.923214594299491 0 0 0
851 1 -12.952308560338334 -72.50412416696392 7.167364567105816 0 0 0
763 1 -10.083691332477096 -74.53734125417623 4.679064582802084 0 0 0
764 1 -12.236108318572143 -74.53734219437095 5.923214594563675 0 0 0
766 1 -10.083691332416741 -74.53734125412112 7.167364582672066 0 0 0
768 1 -10.799891448513046 -72.50412330043518 5.9232145525863 0 0 0
674 1 -7.931274597622429 -74.53733959007235 5.923214577511522 0 0 0
692 1 -6.495058096673125 -72.504119126352 5.923214563096226 0 0 0
767 1 -8.647474621088461 -72.50412155262687 7.167364549600672 0 0 0
786 1 -8.64747462101404 -72.50412155257054 4.6790645494836545 0 0 0
620 1 -3.6264418789493638 -74.53733493287389 5.923214602988574 0 0 0
673 1 -5.7788581201149185 -74.53733739840662 7.167364585180554 0 0 0
690 1 -5.77885812008081 -74.53733739844044 4.679064585137366 0 0 0
691 1 -4.342641858881383 -72.50411629926381 4.679064591152869 0 0 0
694 1 -4.342641858847622 -72.5041162992238 7.167364591059667 0 0 0
619 1 -1.4740258270189366 -74.53733247529382 4.679064626084715 0 0 0
622 1 -1.474025827015999 -74.53733247536125 7.167364626084267 0 0 0
623 1 -2.190225860888951 -72.50411339524494 5.923214627976863 0 0 0
6169 1 -0.037810026301341976 -72.5041107508875 7.167364668480072 0 0 0
6171 1 -0.03781002627923882 -72.50411075094608 4.679064668427963 0 0 0
903 1 -17.973344020338615 -70.47090429962566 5.923214610176434 0 0 0
853 1 -13.668508812969963 -70.4709063209959 5.923214525407475 0 0 0
902 1 -15.820926336108393 -70.4709058823009 4.679064561426942 0 0 0
905 1 -15.82092633606727 -70.47090588216905 7.167364561121005 0 0 0
852 1 -11.516091546966862 -70.47090558683296 7.167364505367053 0 0 0
870 1 -11.516091546927845 -70.470905586795 4.679064505169054 0 0 0
787 1 -7.211258009773147 -70.47090112031455 4.679064530395933 0 0 0
788 1 -9.3636746029083 -70.47090378271415 5.923214506936716 0 0 0
790 1 -7.211258009754104 -70.47090112028059 7.1673645302475295 0 0 0
696 1 -5.058841761012668 -70.47089790509237 5.923214571805666 0 0 0
640 1 -0.7540100779908777 -70.47089129147636 5.923214686743065 0 0 0
695 1 -2.9064258084821866 -70.4708944980389 7.167364627089135 0 0 0
714 1 -2.9064258084396632 -70.47089449807464 4.679064627075056 0 0 0
927 1 -16.537126813712707 -68.43768782005884 -4.029985493381808 0 0 0
929 1 -16.537126813620397 -68.4376878199136 -6.518285493496368 0 0 0
935 1 -18.68954470097706 -68.43768566989938 -5.274135425257876 0 0 0
1191 1 -17.253327357255404 -66.40446984061732 -5.274135577202577 0 0 0
930 1 -14.384709085116231 -68.43768866639832 -5.274135541086467 0 0 0
1102 1 -12.948491708949067 -66.40447097748 -5.274135666377512 0 0 0
1103 1 -15.100909385659435 -66.40447120991767 -4.029985640351325 0 0 0
1104 1 -15.100909385712557 -66.40447121010794 -6.518285640214431 0 0 0
891 1 -10.07987454057263 -68.43768631940125 -5.2741355574406645 0 0 0
892 1 -12.232291631529051 -68.43768813641002 -4.029985564397015 0 0 0
893 1 -12.232291631616922 -68.4376881366263 -6.51828556419745 0 0 0
1015 1 -10.796074433902865 -66.40446920469272 -4.029985651074377 0 0 0
1031 1 -10.79607443373301 -66.40446920459105 -6.518285651218262 0 0 0
819 1 -7.927457853661356 -68.4376834328725 -4.02998552187266 0 0 0
821 1 -7.92745785359026 -68.43768343276 -6.518285521978675 0 0 0
973 1 -6.491241286168511 -66.4044620535981 -4.029985503108106 0 0 0
974 1 -6.491241286099082 -66.40446205359906 -6.518285503087746 0 0 0
1032 1 -8.64365762112494 -66.40446611401906 -5.274135595921323 0 0 0
736 1 -3.622625659474757 -68.43767583671017 -4.029985380188413 0 0 0
737 1 -3.6226256595131385 -68.43767583681982 -6.518285380113424 0 0 0
822 1 -5.77504157333928 -68.43767980285254 -5.274135459484743 0 0 0
972 1 -4.338825394920074 -66.4044574711337 -5.2741353911352515 0 0 0
735 1 -1.4702100314070454 -68.43767198118628 -5.274135295610596 0 0 0
946 1 -2.186409867269679 -66.4044528762023 -4.029985269597952 0 0 0
949 1 -2.1864098671554832 -66.4044528761845 -6.518285269705544 0 0 0
950 1 -0.033994577613883845 -66.40444880475833 -5.27413515291953 0 0 0
1193 1 -17.969527989360845 -64.37125192063776 -4.029985704432648 0 0 0
1194 1 -17.969527989423533 -64.37125192078007 -6.5182857043329605 0 0 0
1198 1 -16.53331014978902 -62.33803691083616 -4.029985991986018 0 0 0
1214 1 -16.533310149720787 -62.33803691073969 -6.518285992148595 0 0 0
1257 1 -18.685728738915422 -62.33803403317476 -5.274135890526763 0 0 0
1108 1 -13.664691785888731 -64.37125413476953 -4.029985811665643 0 0 0
1124 1 -13.664691785812506 -64.37125413466802 -6.518285811806046 0 0 0
1192 1 -15.81710973303562 -64.37125395909409 -5.274135783665588 0 0 0
1215 1 -14.380891882251685 -62.33803763430394 -5.274136015445771 0 0 0
1125 1 -11.512274284086155 -64.37125248260926 -5.274135778550619 0 0 0
1126 1 -10.076056912501052 -62.33803282510942 -5.27413581827254 0 0 0
1127 1 -12.228474099327592 -62.33803620144789 -4.029985954333968 0 0 0
1128 1 -12.22847409936988 -62.33803620156943 -6.5182859541905795 0 0 0
1033 1 -7.207440887687591 -64.37124472591843 -5.274135557157056 0 0 0
1034 1 -9.359857308027353 -64.37124922349106 -4.029985691504182 0 0 0
1035 1 -9.35985730805314 -64.37124922344903 -6.51828569138089 0 0 0
1039 1 -7.923640368403003 -62.33802789428022 -4.02998562124044 0 0 0
1055 1 -7.9236403684282495 -62.33802789422403 -6.51828562130955 0 0 0
978 1 -5.055024998387076 -64.37123947661799 -4.029985396420248 0 0 0
988 1 -5.055024998336918 -64.37123947659346 -6.518285396467977 0 0 0
991 1 -3.61880910222079 -62.33801557585001 -4.029985140506055 0 0 0
992 1 -3.618809102217219 -62.338015575918924 -6.5182851403566655 0 0 0
1056 1 -5.77122445547224 -62.33802193246159 -5.274135387477275 0 0 0
951 1 -0.7501944550695718 -64.37122905880385 -4.029985058654641 0 0 0
952 1 -0.750194455028304 -64.37122905883504 -6.518285058669874 0 0 0
989 1 -2.9026095646318377 -64.37123404778674 -5.27413522089072 0 0 0
990 1 -1.4663941752221896 -62.33800953099346 -5.274134916878138 0 0 0
1273 1 -17.24951065405188 -60.304820058803955 -5.274136289132666 0 0 0
1275 1 -17.965711274210047 -58.27160338744712 -4.029986702656723 0 0 0
1276 1 -17.965711274172325 -58.271603387463195 -6.518286702538419 0 0 0
1216 1 -12.94467388518338 -60.30482041236585 -5.2741361956984445 0 0 0
1217 1 -15.09709200481001 -60.304821502327066 -4.029986301434238 0 0 0
1218 1 -15.097092004833904 -60.30482150239835 -6.518286301320042 0 0 0
1222 1 -13.660873652619273 -58.27160516397425 -4.029986517561691 0 0 0
1232 1 -13.660873652568997 -58.27160516402255 -6.518286517763614 0 0 0
1274 1 -15.813292177204476 -58.271605759861785 -5.274136691418707 0 0 0
1132 1 -10.792256433830579 -60.30481698984018 -4.029985985144512 0 0 0
1146 1 -10.792256433732152 -60.30481698990819 -6.518285985237021 0 0 0
1233 1 -11.50845587255518 -58.271601790449026 -5.274136198260143 0 0 0
1058 1 -6.4874237457089015 -60.30480493329901 -4.029985354270257 0 0 0
1059 1 -6.4874237456857 -60.30480493339178 -6.518285354225422 0 0 0
1147 1 -8.639839718989391 -60.304811641364914 -5.2741356942725455 0 0 0
1148 1 -7.203622852241586 -58.271588585356966 -5.274135288972439 0 0 0
1149 1 -9.35603893199371 -58.27159606483955 -4.029985772116553 0 0 0
1150 1 -9.3560389319229 -58.27159606488 -6.518285771935612 0 0 0
1057 1 -4.335008452497973 -60.30479755657927 -5.274135010792745 0 0 0
1063 1 -5.051207587121751 -58.27158010313445 -4.029984810453826 0 0 0
1072 1 -5.051207587119932 -58.27158010317212 -6.51828481060284 0 0 0
995 1 -2.182593706469676 -60.30479030778383 -4.029984705021107 0 0 0
998 1 -2.1825937064221272 -60.304790307776514 -6.518284705071259 0 0 0
999 1 -0.746378924627729 -58.27156372602688 -4.0299840921017696 0 0 0
1000 1 -0.7463789246197452 -58.271563726033435 -6.518284092003709 0 0 0
1073 1 -2.8987930123492505 -58.27157149640572 -5.274134394593666 0 0 0
6562 1 -0.03017930988787184 -60.30478401949532 -5.27413447534849 0 0 0
1280 1 -16.529492424516725 -56.238390423691726 -4.029987224927497 0 0 0
1286 1 -16.52949242458317 -56.23839042379541 -6.518287225084156 0 0 0
1299 1 -18.681912051310245 -56.23838687048226 -5.274137279420197 0 0 0
1287 1 -14.377073417776154 -56.23839050848403 -5.274136944383316 0 0 0
1234 1 -10.072238004601072 -56.238381261616304 -5.274135849620572 0 0 0
1235 1 -12.224655236675874 -56.2383873069238 -4.029986466798845 0 0 0
1236 1 -12.224655236711437 -56.23838730689879 -6.518286466728016 0 0 0
1154 1 -7.919821765405458 -56.23837300658595 -4.02998516677915 0 0 0
1160 1 -7.9198217654361525 -56.23837300649924 -6.5182851668599895 0 0 0
1075 1 -3.6149920618809723 -56.238353229132564 -4.029983938827725 0 0 0
1076 1 -3.614992061892493 -56.23835322916717 -6.518283938754668 0 0 0
1161 1 -5.767406487428349 -56.238363344925304 -5.2741345031025935 0 0 0
1074 1 -1.4625782868738189 -56.23834374838635 -5.274133540846448 0 0 0
926 1 -16.53712681360851 -68.43768781988818 -1.541685493470319 0 0 0
933 1 -18.689544700972238 -68.43768566992355 -0.29753542525130866 0 0 0
936 1 -18.689544700920536 -68.43768566981463 -2.785835425470338 0 0 0
1175 1 -17.253327357317374 -66.40446984071978 -2.7858355769938576 0 0 0
1176 1 -17.253327357240817 -66.4044698405418 -0.2975355771222253 0 0 0
925 1 -14.384709085152345 -68.43768866654406 -2.7858355408408566 0 0 0
928 1 -14.384709085061186 -68.43768866646309 -0.29753554112956265 0 0 0
1088 1 -12.948491708938644 -66.40447097750858 -0.29753566639802353 0 0 0
1090 1 -15.100909385766826 -66.40447121013626 -1.5416856401963412 0 0 0
1105 1 -12.948491708806037 -66.40447097731371 -2.7858356666193194 0 0 0
885 1 -10.07987454057039 -68.43768631937058 -0.29753555751313987 0 0 0
887 1 -12.232291631657034 -68.43768813651643 -1.5416855642447485 0 0 0
894 1 -10.079874540551902 -68.43768631930412 -2.785835557624985 0 0 0
1014 1 -10.796074433796647 -66.4044692046065 -1.5416856511312007 0 0 0
818 1 -7.927457853596084 -68.43768343271906 -1.5416855220212857 0 0 0
961 1 -6.491241286164706 -66.40446205365305 -1.5416855031109125 0 0 0
1013 1 -8.643657621152254 -66.40446611416306 -2.7858355958123755 0 0 0
1016 1 -8.64365762109474 -66.40446611398171 -0.2975355959249996 0 0 0
731 1 -3.6226256595506166 -68.43767583675306 -1.5416853801141779 0 0 0
817 1 -5.775041573400176 -68.43767980292685 -2.7858354593917585 0 0 0
820 1 -5.775041573350194 -68.43767980284788 -0.29753545951681515 0 0 0
959 1 -4.338825394942376 -66.40445747111924 -0.2975353911741763 0 0 0
975 1 -4.338825394900272 -66.40445747109925 -2.785835391220964 0 0 0
729 1 -1.4702100313337483 -68.43767198115813 -0.29753529566105025 0 0 0
738 1 -1.4702100313453166 -68.43767198116068 -2.7858352956118897 0 0 0
944 1 -0.03399457761030651 -66.40444880482742 -2.785835152928343 0 0 0
945 1 -2.1864098672260663 -66.40445287617234 -1.541685269631795 0 0 0
6480 1 -0.03399457763087723 -66.40444880483267 -0.29753515290342275 0 0 0
1179 1 -17.969527989468947 -64.37125192069227 -1.5416857042025256 0 0 0
1197 1 -16.533310149714538 -62.33803691075553 -1.5416859920992099 0 0 0
1247 1 -18.685728738943784 -62.338034033126846 -0.2975358905699289 0 0 0
1258 1 -18.68572873890001 -62.33803403306682 -2.7858358906959375 0 0 0
1107 1 -13.66469178582232 -64.37125413463924 -1.5416858117539018 0 0 0
1177 1 -15.81710973305132 -64.37125395910286 -0.297535783740112 0 0 0
1195 1 -15.817109732884987 -64.3712539589676 -2.785835783804524 0 0 0
1196 1 -14.380891882296867 -62.338037634425014 -2.7858360153657262 0 0 0
1199 1 -14.380891882252822 -62.33803763438039 -0.2975360154898832 0 0 0
1106 1 -11.512274284124247 -64.37125248271764 -2.7858357784194596 0 0 0
1109 1 -11.512274284038494 -64.3712524825462 -0.2975357785425523 0 0 0
1110 1 -10.076056912478514 -62.33803282504581 -0.29753581825031095 0 0 0
1112 1 -12.228474099393344 -62.33803620158089 -1.541685954101162 0 0 0
1129 1 -10.076056912437698 -62.33803282498312 -2.785835818289862 0 0 0
1017 1 -7.207440887724295 -64.37124472594567 -0.2975355572012802 0 0 0
1019 1 -9.359857308060478 -64.37124922358274 -1.541685691339856 0 0 0
1036 1 -7.207440887617712 -64.37124472588984 -2.7858355572985034 0 0 0
1038 1 -7.92364036842262 -62.33802789426535 -1.5416856212634973 0 0 0
977 1 -5.0550249982992055 -64.37123947655185 -1.541685396470553 0 0 0
982 1 -3.6188091022475803 -62.33801557589721 -1.5416851403800291 0 0 0
1037 1 -5.771224455567957 -62.338021932505875 -2.785835387410292 0 0 0
1040 1 -5.771224455519788 -62.3380219324679 -0.29753538746076086 0 0 0
948 1 -0.7501944550893073 -64.37122905885454 -1.5416850586892694 0 0 0
976 1 -2.9026095645954557 -64.37123404781464 -2.785835220914288 0 0 0
979 1 -2.902609564642698 -64.37123404777377 -0.2975352209338857 0 0 0
980 1 -1.4663941751076943 -62.33800953100623 -0.29753491693678225 0 0 0
993 1 -1.4663941751781764 -62.33800953099393 -2.7858349168655097 0 0 0
1259 1 -17.24951065412232 -60.304820058968005 -2.7858362890851716 0 0 0
1260 1 -17.24951065409714 -60.304820058767994 -0.2975362891520066 0 0 0
1263 1 -17.965711274163176 -58.2716033874742 -1.5416867025028798 0 0 0
1200 1 -12.944673885255975 -60.30482041235262 -0.29753619576790774 0 0 0
1202 1 -15.097092004804676 -60.30482150237097 -1.5416863013389193 0 0 0
1219 1 -12.944673885183306 -60.304820412221915 -2.7858361957900626 0 0 0
1221 1 -13.660873652550517 -58.27160516391016 -1.541686517703614 0 0 0
1261 1 -15.813292177228533 -58.27160575989616 -0.29753669153450896 0 0 0
1277 1 -15.813292177124332 -58.27160575984157 -2.7858366914920847 0 0 0
1131 1 -10.792256433800278 -60.30481698981779 -1.5416859853024236 0 0 0
1220 1 -11.50845587258821 -58.27160179049615 -2.785836198370513 0 0 0
1223 1 -11.508455872563987 -58.27160179038562 -0.29753619841527934 0 0 0
1043 1 -6.487423745730221 -60.30480493334014 -1.5416853542039675 0 0 0
1130 1 -8.63983971897978 -60.30481164142732 -2.78583569426368 0 0 0
1133 1 -8.639839718974619 -60.304811641351826 -0.2975356943030395 0 0 0
1134 1 -7.203622852251812 -58.27158858535374 -0.2975352890531437 0 0 0
1136 1 -9.356038931985468 -58.27159606483453 -1.541685772013524 0 0 0
1151 1 -7.203622852184386 -58.27158858531688 -2.785835289023333 0 0 0
1041 1 -4.335008452474434 -60.30479755656736 -0.2975350107498584 0 0 0
1060 1 -4.3350084524781085 -60.30479755654931 -2.7858350107198357 0 0 0
1062 1 -5.0512075871260125 -58.27158010318322 -1.5416848105810455 0 0 0
994 1 -2.182593706519888 -60.30479030775219 -1.5416847050385007 0 0 0
997 1 -0.7463789246166684 -58.27156372600331 -1.5416840919406842 0 0 0
1061 1 -2.8987930124216024 -58.271571496472646 -2.7858343946814443 0 0 0
1064 1 -2.898793012331806 -58.27157149640565 -0.29753439461843373 0 0 0
6550 1 -0.03017930993728375 -60.30478401952799 -2.7858344754531434 0 0 0
6551 1 -0.03017930992880826 -60.304784019460534 -0.29753447542652955 0 0 0
1279 1 -16.529492424511492 -56.23839042377524 -1.5416872250538127 0 0 0
1295 1 -18.681912051293605 -56.23838687045535 -0.2975372794279021 0 0 0
1300 1 -18.681912051241692 -56.23838687028538 -2.785837279396851 0 0 0
1278 1 -14.377073417856927 -56.238390508552 -2.7858369443897875 0 0 0
1281 1 -14.377073417802535 -56.23839050847855 -0.29753694434317013 0 0 0
1224 1 -10.072238004580518 -56.23838126159475 -0.2975358495856603 0 0 0
1226 1 -12.224655236638961 -56.23838730684998 -1.54168646674869 0 0 0
1237 1 -10.072238004508206 -56.238381261505616 -2.7858358495768742 0 0 0
1153 1 -7.919821765467997 -56.23837300661905 -1.541685166875269 0 0 0
1067 1 -3.614992061922844 -56.23835322912496 -1.5416839388036063 0 0 0
1152 1 -5.767406487454316 -56.23836334505407 -2.785834503123692 0 0 0
1155 1 -5.7674064874470785 -56.2383633449746 -0.29753450308850365 0 0 0
1065 1 -1.462578286830426 -56.2383437483947 -0.29753354083000905 0 0 0
1077 1 -1.4625782868386132 -56.23834374834987 -2.7858335408418986 0 0 0
917 1 -16.537126813586525 -68.43768781985858 3.4349145064894255 0 0 0
918 1 -16.537126813733575 -68.43768782008125 0.9466145066693668 0 0 0
934 1 -18.6895447008951 -68.43768566979456 2.1907645745584863 0 0 0
1167 1 -17.253327357343434 -66.40446984073884 2.190764422979699 0 0 0
916 1 -14.384709085186907 -68.43768866647656 2.1907644590815196 0 0 0
1084 1 -15.100909385758644 -66.40447121002902 3.4349143598129737 0 0 0
1089 1 -15.10090938559493 -66.40447120995901 0.9466143596463893 0 0 0
1091 1 -12.948491708852204 -66.40447097733929 2.1907643334583278 0 0 0
873 1 -12.232291631640633 -68.43768813656375 3.434914435732485 0 0 0
886 1 -12.232291631519638 -68.43768813648859 0.9466144356632469 0 0 0
888 1 -10.079874540507518 -68.43768631930698 2.1907644424265533 0 0 0
1004 1 -10.79607443382703 -66.40446920460367 3.434914348825083 0 0 0
1005 1 -10.796074433814399 -66.40446920470397 0.9466143489359938 0 0 0
808 1 -7.927457853576088 -68.43768343274004 3.434914478045039 0 0 0
809 1 -7.927457853673609 -68.43768343283607 0.9466144781159658 0 0 0
955 1 -6.491241286217693 -66.4044620536386 3.434914496995107 0 0 0
960 1 -6.491241286049108 -66.40446205352166 0.9466144968066417 0 0 0
1003 1 -8.643657621197912 -66.40446611407461 2.190764404246975 0 0 0
717 1 -3.622625659527727 -68.43767583674635 3.4349146198281706 0 0 0
730 1 -3.622625659475134 -68.4376758367796 0.9466146198694618 0 0 0
807 1 -5.775041573354805 -68.43767980290383 2.1907645406080767 0 0 0
962 1 -4.338825394884393 -66.40445747110167 2.190764608803354 0 0 0
732 1 -1.4702100314295325 -68.43767198119015 2.1907647043742515 0 0 0
938 1 -0.033994577633251685 -66.40444880475306 2.1907648470791936 0 0 0
939 1 -2.186409867245352 -66.40445287620858 3.4349147303464105 0 0 0
940 1 -2.1864098671627263 -66.40445287619472 0.9466147303435956 0 0 0
1171 1 -17.96952798943303 -64.37125192077235 3.434914295722919 0 0 0
1178 1 -17.96952798931798 -64.37125192065119 0.9466142954981724 0 0 0
1182 1 -16.533310149691417 -62.338036910747796 3.434914007829463 0 0 0
1183 1 -16.53331014977275 -62.33803691084203 0.9466140079595801 0 0 0
1248 1 -18.685728738810994 -62.33803403305822 2.1907641093340944 0 0 0
1093 1 -13.664691785801892 -64.3712541346338 3.4349141881762915 0 0 0
1094 1 -13.664691785896977 -64.37125413477466 0.9466141883173034 0 0 0
1180 1 -15.817109732936695 -64.3712539589756 2.1907642161798395 0 0 0
1181 1 -14.380891882334591 -62.3380376344143 2.1907639846473344 0 0 0
1092 1 -11.512274284151566 -64.37125248271505 2.1907642215659084 0 0 0
1098 1 -12.228474099374777 -62.33803620154166 3.434914045817187 0 0 0
1111 1 -12.228474099326718 -62.33803620147973 0.9466140456644707 0 0 0
1113 1 -10.076056912413835 -62.338032825015496 2.1907641816101293 0 0 0
1009 1 -9.359857308074734 -64.37124922354671 3.4349143086032803 0 0 0
1018 1 -9.35985730799459 -64.37124922337443 0.9466143085036569 0 0 0
1020 1 -7.2074408876346725 -64.37124472580707 2.1907644427693707 0 0 0
1022 1 -7.923640368351765 -62.338027894194255 3.434914378602396 0 0 0
1023 1 -7.9236403684521575 -62.33802789426821 0.9466143787958251 0 0 0
964 1 -5.05502499835877 -64.37123947658381 3.4349146035272433 0 0 0
965 1 -5.055024998352906 -64.37123947662097 0.94661460359858 0 0 0
969 1 -3.6188091022110855 -62.33801557586008 3.434914859566408 0 0 0
981 1 -3.6188091022066025 -62.33801557589526 0.9466148595022014 0 0 0
1021 1 -5.771224455517487 -62.33802193254367 2.190764612575625 0 0 0
943 1 -0.7501944550725702 -64.37122905880392 3.4349149413571856 0 0 0
947 1 -0.7501944550283476 -64.37122905885823 0.9466149413145807 0 0 0
963 1 -2.9026095646588415 -64.37123404784008 2.1907647791194904 0 0 0
983 1 -1.4663941751818712 -62.33800953097974 2.190765083107598 0 0 0
1249 1 -17.24951065412493 -60.304820058915794 2.190763710910911 0 0 0
1253 1 -17.96571127423612 -58.27160338750078 3.4349132974518555 0 0 0
1262 1 -17.96571127413659 -58.27160338744045 0.9466132973521243 0 0 0
1187 1 -15.097092004840338 -60.304821502388826 3.434913698699215 0 0 0
1201 1 -15.097092004766766 -60.304821502337546 0.9466136985861099 0 0 0
1203 1 -12.94467388509791 -60.3048204122462 2.1907638042250053 0 0 0
1205 1 -13.66087365260413 -58.27160516396807 3.434913482319604 0 0 0
1206 1 -13.660873652581095 -58.271605164025395 0.9466134823846392 0 0 0
1264 1 -15.81329217714412 -58.27160575976927 2.1907633085676035 0 0 0
1115 1 -10.792256433789031 -60.30481698983247 3.434914014718924 0 0 0
1116 1 -10.79225643376386 -60.30481698994769 0.9466140148731099 0 0 0
1204 1 -11.508455872628872 -58.27160179054553 2.1907638017408533 0 0 0
1027 1 -6.487423745710635 -60.304804933302464 3.4349146458240973 0 0 0
1042 1 -6.4874237456688375 -60.30480493339273 0.9466146457262467 0 0 0
1114 1 -8.639839719040097 -60.304811641457746 2.1907643057283246 0 0 0
1120 1 -9.356038932001134 -58.271596064849575 3.4349142280023934 0 0 0
1135 1 -9.356038931922265 -58.271596064894084 0.9466142278833839 0 0 0
1137 1 -7.203622852184773 -58.271588585298446 2.1907647110326556 0 0 0
1044 1 -4.335008452460196 -60.30479755650544 2.1907649892268695 0 0 0
1046 1 -5.051207587131154 -58.27158010317651 3.4349151894562424 0 0 0
1047 1 -5.051207587103748 -58.27158010315954 0.9466151895239334 0 0 0
984 1 -2.1825937064482317 -60.30479030779487 3.434915294938324 0 0 0
985 1 -2.1825937064263767 -60.304790307767966 0.9466152949363514 0 0 0
987 1 -0.7463789245897504 -58.27156372600373 3.4349159079615807 0 0 0
996 1 -0.7463789246414905 -58.27156372607178 0.946615907879382 0 0 0
1045 1 -2.898793012403179 -58.271571496450726 2.190765605364608 0 0 0
6544 1 -0.030179309890830504 -60.30478401952822 2.1907655245826856 0 0 0
1266 1 -16.52949242454915 -56.238390423718876 3.434912774953456 0 0 0
1267 1 -16.529492424564715 -56.238390423781425 0.9466127750124936 0 0 0
1296 1 -18.681912051246027 -56.238386870424826 2.1907627205858398 0 0 0
1265 1 -14.377073417834714 -56.23839050857358 2.1907630556025603 0 0 0
1210 1 -12.224655236642832 -56.238387306894026 3.434913533297176 0 0 0
1225 1 -12.224655236730493 -56.23838730690668 0.9466135332165153 0 0 0
1227 1 -10.072238004560946 -56.23838126155971 2.1907641504092874 0 0 0
1139 1 -7.919821765448636 -56.238373006624556 3.434914833156508 0 0 0
1140 1 -7.919821765422852 -56.238373006487826 0.9466148331986679 0 0 0
1051 1 -3.6149920618730693 -56.23835322910014 3.434916061210468 0 0 0
1066 1 -3.6149920619284788 -56.23835322920102 0.9466160611897073 0 0 0
1138 1 -5.7674064874915185 -56.238363345028844 2.190765496867757 0 0 0
1068 1 -1.4625782868851596 -56.238343748340014 2.190766459168438 0 0 0
907 1 -16.537126813729998 -68.43768782001824 5.9232145066906465 0 0 0
931 1 -18.68954470101873 -68.43768566994746 4.679064574739289 0 0 0
932 1 -18.68954470087752 -68.43768566980857 7.167364574519711 0 0 0
1166 1 -17.253327357349438 -66.40446984063406 7.167364423083466 0 0 0
1168 1 -17.253327357224197 -66.40446984059804 4.679064422798633 0 0 0
906 1 -14.38470908513339 -68.4376886665681 7.167364459089136 0 0 0
919 1 -14.384709085079267 -68.43768866641341 4.679064458970188 0 0 0
1082 1 -12.948491708897164 -66.40447097743049 4.679064333538228 0 0 0
1083 1 -15.100909385681508 -66.40447120997385 5.9232143596567255 0 0 0
1085 1 -12.94849170887413 -66.4044709774032 7.167364333444654 0 0 0
871 1 -10.079874540595165 -68.43768631941437 4.679064442539226 0 0 0
872 1 -12.232291631551124 -68.43768813639389 5.9232144356407055 0 0 0
874 1 -10.079874540482582 -68.43768631927983 7.167364442359072 0 0 0
1002 1 -10.796074433884394 -66.4044692047219 5.923214349004199 0 0 0
792 1 -7.92745785363299 -68.43768343279868 5.92321447806355 0 0 0
954 1 -6.4912412861101965 -66.40446205355803 5.923214496802371 0 0 0
1001 1 -8.643657621156796 -66.40446611404695 7.167364404155804 0 0 0
1006 1 -8.64365762108325 -66.40446611405653 4.679064404081732 0 0 0
716 1 -3.6226256595315 -68.43767583669982 5.9232146198526525 0 0 0
791 1 -5.775041573367562 -68.4376798028968 7.167364540559745 0 0 0
810 1 -5.775041573372309 -68.43767980284775 4.679064540510528 0 0 0
953 1 -4.338825394952248 -66.40445747114359 4.679064608833864 0 0 0
956 1 -4.338825394909812 -66.40445747111261 7.167364608778588 0 0 0
715 1 -1.470210031350344 -68.43767198121029 4.679064704396683 0 0 0
718 1 -1.470210031358558 -68.43767198114674 7.167364704316225 0 0 0
937 1 -2.1864098672379937 -66.4044528762059 5.9232147304217335 0 0 0
941 1 -0.03399457758801419 -66.4044488048473 4.6790648471263525 0 0 0
6475 1 -0.03399457763838607 -66.40444880482958 7.167364847115515 0 0 0
1170 1 -17.969527989349295 -64.37125192055478 5.923214295620157 0 0 0
1174 1 -16.53331014978063 -62.338036910855486 5.923214008044086 0 0 0
1244 1 -18.68572873894061 -62.33803403315391 4.679064109405945 0 0 0
1245 1 -18.685728738859257 -62.33803403300476 7.16736410929952 0 0 0
1087 1 -13.66469178589584 -64.37125413474944 5.923214188427393 0 0 0
1169 1 -15.81710973296118 -64.37125395908367 4.679064216341211 0 0 0
1172 1 -15.817109732957013 -64.37125395895706 7.167364216109244 0 0 0
1173 1 -14.380891882335455 -62.33803763448267 7.167363984654188 0 0 0
1184 1 -14.38089188220666 -62.33803763430836 4.679063984529358 0 0 0
1086 1 -11.512274284114095 -64.37125248268084 7.167364221590375 0 0 0
1095 1 -11.512274284031676 -64.37125248261292 4.679064221466733 0 0 0
1096 1 -10.076056912471818 -62.33803282508367 4.679064181785022 0 0 0
1097 1 -12.228474099314397 -62.33803620151924 5.923214045771313 0 0 0
1099 1 -10.076056912390397 -62.338032824966966 7.167364181700531 0 0 0
1007 1 -7.207440887678792 -64.37124472593409 4.679064442792965 0 0 0
1008 1 -9.359857308013865 -64.37124922348411 5.9232143085734466 0 0 0
1010 1 -7.207440887685134 -64.37124472583615 7.1673644427679895 0 0 0
1012 1 -7.923640368442563 -62.33802789427469 5.9232143788735705 0 0 0
958 1 -5.055024998336855 -64.37123947659131 5.923214603604605 0 0 0
968 1 -3.618809102215222 -62.33801557590143 5.923214859533185 0 0 0
1011 1 -5.7712244555777605 -62.33802193252254 7.167364612561363 0 0 0
1024 1 -5.771224455450969 -62.338021932425924 4.6790646125318665 0 0 0
942 1 -0.7501944551142388 -64.37122905885307 5.9232149413070285 0 0 0
957 1 -2.9026095646839147 -64.37123404784867 7.167364779070642 0 0 0
966 1 -2.902609564594479 -64.37123404779311 4.679064779079598 0 0 0
967 1 -1.4663941752384886 -62.33800953101701 4.679065083116886 0 0 0
970 1 -1.4663941750744478 -62.33800953097345 7.1673650830768265 0 0 0
1246 1 -17.249510654191106 -60.304820058875464 7.167363710908285 0 0 0
1250 1 -17.249510654023084 -60.304820058864465 4.67906371082303 0 0 0
1252 1 -17.96571127417656 -58.27160338747516 5.923213297391576 0 0 0
1185 1 -12.94467388524659 -60.30482041233935 4.679063804297383 0 0 0
1186 1 -15.097092004778812 -60.30482150232674 5.923213698533036 0 0 0
1188 1 -12.944673885176021 -60.3048204122352 7.167363804192726 0 0 0
1190 1 -13.660873652572407 -58.27160516394041 5.923213482409372 0 0 0
1251 1 -15.813292177219031 -58.27160575992526 4.679063308554116 0 0 0
1254 1 -15.813292177184666 -58.271605759801695 7.167363308423429 0 0 0
1101 1 -10.79225643381006 -60.304816989884664 5.923214014839864 0 0 0
1189 1 -11.508455872628348 -58.271601790483345 7.167363801596122 0 0 0
1207 1 -11.508455872499145 -58.271601790440656 4.6790638016113 0 0 0
1026 1 -6.487423745725085 -60.304804933312575 5.923214645666099 0 0 0
1100 1 -8.639839719039088 -60.30481164145601 7.1673643057445 0 0 0
1117 1 -8.639839718933024 -60.304811641308156 4.679064305719049 0 0 0
1118 1 -7.203622852301642 -58.27158858537136 4.679064710954711 0 0 0
1119 1 -9.356038931990245 -58.271596064839656 5.923214227881188 0 0 0
1121 1 -7.2036228522048615 -58.27158858528414 7.167364710963589 0 0 0
1025 1 -4.335008452467467 -60.30479755663471 4.679064989273268 0 0 0
1028 1 -4.335008452422638 -60.304797556501065 7.167364989232666 0 0 0
1030 1 -5.051207587109728 -58.27158010317586 5.923215189512324 0 0 0
971 1 -2.182593706477939 -60.30479030773747 5.923215294995825 0 0 0
986 1 -0.7463789246282624 -58.27156372600728 5.923215907980671 0 0 0
1029 1 -2.8987930123771632 -58.271571496447606 7.167365605355272 0 0 0
1048 1 -2.898793012345919 -58.27157149643194 4.679065605339268 0 0 0
6543 1 -0.030179309918475047 -60.30478401947089 7.167365524556587 0 0 0
6545 1 -0.030179309908471307 -60.3047840194724 4.67906552458435 0 0 0
1256 1 -16.529492424518843 -56.23839042375345 5.923212775063943 0 0 0
1292 1 -18.681912051295647 -56.23838687040744 4.6790627205778454 0 0 0
1293 1 -18.681912051237152 -56.23838687040041 7.167362720555227 0 0 0
1255 1 -14.37707341786397 -56.23839050857813 7.16736305558132 0 0 0
1268 1 -14.377073417821862 -56.238390508479306 4.679063055649728 0 0 0
1208 1 -10.072238004553528 -56.23838126162459 4.679064150392446 0 0 0
1209 1 -12.224655236666782 -56.23838730689347 5.923213533139706 0 0 0
1211 1 -10.072238004534322 -56.23838126150694 7.167364150474942 0 0 0
1123 1 -7.919821765446614 -56.238373006593626 5.923214833214225 0 0 0
1050 1 -3.6149920619532963 -56.23835322916336 5.923216061150443 0 0 0
1122 1 -5.767406487485607 -56.23836334504041 7.167365496852948 0 0 0
1141 1 -5.767406487432937 -56.23836334500746 4.679065496913269 0 0 0
1049 1 -1.4625782868813444 -56.238343748394655 4.6790664591076485 0 0 0
1052 1 -1.4625782868304462 -56.23834374833558 7.167366459252935 0 0 0
1303 1 -17.245692778012916 -54.2051755098607 -5.274137953943013 0 0 0
1505 1 -17.961893274408673 -52.17196102984102 -4.029988948412752 0 0 0
1506 1 -17.961893274331022 -52.17196102970714 -6.518288948308636 0 0 0
1288 1 -12.940854530615292 -54.20517362032035 -5.274136797021498 0 0 0
1289 1 -15.093273194731642 -54.20517650230386 -4.029987506564122 0 0 0
1290 1 -15.093273194648837 -54.20517650221046 -6.51828750651941 0 0 0
1426 1 -13.657053762842438 -52.171960820252394 -4.029987196258097 0 0 0
1442 1 -13.657053762908586 -52.17196082037814 -6.518287196212084 0 0 0
1504 1 -15.809473006511197 -52.171963203226454 -5.274138246854794 0 0 0
1240 1 -10.788436934165986 -54.205167338002305 -4.029985906597505 0 0 0
1242 1 -10.788436934167615 -54.20516733810606 -6.518285906699351 0 0 0
1443 1 -11.504635716757816 -52.171954405288375 -5.274135916936071 0 0 0
1163 1 -6.483605127224732 -54.205147427365915 -4.029984029847532 0 0 0
1164 1 -6.483605127203949 -54.205147427276884 -6.518284029697485 0 0 0
1243 1 -8.636020469506791 -54.20515832531905 -5.274134944105948 0 0 0
1366 1 -7.199803479311554 -52.171932507877756 -5.274133304942167 0 0 0
1367 1 -9.352218950521719 -52.17194467726475 -4.029984565062751 0 0 0
1368 1 -9.352218950434732 -52.17194467716739 -6.518284565063536 0 0 0
1162 1 -4.331190819247769 -54.20513566053403 -5.2741332682688356 0 0 0
1323 1 -5.047389239505218 -52.17191896891971 -4.029982285139227 0 0 0
1333 1 -5.047389239547621 -52.171918968967454 -6.51828228509084 0 0 0
1079 1 -2.1787773522354525 -54.20512423127618 -4.029982754036083 0 0 0
1080 1 -2.1787773522627316 -54.205124231282 -6.5182827540489745 0 0 0
1081 1 -0.026364417624191092 -54.20511447427818 -5.274132551847811 0 0 0
1308 1 -0.7425636406189534 -52.171893187250106 -4.029981422996221 0 0 0
1309 1 -0.7425636405811906 -52.171893187207054 -6.518281422966598 0 0 0
1334 1 -2.89497606209641 -52.17190535627669 -5.27413162989214 0 0 0
1510 1 -16.525672881261425 -50.13875067453177 -4.029989217255025 0 0 0
1526 1 -16.525672881337012 -50.13875067455814 -6.518289217298151 0 0 0
1569 1 -18.678093957525142 -50.13874698960224 -5.2741403024105376 0 0 0
1585 1 -17.241872845762604 -48.105538986748016 -5.274140478893171 0 0 0
1527 1 -14.373252946507517 -50.13874900010325 -5.274137668754595 0 0 0
1528 1 -12.937032849694067 -48.10553198831763 -5.274135593406056 0 0 0
1529 1 -15.089452093340084 -48.10553826782332 -4.029988208734692 0 0 0
1530 1 -15.08945209321598 -48.105538267724654 -6.518288208702119 0 0 0
1444 1 -10.06841719974651 -50.13873220072028 -5.274133941383016 0 0 0
1445 1 -12.220834353483427 -50.13874258075507 -4.029985837792084 0 0 0
1446 1 -12.220834353414778 -50.13874258071755 -6.518285837823628 0 0 0
1450 1 -10.784615211700446 -48.105521046550066 -4.029982941201353 0 0 0
1464 1 -10.784615211729514 -48.10552104674281 -6.518282941202484 0 0 0
1372 1 -7.91600152025901 -50.13871876254108 -4.029982209241607 0 0 0
1387 1 -7.916001520289854 -50.13871876263418 -6.518282209292645 0 0 0
1390 1 -6.479784916372435 -48.10548903108921 -4.029978777118715 0 0 0
1391 1 -6.479784916260478 -48.10548903101782 -6.518278777123457 0 0 0
1465 1 -8.632199232190667 -48.10550636869099 -5.274130573909996 0 0 0
1336 1 -3.611174356528016 -50.13868733634775 -4.029980030352824 0 0 0
1337 1 -3.611174356481571 -50.13868733622879 -6.518280030405502 0 0 0
1388 1 -5.7635872845923615 -50.13870335187821 -5.274130852112369 0 0 0
1389 1 -4.327372178094058 -48.105470423491916 -5.274127764738589 0 0 0
1335 1 -1.4587624544282856 -50.138672390429846 -5.274129849785668 0 0 0
1340 1 -2.174960776456638 -48.10545233635676 -4.029977663325849 0 0 0
1343 1 -2.174960776418229 -48.105452336439164 -6.518277663224861 0 0 0
6895 1 -0.022550255287025384 -48.10543695094689 -5.274128486570816 0 0 0
1587 1 -17.958072935664276 -46.07232823126598 -4.029992095582667 0 0 0
1588 1 -17.958072935570964 -46.07232823105554 -6.518292095447419 0 0 0
1534 1 -13.653231206691197 -46.072322758010635 -4.029985066578246 0 0 0
1544 1 -13.653231206851965 -46.072322758107745 -6.518285066648132 0 0 0
1586 1 -15.805651217106455 -46.07232874171588 -5.274138786646919 0 0 0
1545 1 -11.50081298297868 -46.072311358395254 -5.274131374112527 0 0 0
1466 1 -7.195982105913116 -46.07227623864055 -5.2741257872973275 0 0 0
1467 1 -9.348396600843484 -46.07229551120582 -4.029978151594362 0 0 0
1468 1 -9.34839660082351 -46.07229551107208 -6.518278151538456 0 0 0
1395 1 -5.043569470188589 -46.07225489825762 -4.029974564975891 0 0 0
1403 1 -5.043569470258572 -46.072254898371774 -6.518274564949254 0 0 0
1344 1 -0.7387488454189468 -46.07221396554591 -4.029975998079366 0 0 0
1345 1 -0.7387488454372383 -46.072213965521875 -6.518275998128553 0 0 0
1404 1 -2.8911585213877857 -46.072233335707736 -5.274124635187916 0 0 0
1592 1 -16.521850324206564 -44.03912057042448 -4.0299893435111 0 0 0
1598 1 -16.521850324307096 -44.03912057049692 -6.518289343605821 0 0 0
1611 1 -18.674273186864244 -44.03911852288872 -5.274144135140417 0 0 0
1615 1 -17.23804941393755 -42.00591394555585 -5.274139762085611 0 0 0
1599 1 -14.369429422824776 -44.03911502575803 -5.274134077085062 0 0 0
1600 1 -12.933207775529437 -42.00589695087639 -5.274125266801315 0 0 0
1601 1 -15.085627486608553 -42.00590895046672 -4.029982339198912 0 0 0
1602 1 -15.085627486468573 -42.00590895038229 -6.518282339223866 0 0 0
1546 1 -10.064593611915202 -44.039086368001335 -5.274124590601523 0 0 0
1547 1 -12.217010507697033 -44.039103281342946 -4.02997895769421 0 0 0
1548 1 -12.217010507580316 -44.03910328117919 -6.518278957725015 0 0 0
1552 1 -10.780790250035256 -42.005879106868996 -4.0299693767899285 0 0 0
1554 1 -10.780790250095082 -42.00587910700918 -6.518269376789664 0 0 0
1472 1 -7.9121788198043825 -44.03906521424169 -4.029971500934865 0 0 0
1478 1 -7.912178819821425 -44.03906521437549 -6.518271500913507 0 0 0
1481 1 -6.475962239854562 -42.005829264801555 -4.0299637558657775 0 0 0
1482 1 -6.475962239685983 -42.005829264715096 -6.518263755993384 0 0 0
1555 1 -8.628375030509131 -42.00585619043115 -5.274115375535299 0 0 0
1406 1 -3.6073555954369096 -44.03901575773785 -4.029970461420143 0 0 0
1407 1 -3.607355595395316 -44.03901575770041 -6.518270461561113 0 0 0
1479 1 -5.759766177843822 -44.039041070225295 -5.274120064955228 0 0 0
1480 1 -4.3235518996247 -42.00580002003175 -5.274114729354412 0 0 0
1405 1 -1.4549467532634115 -44.0389918282911 -5.274122657784197 0 0 0
1410 1 -2.171143822324327 -42.00577101419486 -4.029968204877071 0 0 0
1411 1 -2.17114382233773 -42.00577101429165 -6.518268204872963 0 0 0
6917 1 -0.018737408993548324 -42.00574591458829 -5.274123777144923 0 0 0
1301 1 -17.245692778043168 -54.205175509917545 -2.7858379540267633 0 0 0
1302 1 -17.24569277802893 -54.20517550986349 -0.29753795400526395 0 0 0
1492 1 -17.96189327437969 -52.171961029732216 -1.541688948273715 0 0 0
1282 1 -12.940854530637763 -54.20517362025833 -0.2975367969589578 0 0 0
1284 1 -15.093273194659655 -54.20517650222201 -1.541687506501955 0 0 0
1291 1 -12.940854530530881 -54.20517362026756 -2.7858367968845 0 0 0
1425 1 -13.657053762910786 -52.17196082035761 -1.54168719622821 0 0 0
1490 1 -15.809473006501669 -52.17196320322311 -0.29753824689708297 0 0 0
1507 1 -15.809473006538406 -52.171963203183694 -2.785838246785577 0 0 0
1239 1 -10.78843693419898 -54.205167338086554 -1.5416859066722033 0 0 0
1424 1 -11.504635716769732 -52.17195440532388 -2.7858359170488587 0 0 0
1427 1 -11.504635716756697 -52.17195440526812 -0.29753591698176257 0 0 0
1158 1 -6.483605127208436 -54.205147427351264 -1.541684029710054 0 0 0
1238 1 -8.636020469490884 -54.205158325415034 -2.785834944130868 0 0 0
1241 1 -8.636020469529168 -54.205158325365986 -0.2975349441280759 0 0 0
1352 1 -7.19980347925715 -52.17193250785761 -0.2975333049497418 0 0 0
1354 1 -9.35221895047384 -52.171944677179695 -1.5416845649399338 0 0 0
1369 1 -7.199803479280557 -52.17193250781417 -2.7858333048294144 0 0 0
1156 1 -4.331190819261305 -54.20513566053401 -0.29753326817346576 0 0 0
1165 1 -4.331190819207421 -54.205135660479826 -2.78583326815624 0 0 0
1322 1 -5.047389239526639 -52.171918968955666 -1.5416822850949548 0 0 0
1078 1 -2.1787773523024443 -54.205124231257244 -1.5416827540822748 0 0 0
1307 1 -0.7425636405839813 -52.171893187191195 -1.5416814230156928 0 0 0
1321 1 -2.8949760620836082 -52.1719053563157 -2.7858316300444925 0 0 0
1324 1 -2.894976062045624 -52.17190535622757 -0.29753163004358063 0 0 0
6580 1 -0.02636441758115596 -54.20511447426419 -2.7858325519403895 0 0 0
6581 1 -0.02636441762241447 -54.205114474269934 -0.29753255181879357 0 0 0
1509 1 -16.525672881340114 -50.13875067465063 -1.5416892173228147 0 0 0
1559 1 -18.678093957507006 -50.13874698962591 -0.2975403022988513 0 0 0
1570 1 -18.678093957500987 -50.13874698959039 -2.7858403022663265 0 0 0
1571 1 -17.241872845726306 -48.1055389868243 -2.785840479128139 0 0 0
1572 1 -17.241872845697948 -48.10553898671559 -0.29754047889255403 0 0 0
1508 1 -14.373252946481134 -50.13874900009811 -2.7858376689242124 0 0 0
1511 1 -14.373252946484554 -50.13874900009085 -0.29753766873056164 0 0 0
1512 1 -12.937032849736504 -48.1055319883435 -0.2975355933546074 0 0 0
1514 1 -15.089452093238915 -48.10553826768035 -1.5416882086675587 0 0 0
1531 1 -12.937032849644465 -48.10553198831672 -2.7858355931492547 0 0 0
1428 1 -10.068417199774906 -50.13873220074039 -0.2975339413528602 0 0 0
1430 1 -12.220834353449362 -50.13874258066794 -1.5416858377692155 0 0 0
1447 1 -10.06841719970957 -50.138732200699465 -2.785833941227687 0 0 0
1449 1 -10.784615211820732 -48.10552104669824 -1.5416829412375248 0 0 0
1371 1 -7.916001520292676 -50.138718762612214 -1.5416822092906972 0 0 0
1376 1 -6.479784916349964 -48.105489030957514 -1.5416787771479856 0 0 0
1448 1 -8.63219923212104 -48.105506368724484 -2.7858305740125164 0 0 0
1451 1 -8.63219923223613 -48.10550636865883 -0.2975305738506709 0 0 0
1327 1 -3.611174356512209 -50.138687336287695 -1.5416800304237523 0 0 0
1370 1 -5.763587284581333 -50.13870335185524 -2.7858308521718778 0 0 0
1373 1 -5.763587284526063 -50.1387033518729 -0.2975308520660832 0 0 0
1374 1 -4.327372178136626 -48.105470423505324 -0.2975277647665953 0 0 0
1392 1 -4.327372178098226 -48.10547042356775 -2.78582776465684 0 0 0
1325 1 -1.4587624544684321 -50.13867239042091 -0.2975298496811502 0 0 0
1338 1 -1.4587624544176159 -50.13867239047436 -2.7858298496245273 0 0 0
1339 1 -2.1749607764790126 -48.1054523364318 -1.5416776632826719 0 0 0
6883 1 -0.022550255206041703 -48.10543695103499 -2.7858284866183967 0 0 0
6884 1 -0.0225502553034854 -48.10543695102649 -0.29752848657869807 0 0 0
1575 1 -17.958072935525472 -46.072328231082864 -1.541692095472969 0 0 0
1533 1 -13.653231206870172 -46.072322758142235 -1.5416850665214983 0 0 0
1573 1 -15.805651217016012 -46.07232874171272 -0.2975387866412058 0 0 0
1589 1 -15.805651217015846 -46.07232874172466 -2.785838786407485 0 0 0
1532 1 -11.50081298309117 -46.07231135835789 -2.7858313743751437 0 0 0
1535 1 -11.500812983078509 -46.07231135842483 -0.2975313741857852 0 0 0
1452 1 -7.195982105934711 -46.072276238697945 -0.29752578732573876 0 0 0
1454 1 -9.348396600810712 -46.07229551103172 -1.5416781515309026 0 0 0
1469 1 -7.1959821059611775 -46.07227623864707 -2.7858257871142595 0 0 0
1394 1 -5.043569470272877 -46.072254898358246 -1.5416745648870958 0 0 0
1342 1 -0.73874884540846 -46.072213965478554 -1.541675998166641 0 0 0
1393 1 -2.8911585213604507 -46.07223333565361 -2.785824635343207 0 0 0
1396 1 -2.8911585214027933 -46.07223333568507 -0.2975246352861151 0 0 0
1591 1 -16.521850324323776 -44.039120570534436 -1.5416893435752062 0 0 0
1607 1 -18.67427318689062 -44.039118522900004 -0.29754413505200655 0 0 0
1612 1 -18.674273186850463 -44.03911852288773 -2.7858441349282668 0 0 0
1613 1 -17.238049413913576 -42.00591394554555 -2.78583976231773 0 0 0
1614 1 -17.238049413955554 -42.00591394552737 -0.2975397621225859 0 0 0
1590 1 -14.369429422855248 -44.03911502587184 -2.785834077268897 0 0 0
1593 1 -14.36942942285744 -44.03911502584113 -0.29753407703146234 0 0 0
1594 1 -12.933207775528045 -42.00589695091254 -0.2975252668223744 0 0 0
1596 1 -15.085627486519233 -42.00590895030364 -1.5416823391245815 0 0 0
1603 1 -12.933207775488123 -42.00589695091931 -2.7858252666532763 0 0 0
1536 1 -10.06459361196265 -44.039086367981426 -0.2975245905019415 0 0 0
1538 1 -12.21701050756178 -44.039103281205286 -1.5416789577673837 0 0 0
1549 1 -10.064593611937397 -44.039086368016044 -2.785824590422295 0 0 0
1551 1 -10.78079025013821 -42.005879107024604 -1.541669376715046 0 0 0
1471 1 -7.912178819823802 -44.03906521433848 -1.5416715009488153 0 0 0
1476 1 -6.475962239737781 -42.00582926472681 -1.541663755948518 0 0 0
1550 1 -8.628375030471583 -42.00585619041684 -2.7858153756814907 0 0 0
1553 1 -8.628375030523644 -42.00585619041394 -0.2975153755609882 0 0 0
1399 1 -3.607355595421236 -44.03901575765052 -1.541670461654098 0 0 0
1470 1 -5.759766177799659 -44.039041070194614 -2.7858200650453946 0 0 0
1473 1 -5.759766177866409 -44.03904107020487 -0.2975200649135305 0 0 0
1474 1 -4.3235518996362625 -42.0058000200017 -0.29751472933694445 0 0 0
1483 1 -4.323551899609476 -42.00580002011967 -2.785814729305354 0 0 0
1397 1 -1.4549467532447025 -44.0389918282922 -0.29752265779839016 0 0 0
1408 1 -1.454946753325613 -44.038991828320015 -2.785822657791317 0 0 0
1409 1 -2.1711438223383497 -42.00577101423818 -1.5416682048656474 0 0 0
6915 1 -0.018737408943632176 -42.005745914480165 -2.7858237771000764 0 0 0
6916 1 -0.018737408993331695 -42.00574591455739 -0.29752377711346306 0 0 0
1297 1 -17.245692778085385 -54.2051755099279 2.1907620460088895 0 0 0
1486 1 -17.961893274383986 -52.17196102977074 3.4349110516761336 0 0 0
1491 1 -17.961893274394754 -52.17196102979545 0.9466110516577592 0 0 0
1271 1 -15.093273194706292 -54.205176502257665 3.434912493555618 0 0 0
1283 1 -15.09327319469773 -54.205176502263946 0.9466124934300343 0 0 0
1285 1 -12.940854530565442 -54.20517362025441 2.1907632030788844 0 0 0
1415 1 -13.657053762902578 -52.171960820352346 3.4349128036910614 0 0 0
1416 1 -13.657053762833433 -52.17196082029465 0.9466128038387226 0 0 0
1493 1 -15.809473006472508 -52.17196320317685 2.190761753261999 0 0 0
1229 1 -10.788436934194129 -54.20516733806541 3.434914093307694 0 0 0
1230 1 -10.788436934118959 -54.20516733803857 0.9466140934017401 0 0 0
1414 1 -11.504635716779967 -52.171954405355685 2.190764082942085 0 0 0
1144 1 -6.483605127177946 -54.20514742732659 3.4349159702429928 0 0 0
1157 1 -6.483605127254462 -54.20514742734463 0.9466159702167174 0 0 0
1228 1 -8.636020469547303 -54.20515832539218 2.190765055824524 0 0 0
1348 1 -9.352218950449473 -52.17194467717308 3.434915434986319 0 0 0
1353 1 -9.352218950496491 -52.17194467725035 0.9466154349066007 0 0 0
1355 1 -7.199803479299542 -52.17193250782741 2.190766695166835 0 0 0
1159 1 -4.331190819219911 -54.20513566052235 2.1907667318285906 0 0 0
1313 1 -5.047389239537462 -52.1719189690126 3.43491771484256 0 0 0
1314 1 -5.047389239500001 -52.1719189688903 0.946617714901683 0 0 0
1069 1 -2.1787773522693024 -54.20512423132265 3.4349172458879536 0 0 0
1070 1 -2.178777352243944 -54.20512423122789 0.9466172459623701 0 0 0
1305 1 -0.7425636405803098 -52.17189318719434 3.4349185769564854 0 0 0
1306 1 -0.7425636406055668 -52.17189318725034 0.9466185770108143 0 0 0
1312 1 -2.8949760620737477 -52.17190535629493 2.190768369993888 0 0 0
6579 1 -0.026364417648962513 -54.205114474271376 2.1907674480854054 0 0 0
1495 1 -16.525672881355533 -50.13875067465032 3.4349107826784087 0 0 0
1496 1 -16.525672881233294 -50.13875067444959 0.9466107827802385 0 0 0
1560 1 -18.678093957504526 -50.1387469895756 2.190759697739559 0 0 0
1561 1 -17.241872845784382 -48.105538986788055 2.190759520901434 0 0 0
1494 1 -14.373252946528124 -50.1387490001317 2.190762331107217 0 0 0
1500 1 -15.089452093251554 -48.10553826767068 3.4349117913055514 0 0 0
1513 1 -15.089452093321563 -48.105538267848246 0.946611791273067 0 0 0
1515 1 -12.93703284968841 -48.1055319882906 2.1907644067723027 0 0 0
1420 1 -12.220834353387668 -50.13874258065752 3.434914162275921 0 0 0
1429 1 -12.22083435349095 -50.13874258083292 0.9466141621389259 0 0 0
1431 1 -10.068417199705328 -50.1387322006981 2.1907660587847086 0 0 0
1433 1 -10.784615211762187 -48.10552104668708 3.4349170588068247 0 0 0
1434 1 -10.784615211635533 -48.10552104664006 0.9466170588006244 0 0 0
1357 1 -7.916001520333741 -50.13871876260788 3.434917790752178 0 0 0
1358 1 -7.916001520225742 -50.13871876251718 0.9466177907965923 0 0 0
1362 1 -6.479784916288291 -48.10548903099377 3.4349212228572576 0 0 0
1375 1 -6.479784916325554 -48.10548903109753 0.9466212228729711 0 0 0
1432 1 -8.632199232161431 -48.10550636866501 2.190769425971509 0 0 0
1318 1 -3.6111743564620595 -50.13868733626713 3.434919969653862 0 0 0
1326 1 -3.6111743565354173 -50.13868733628332 0.9466199695611727 0 0 0
1356 1 -5.763587284620052 -50.13870335186017 2.190769147784489 0 0 0
1377 1 -4.327372178141636 -48.10547042348466 2.190772235353677 0 0 0
1328 1 -1.4587624543894415 -50.13867239043752 2.1907701502865464 0 0 0
1329 1 -2.174960776496616 -48.10545233639731 3.434922336757299 0 0 0
1330 1 -2.1749607763745624 -48.10545233636822 0.946622336687311 0 0 0
6877 1 -0.022550255227916493 -48.1054369509004 2.190771513378123 0 0 0
1565 1 -17.95807293557611 -46.07232823112236 3.4349079045036954 0 0 0
1574 1 -17.958072935705378 -46.07232823119602 0.946607904485626 0 0 0
1517 1 -13.653231206808034 -46.0723227581485 3.4349149333938813 0 0 0
1518 1 -13.653231206750673 -46.072322757961054 0.9466149333987769 0 0 0
1576 1 -15.805651217112189 -46.07232874167503 2.190761213551796 0 0 0
1516 1 -11.500812982976582 -46.07231135842726 2.1907686256971743 0 0 0
1438 1 -9.348396600767733 -46.0722955110645 3.4349218484229826 0 0 0
1453 1 -9.348396600912327 -46.072295511206285 0.9466218484348949 0 0 0
1455 1 -7.195982105897696 -46.07227623866642 2.1907742128769785 0 0 0
1379 1 -5.043569470235389 -46.072254898332346 3.4349254350638647 0 0 0
1380 1 -5.043569470170984 -46.07225489827996 0.9466254350694168 0 0 0
1332 1 -0.7387488454373797 -46.07221396548633 3.4349240018859946 0 0 0
1341 1 -0.7387488454594777 -46.07221396555098 0.9466240019193856 0 0 0
1378 1 -2.891158521366241 -46.072233335634785 2.19077536472451 0 0 0
1578 1 -16.521850324330316 -44.03912057056398 3.4349106564792695 0 0 0
1579 1 -16.521850324204966 -44.03912057032941 0.9466106564411411 0 0 0
1608 1 -18.674273186861587 -44.03911852281991 2.1907558650575765 0 0 0
1609 1 -17.23804941397661 -42.00591394558438 2.1907602377164195 0 0 0
1577 1 -14.369429422825885 -44.03911502578633 2.1907659227606935 0 0 0
1583 1 -15.085627486495689 -42.00590895031728 3.434917660850871 0 0 0
1595 1 -15.085627486570239 -42.005908950520535 0.9466176607622784 0 0 0
1597 1 -12.933207775508485 -42.0058969508861 2.190774733407339 0 0 0
1522 1 -12.217010507575848 -44.03910328121477 3.4349210423077077 0 0 0
1537 1 -12.217010507685014 -44.03910328131753 0.9466210423042754 0 0 0
1539 1 -10.06459361195433 -44.03908636802501 2.190775409556736 0 0 0
1541 1 -10.780790250110767 -42.00587910697988 3.434930623211209 0 0 0
1542 1 -10.780790249999857 -42.00587910688442 0.9466306232232117 0 0 0
1457 1 -7.912178819902138 -44.03906521434867 3.4349284991444797 0 0 0
1458 1 -7.912178819754549 -44.03906521426819 0.9466284990331025 0 0 0
1462 1 -6.475962239818908 -42.00582926473704 3.4349362440945246 0 0 0
1475 1 -6.475962239752813 -42.005829264806145 0.9466362440344798 0 0 0
1540 1 -8.628375030509368 -42.005856190383355 2.190784624329588 0 0 0
1384 1 -3.607355595402891 -44.039015757692226 3.434929538451321 0 0 0
1398 1 -3.607355595420639 -44.03901575775112 0.9466295385094741 0 0 0
1456 1 -5.759766177790292 -44.03904107020406 2.1907799349633623 0 0 0
1477 1 -4.323551899677454 -42.00580002011831 2.1907852707396427 0 0 0
1400 1 -1.4549467533279945 -44.038991828341516 2.1907773422445733 0 0 0
1401 1 -2.1711438223519846 -42.00577101423948 3.434931795188965 0 0 0
1402 1 -2.171143822306879 -42.005771014262635 0.9466317950636763 0 0 0
6913 1 -0.018737408925090047 -42.00574591447476 2.1907762228635197 0 0 0
1294 1 -17.245692778093623 -54.20517550993748 7.167362045925062 0 0 0
1298 1 -17.245692778007637 -54.20517550987885 4.679062046050508 0 0 0
1485 1 -17.961893274477227 -52.17196102984675 5.923211051673426 0 0 0
1269 1 -12.940854530586277 -54.20517362033875 4.679063203036943 0 0 0
1270 1 -15.093273194704729 -54.20517650228774 5.9232124933785215 0 0 0
1272 1 -12.940854530579335 -54.20517362019223 7.167363203100679 0 0 0
1413 1 -13.657053762856892 -52.17196082026382 5.923212803834535 0 0 0
1484 1 -15.809473006598811 -52.171963203251565 4.679061753103769 0 0 0
1487 1 -15.809473006476736 -52.17196320316227 7.167361753219567 0 0 0
1213 1 -10.788436934135772 -54.20516733802252 5.923214093424057 0 0 0
1412 1 -11.504635716788638 -52.1719544053299 7.1673640829173895 0 0 0
1417 1 -11.504635716741248 -52.171954405272835 4.679064083084914 0 0 0
1143 1 -6.483605127238483 -54.205147427422446 5.9232159701818405 0 0 0
1212 1 -8.636020469556621 -54.20515832541679 7.1673650557938 0 0 0
1231 1 -8.636020469428097 -54.205158325385774 4.679065055936826 0 0 0
1346 1 -7.199803479274197 -52.17193250786202 4.679066695038562 0 0 0
1347 1 -9.352218950522657 -52.17194467726169 5.923215435009947 0 0 0
1349 1 -7.199803479235607 -52.17193250782186 7.167366695133322 0 0 0
1142 1 -4.331190819228707 -54.20513566053066 4.67906673176872 0 0 0
1145 1 -4.331190819207669 -54.20513566052026 7.1673667318767285 0 0 0
1311 1 -5.04738923946198 -52.17191896890308 5.9232177149009 0 0 0
1053 1 -0.026364417638600115 -54.20511447426618 7.167367448113333 0 0 0
1054 1 -2.178777352246255 -54.20512423120209 5.923217245991276 0 0 0
1071 1 -0.02636441757591578 -54.205114474262615 4.6790674481130194 0 0 0
1304 1 -0.7425636406138285 -52.17189318723338 5.923218577003296 0 0 0
1310 1 -2.894976062038269 -52.171905356279495 7.167368369903031 0 0 0
1315 1 -2.894976062082354 -52.171905356299646 4.679068370020226 0 0 0
1489 1 -16.525672881300842 -50.13875067451974 5.92321078272762 0 0 0
1556 1 -18.678093957548473 -50.13874698966504 4.679059697571797 0 0 0
1557 1 -18.678093957492944 -50.138746989577776 7.167359697845256 0 0 0
1558 1 -17.24187284572615 -48.10553898675588 7.167359520974843 0 0 0
1562 1 -17.241872845707636 -48.10553898676801 4.679059521064185 0 0 0
1488 1 -14.37325294653798 -50.13874900011713 7.167362331103255 0 0 0
1497 1 -14.373252946458656 -50.13874900007018 4.679062331234117 0 0 0
1498 1 -12.937032849646618 -48.10553198835143 4.679064406671835 0 0 0
1499 1 -15.089452093352502 -48.10553826781373 5.923211791278224 0 0 0
1501 1 -12.937032849736909 -48.105531988314254 7.167364406804389 0 0 0
1418 1 -10.068417199739578 -50.13873220070661 4.679066058638033 0 0 0
1419 1 -12.220834353520871 -50.13874258078458 5.923214162160236 0 0 0
1421 1 -10.068417199733812 -50.13873220070111 7.167366058761352 0 0 0
1423 1 -10.784615211726166 -48.105521046553854 5.923217058743002 0 0 0
1351 1 -7.916001520210425 -50.13871876250724 5.923217790715566 0 0 0
1361 1 -6.479784916416084 -48.10548903107431 5.923221222891029 0 0 0
1422 1 -8.63219923221395 -48.10550636865056 7.167369426030515 0 0 0
1435 1 -8.63219923211971 -48.10550636865709 4.679069426132558 0 0 0
1317 1 -3.6111743565449212 -50.13868733637002 5.923219969532192 0 0 0
1350 1 -5.763587284536371 -50.138703351876984 7.167369147821973 0 0 0
1359 1 -5.763587284521937 -50.13870335187624 4.679069147913484 0 0 0
1360 1 -4.327372178077753 -48.10547042355197 4.6790722352487455 0 0 0
1363 1 -4.3273721781890915 -48.10547042353447 7.16737223534127 0 0 0
1316 1 -1.4587624544188311 -50.1386723904377 4.679070150286036 0 0 0
1319 1 -1.4587624544704898 -50.138672390464066 7.167370150374504 0 0 0
1320 1 -2.174960776436441 -48.10545233637053 5.92322233664135 0 0 0
6876 1 -0.022550255256703924 -48.10543695098502 7.167371513399013 0 0 0
6878 1 -0.02255025525491329 -48.1054369510262 4.6790715134176235 0 0 0
1564 1 -17.9580729356305 -46.07232823125022 5.923207904479513 0 0 0
1503 1 -13.653231206762246 -46.07232275799698 5.9232149334706365 0 0 0
1563 1 -15.805651217059841 -46.07232874174191 4.679061213400268 0 0 0
1566 1 -15.805651216961696 -46.07232874169189 7.167361213554617 0 0 0
1502 1 -11.500812983085199 -46.072311358428195 7.167368625638517 0 0 0
1519 1 -11.500812983086268 -46.072311358367266 4.679068625785012 0 0 0
1436 1 -7.19598210595321 -46.0722762386057 4.679074212737021 0 0 0
1437 1 -9.348396600909574 -46.07229551111994 5.923221848467434 0 0 0
1439 1 -7.195982105934785 -46.07227623873347 7.167374212764517 0 0 0
1365 1 -5.043569470228588 -46.072254898282246 5.923225435102768 0 0 0
1331 1 -0.7387488454739027 -46.072213965492324 5.923224001913585 0 0 0
1364 1 -2.8911585214118145 -46.07223333564167 7.167375364672748 0 0 0
1381 1 -2.891158521410603 -46.072233335696936 4.679075364757285 0 0 0
1568 1 -16.521850324231135 -44.039120570374514 5.923210656428775 0 0 0
1604 1 -18.674273186882214 -44.03911852294112 4.679055864877197 0 0 0
1605 1 -18.674273186876057 -44.039118522868556 7.16735586512568 0 0 0
1606 1 -17.238049413993718 -42.00591394558322 7.167360237695579 0 0 0
1610 1 -17.23804941386575 -42.00591394549006 4.67906023788797 0 0 0
1567 1 -14.369429422856614 -44.03911502586047 7.167365922753725 0 0 0
1580 1 -14.369429422853019 -44.039115025847124 4.67906592290551 0 0 0
1581 1 -12.933207775489782 -42.005896950919315 4.679074733169376 0 0 0
1582 1 -15.085627486627953 -42.00590895045475 5.923217660811865 0 0 0
1584 1 -12.933207775513056 -42.00589695091276 7.167374733322867 0 0 0
1520 1 -10.064593611901463 -44.0390863679879 4.67907540941471 0 0 0
1521 1 -12.217010507643835 -44.03910328136325 5.923221042243276 0 0 0
1523 1 -10.064593611985732 -44.03908636798259 7.167375409648425 0 0 0
1525 1 -10.780790250042843 -42.00587910690347 5.923230623270286 0 0 0
1441 1 -7.912178819767305 -44.039065214230256 5.923228498974768 0 0 0
1461 1 -6.475962239818167 -42.00582926480526 5.92323624408918 0 0 0
1524 1 -8.628375030521303 -42.0058561903656 7.167384624318961 0 0 0
1543 1 -8.628375030468748 -42.00585619042696 4.6790846244801445 0 0 0
1383 1 -3.6073555954801053 -44.039015757728635 5.923229538497629 0 0 0
1440 1 -5.759766177824879 -44.03904107016865 7.167379934980673 0 0 0
1459 1 -5.759766177872209 -44.03904107022103 4.679079935062837 0 0 0
1460 1 -4.323551899595291 -42.00580002005454 4.67908527060789 0 0 0
1463 1 -4.323551899680408 -42.00580002007956 7.167385270703044 0 0 0
1382 1 -1.4549467532495366 -44.03899182826623 4.679077342175008 0 0 0
1385 1 -1.4549467533363825 -44.03899182835586 7.167377342268364 0 0 0
1386 1 -2.1711438223254227 -42.00577101422654 5.923231795053267 0 0 0
6912 1 -0.01873740894951884 -42.00574591442787 7.167376222845993 0 0 0
6914 1 -0.01873740900309447 -42.00574591460233 4.679076222898624 0 0 0
1835 1 -17.95424848171282 -39.972709134295016 -4.029989834382542 0 0 0
1836 1 -17.954248481661157 -39.972709134210916 -6.518289834339 0 0 0
1840 1 -16.518023059371295 -37.93950257890177 -4.029974646702758 0 0 0
1856 1 -16.518023059418837 -37.93950257895605 -6.518274646878702 0 0 0
1911 1 -18.67044751000693 -37.939506531499454 -5.274139207585018 0 0 0
1744 1 -13.649404773487175 -39.972692493818 -4.029969681008226 0 0 0
1760 1 -13.649404773643415 -39.97269249394593 -6.518269681049957 0 0 0
1834 1 -15.801825378428836 -39.97270472035676 -5.274129413706657 0 0 0
1857 1 -14.365601478002112 -37.939490026126094 -5.27411131694241 0 0 0
1761 1 -11.496986502137602 -39.972673874587365 -5.274111776768816 0 0 0
1762 1 -10.060765813230532 -37.93944498586079 -5.274094261823873 0 0 0
1763 1 -12.213182340985247 -37.93947078518427 -4.029950766102121 0 0 0
1764 1 -12.21318234097778 -37.93947078516687 -6.518250766105958 0 0 0
1678 1 -7.19215760929763 -39.97261979937881 -5.274104935237157 0 0 0
1679 1 -9.344570708182319 -39.972649385613686 -4.029956649342595 0 0 0
1680 1 -9.344570708129952 -39.97264938543715 -6.518256649373172 0 0 0
1684 1 -7.908352228097164 -37.93941296742183 -4.029942635847233 0 0 0
1699 1 -7.908352228062776 -37.939412967382985 -6.518242635932004 0 0 0
1635 1 -5.039747338557624 -39.972586583574035 -4.029956882853303 0 0 0
1645 1 -5.039747338649262 -39.97258658360585 -6.5182568827161385 0 0 0
1648 1 -3.603534775223069 -37.939335787038786 -4.029954515704986 0 0 0
1649 1 -3.6035347751720694 -37.939335787051945 -6.518254515707931 0 0 0
1700 1 -5.755941817866326 -37.93937591104443 -5.274096170060661 0 0 0
1620 1 -0.7349348729000513 -39.97252018061982 -4.0299705594645525 0 0 0
1621 1 -0.7349348729047686 -39.972520180621515 -6.518270559637177 0 0 0
1646 1 -2.8873398910252894 -39.97255210599072 -5.274112301196534 0 0 0
1647 1 -1.451131053392716 -37.93929616519249 -5.27411670141597 0 0 0
1929 1 -17.23422047140026 -35.9063028741839 -5.274117079063464 0 0 0
1858 1 -12.92937773718735 -35.90626991436273 -5.274084893607733 0 0 0
1859 1 -15.081797863937583 -35.90628964695861 -4.029948906885369 0 0 0
1860 1 -15.08179786384657 -35.90628964685899 -6.5182489068688785 0 0 0
1768 1 -10.776960280972384 -35.906243152417574 -4.029926732770136 0 0 0
1784 1 -10.776960281049323 -35.906243152458245 -6.518226732761739 0 0 0
1702 1 -6.4721352271665165 -35.90616842548211 -4.029931574831789 0 0 0
1703 1 -6.472135227099256 -35.906168425467165 -6.5182315748350454 0 0 0
1785 1 -8.62454601209209 -35.906209016362794 -5.2740755235778485 0 0 0
1701 1 -4.319728277665721 -35.906122801865614 -5.274094301747959 0 0 0
1652 1 -2.1673255932974995 -35.90607488745286 -4.0299622212325055 0 0 0
1655 1 -2.167325593237981 -35.90607488746297 -6.518262221118782 0 0 0
7269 1 -0.014926745025229258 -35.906031146272134 -5.27413310889681 0 0 0
1931 1 -17.950417563324798 -33.87310614765563 -4.029955315798529 0 0 0
1932 1 -17.950417563283217 -33.87310614757826 -6.518255315715127 0 0 0
1936 1 -16.514189791631072 -31.839895420788547 -4.029904053398923 0 0 0
1946 1 -16.514189791642718 -31.83989542077935 -6.518204053378872 0 0 0
1969 1 -18.66661430216368 -31.839913281337125 -5.274087362719379 0 0 0
1864 1 -13.645572690858636 -33.87307127333471 -4.02991212534726 0 0 0
1878 1 -13.645572691020455 -33.87307127347444 -6.518212125427494 0 0 0
1930 1 -15.797993935342136 -33.873091432303035 -5.274080657420761 0 0 0
1947 1 -14.361767299360672 -31.839874769912456 -5.274029621098346 0 0 0
1879 1 -11.493154034235753 -33.87304402117167 -5.274051999079147 0 0 0
1880 1 -10.056930537387972 -31.83981050403403 -5.2740187331374315 0 0 0
1881 1 -12.209347006919765 -31.839847741918078 -4.029867174177227 0 0 0
1882 1 -12.209347006869852 -31.839847741935767 -6.518167174187258 0 0 0
1786 1 -7.1883274334773 -33.87296444581355 -5.274061722832252 0 0 0
1787 1 -9.34073884046569 -33.87300813680205 -4.029901747626949 0 0 0
1788 1 -9.340738840476503 -33.873008136792734 -6.518201747599763 0 0 0
1792 1 -7.90451826124741 -31.839764127998844 -4.02988473963729 0 0 0
1802 1 -7.904518261199603 -31.83976412802136 -6.518184739735298 0 0 0
1707 1 -5.035920170139287 -33.87291388812123 -4.02993098029113 0 0 0
1717 1 -5.035920170250029 -33.872913888137106 -6.518230980288906 0 0 0
1720 1 -3.5997078400263556 -31.839645878446227 -4.029952229818688 0 0 0
1721 1 -3.5997078400223055 -31.839645878439097 -6.518252229963776 0 0 0
1803 1 -5.752110216544093 -31.83970963862787 -5.274063715263693 0 0 0
1656 1 -0.7311216235871191 -33.87280117186465 -4.029987254018828 0 0 0
1657 1 -0.7311216236779757 -33.87280117176983 -6.518287254181384 0 0 0
1718 1 -2.883518042426214 -33.872857622394804 -5.274107267819813 0 0 0
1719 1 -1.4473134037536899 -31.839575307155147 -5.274145269923217 0 0 0
1977 1 -17.230385738383138 -29.8067015967206 -5.274015607406352 0 0 0
1979 1 -17.946582481913307 -27.77350985490792 -4.029810570687633 0 0 0
1980 1 -17.946582481877332 -27.773509854820894 -6.5181105705860825 0 0 0
1948 1 -12.925539253888036 -29.806654528484298 -5.273968195814878 0 0 0
1949 1 -15.077961930089785 -29.806680097472977 -4.029833420706192 0 0 0
1950 1 -15.077961930111357 -29.806680097439173 -6.5181334205514085 0 0 0
1954 1 -13.641731207461614 -27.7734647160259 -4.029749293187616 0 0 0
1956 1 -13.641731207483113 -27.773464715947796 -6.518049293379526 0 0 0
1978 1 -15.794157552179056 -27.77348649008093 -5.273918010743613 0 0 0
1886 1 -10.773120891796848 -29.80661639046986 -4.029822848153673 0 0 0
1892 1 -10.773120891783558 -29.806616390492927 -6.5181228482984865 0 0 0
1957 1 -11.489309759510707 -27.7734264072841 -5.273908887929853 0 0 0
1805 1 -6.468298191412907 -29.806510266868607 -4.029891469639938 0 0 0
1806 1 -6.468298191326677 -29.806510266875776 -6.518191469591514 0 0 0
1893 1 -8.620707472183598 -29.806567426242758 -5.273998026856286 0 0 0
1894 1 -7.184483964069762 -27.773315260288527 -5.274012973002337 0 0 0
1895 1 -9.336894762480263 -27.77337420268073 -4.029797920282637 0 0 0
1896 1 -9.336894762564883 -27.773374202735194 -6.5180979202168965 0 0 0
1804 1 -4.315894327479379 -29.806441298006845 -5.2740979177830045 0 0 0
1810 1 -5.032076814142267 -27.773245391068386 -4.029945896185812 0 0 0
1812 1 -5.03207681416677 -27.773245391096157 -6.518245896259977 0 0 0
1724 1 -2.1635007740413363 -29.806356266467336 -4.030009752829294 0 0 0
1727 1 -2.1635007740579058 -29.806356266434545 -6.518309752915751 0 0 0
1728 1 -0.7273050688270633 -27.773032409012497 -4.030116928506729 0 0 0
1729 1 -0.7273050689035011 -27.773032409077565 -6.518416928610951 0 0 0
1813 1 -2.8796818959214208 -27.77314781765822 -5.274184930132429 0 0 0
7305 1 -0.011118532195918934 -29.80627010688346 -5.274218291756768 0 0 0
1822 1 -17.954248481628596 -39.97270913419349 -1.5416898343472492 0 0 0
1839 1 -16.518023059443607 -37.93950257898589 -1.5416746469893945 0 0 0
1901 1 -18.67044751003909 -37.93950653151643 -0.29753920753829305 0 0 0
1912 1 -18.670447509873934 -37.93950653142188 -2.785839207389698 0 0 0
1743 1 -13.6494047734725 -39.972692493954305 -1.5416696810269677 0 0 0
1820 1 -15.801825378382553 -39.9727047204019 -0.2975294137184101 0 0 0
1837 1 -15.801825378456773 -39.972704720311235 -2.785829413548008 0 0 0
1838 1 -14.365601478010657 -37.93949002610068 -2.7858113171860714 0 0 0
1841 1 -14.365601477963727 -37.93949002616473 -0.29751131694635524 0 0 0
1742 1 -11.496986502157526 -39.972673874595046 -2.785811776849575 0 0 0
1745 1 -11.496986502097972 -39.9726738745802 -0.29751177676034396 0 0 0
1746 1 -10.060765813242531 -37.93944498589047 -0.2974942616499617 0 0 0
1748 1 -12.213182340929908 -37.93947078512396 -1.5416507661691796 0 0 0
1765 1 -10.06076581319011 -37.93944498589264 -2.7857942616337903 0 0 0
1664 1 -7.192157609306158 -39.972619799393335 -0.29750493514683796 0 0 0
1666 1 -9.34457070811435 -39.97264938550709 -1.5416566493938084 0 0 0
1681 1 -7.192157609400487 -39.97261979946679 -2.7858049350854577 0 0 0
1683 1 -7.908352228113615 -37.939412967459326 -1.5416426359394906 0 0 0
1634 1 -5.039747338581715 -39.97258658364153 -1.5416568827496437 0 0 0
1639 1 -3.603534775201909 -37.93933578701299 -1.5416545158067312 0 0 0
1682 1 -5.755941817802468 -37.93937591099772 -2.785796170048945 0 0 0
1685 1 -5.75594181775678 -37.939375910986364 -0.2974961698702874 0 0 0
1619 1 -0.7349348728756753 -39.97252018063188 -1.5416705595615818 0 0 0
1633 1 -2.8873398909739185 -39.9725521058475 -2.785812301238142 0 0 0
1636 1 -2.8873398910835464 -39.972552105934994 -0.2975123012075832 0 0 0
1637 1 -1.4511310533562767 -37.93929616516217 -0.29751670132218644 0 0 0
1650 1 -1.4511310534482003 -37.93929616531852 -2.785816701357612 0 0 0
1913 1 -17.23422047141899 -35.90630287424664 -2.7858170792016677 0 0 0
1914 1 -17.234220471438924 -35.906302874113834 -0.2975170790798551 0 0 0
1842 1 -12.929377737185114 -35.90626991429614 -0.2974848936240262 0 0 0
1844 1 -15.08179786380897 -35.906289646860756 -1.541648906854404 0 0 0
1861 1 -12.9293777371371 -35.90626991428225 -2.7857848935310705 0 0 0
1767 1 -10.77696028101932 -35.90624315243402 -1.5416267328616349 0 0 0
1688 1 -6.47213522709062 -35.90616842546605 -1.5416315748608351 0 0 0
1766 1 -8.624546012018653 -35.90620901626746 -2.785775523671315 0 0 0
1769 1 -8.624546012086702 -35.906209016302434 -0.2974755236257038 0 0 0
1686 1 -4.319728277594047 -35.906122801912375 -0.29749430175147357 0 0 0
1704 1 -4.319728277681864 -35.90612280188307 -2.7857943017569293 0 0 0
1651 1 -2.1673255932893274 -35.90607488742579 -1.5416622210865734 0 0 0
7255 1 -0.014926744988083124 -35.90603114619002 -2.7858331088205395 0 0 0
7256 1 -0.014926745116537412 -35.906031146235435 -0.29753310886193257 0 0 0
1917 1 -17.95041756332183 -33.87310614753499 -1.5416553157115165 0 0 0
1935 1 -16.514189791656364 -31.83989542081797 -1.541604053482779 0 0 0
1961 1 -18.66661430211662 -31.839913281307272 -0.2974873626695299 0 0 0
1970 1 -18.666614302076287 -31.839913281219207 -2.785787362627854 0 0 0
1863 1 -13.64557269098414 -33.873071273457064 -1.5416121253635424 0 0 0
1915 1 -15.79799393537361 -33.87309143225292 -0.29748065740533014 0 0 0
1933 1 -15.797993935303746 -33.87309143211467 -2.7857806572356045 0 0 0
1934 1 -14.361767299393172 -31.83987477006966 -2.7857296210996068 0 0 0
1937 1 -14.361767299397066 -31.839874769928887 -0.2974296209256295 0 0 0
1862 1 -11.493154034372127 -33.873044021203256 -2.785751999139582 0 0 0
1865 1 -11.493154034248096 -33.87304402117288 -0.2974519990870472 0 0 0
1866 1 -10.056930537359976 -31.839810504056135 -0.2974187329969622 0 0 0
1868 1 -12.209347006889228 -31.83984774202667 -1.5415671742401187 0 0 0
1883 1 -10.056930537349416 -31.83981050399538 -2.7857187330672177 0 0 0
1770 1 -7.188327433505318 -33.8729644457985 -0.2974617228512825 0 0 0
1772 1 -9.340738840449507 -33.87300813673286 -1.5416017475940924 0 0 0
1789 1 -7.188327433597636 -33.87296444578554 -2.785761722833745 0 0 0
1791 1 -7.90451826127489 -31.839764127987326 -1.541584739767012 0 0 0
1706 1 -5.035920170195667 -33.872913888119534 -1.5416309802846027 0 0 0
1711 1 -3.599707840052496 -31.839645878467685 -1.5416522299764377 0 0 0
1790 1 -5.752110216540159 -31.839709638555853 -2.785763715186876 0 0 0
1793 1 -5.752110216584024 -31.839709638630115 -0.29746371516649156 0 0 0
1654 1 -0.7311216235872056 -33.872801171833125 -1.5416872541140365 0 0 0
1705 1 -2.8835180423997406 -33.87285762237317 -2.7858072677851884 0 0 0
1708 1 -2.883518042400963 -33.87285762239567 -0.29750726779635467 0 0 0
1709 1 -1.4473134037486526 -31.839575307101363 -0.2975452698515701 0 0 0
1722 1 -1.4473134037623996 -31.839575307214847 -2.7858452699719565 0 0 0
1971 1 -17.230385738424207 -29.80670159688809 -2.7857156074804412 0 0 0
1972 1 -17.23038573831249 -29.806701596782705 -0.29741560744894197 0 0 0
1975 1 -17.946582481880277 -27.77350985489791 -1.541510570632696 0 0 0
1938 1 -12.925539253836234 -29.806654528532277 -0.29736819585079916 0 0 0
1940 1 -15.077961930078299 -29.806680097500987 -1.541533420541443 0 0 0
1951 1 -12.925539253756746 -29.80665452845903 -2.7856681958404925 0 0 0
1953 1 -13.641731207453997 -27.773464715962756 -1.5414492933880342 0 0 0
1973 1 -15.794157552141957 -27.773486490062005 -0.29731801069434266 0 0 0
1981 1 -15.794157552144458 -27.773486489974587 -2.7856180107151514 0 0 0
1885 1 -10.773120891827478 -29.806616390482873 -1.5415228483031314 0 0 0
1952 1 -11.489309759571473 -27.77342640744548 -2.7856088879015446 0 0 0
1955 1 -11.489309759479639 -27.773426407273195 -0.2973088878291719 0 0 0
1796 1 -6.468298191412448 -29.8065102668791 -1.541591469570146 0 0 0
1884 1 -8.620707472281627 -29.806567426320978 -2.785698026817974 0 0 0
1887 1 -8.620707472233537 -29.806567426181378 -0.2973980268414838 0 0 0
1888 1 -7.184483964127785 -27.773315260272902 -0.29741297295741703 0 0 0
1890 1 -9.336894762496206 -27.773374202712077 -1.5414979202012238 0 0 0
1897 1 -7.184483964192814 -27.77331526017258 -2.7857129730339443 0 0 0
1794 1 -4.3158943274725114 -29.806441298070908 -0.2974979178222585 0 0 0
1807 1 -4.315894327407778 -29.806441298057 -2.785797917864646 0 0 0
1809 1 -5.03207681417745 -27.773245391079293 -1.5416458962574628 0 0 0
1723 1 -2.1635007740003647 -29.806356266464984 -1.5417097530120412 0 0 0
1726 1 -0.7273050688433975 -27.773032409050895 -1.5418169285897143 0 0 0
1808 1 -2.8796818959819763 -27.773147817672225 -2.785884930146266 0 0 0
1811 1 -2.8796818959460966 -27.773147817691097 -0.2975849301715268 0 0 0
7301 1 -0.011118532164816536 -29.806270106772747 -2.7859182917040815 0 0 0
7302 1 -0.011118532258033196 -29.80627010683966 -0.29761829175265386 0 0 0
1816 1 -17.954248481627673 -39.97270913413133 3.434910165712159 0 0 0
1821 1 -17.95424848176164 -39.972709134353536 0.9466101655869764 0 0 0
1825 1 -16.518023059508074 -37.939502578993945 3.4349253531936097 0 0 0
1826 1 -16.51802305933167 -37.939502578813766 0.94662535318796 0 0 0
1902 1 -18.67044750996952 -37.93950653142787 2.1907607925684465 0 0 0
1733 1 -13.64940477357779 -39.97269249394478 3.434930318986202 0 0 0
1734 1 -13.649404773547843 -39.97269249381719 0.9466303189423554 0 0 0
1823 1 -15.801825378424413 -39.97270472029172 2.190770586486632 0 0 0
1824 1 -14.365601478057204 -37.93949002617531 2.1907886829015744 0 0 0
1732 1 -11.496986502114932 -39.972673874574106 2.190788223073383 0 0 0
1738 1 -12.213182340933674 -37.93947078506135 3.4349492339541 0 0 0
1747 1 -12.213182341051256 -37.93947078524111 0.9466492338629183 0 0 0
1749 1 -10.060765813238095 -37.93944498586107 2.190805738311127 0 0 0
1660 1 -9.344570708126112 -39.97264938550305 3.434943350605928 0 0 0
1665 1 -9.344570708178473 -39.97264938553599 0.9466433506510833 0 0 0
1667 1 -7.192157609349516 -39.97261979941074 2.190795064839692 0 0 0
1669 1 -7.908352228132035 -37.939412967459 3.434957364141269 0 0 0
1670 1 -7.908352227994737 -37.93941296731664 0.9466573640678395 0 0 0
1625 1 -5.039747338615284 -39.97258658361054 3.434943117278554 0 0 0
1626 1 -5.03974733861435 -39.97258658354793 0.9466431171905713 0 0 0
1630 1 -3.603534775195961 -37.93933578701068 3.4349454842482006 0 0 0
1638 1 -3.603534775183843 -37.93933578709141 0.9466454843531206 0 0 0
1668 1 -5.755941817812772 -37.939375910973126 2.1908038298717516 0 0 0
1617 1 -0.7349348729205072 -39.97252018060046 3.434929440400659 0 0 0
1618 1 -0.7349348729126396 -39.97252018063138 0.946629440525189 0 0 0
1624 1 -2.8873398909633456 -39.97255210594242 2.190787698780702 0 0 0
1640 1 -1.4511310534490964 -37.93929616528022 2.190783298586107 0 0 0
1903 1 -17.234220471473698 -35.906302874267396 2.1907829207822314 0 0 0
1830 1 -15.08179786387525 -35.9062896468844 3.434951093199552 0 0 0
1843 1 -15.081797863925184 -35.90628964697613 0.9466510931029417 0 0 0
1845 1 -12.929377737160964 -35.90626991431056 2.1908151065263786 0 0 0
1751 1 -10.776960281020136 -35.90624315245375 3.434973267246036 0 0 0
1752 1 -10.776960281000592 -35.906243152358265 0.9466732672098904 0 0 0
1674 1 -6.472135227124535 -35.90616842543931 3.434968425111044 0 0 0
1687 1 -6.4721352271173345 -35.906168425497846 0.9466684252258131 0 0 0
1750 1 -8.624546012072683 -35.90620901633948 2.190824476339788 0 0 0
1689 1 -4.319728277707522 -35.906122801913895 2.1908056982705735 0 0 0
1641 1 -2.1673255932740907 -35.90607488744234 3.434937778875035 0 0 0
1642 1 -2.1673255932434823 -35.90607488746053 0.9466377787240073 0 0 0
7249 1 -0.014926744928606961 -35.9060311461696 2.190766891130656 0 0 0
1907 1 -17.950417563270754 -33.87310614756449 3.434944684347576 0 0 0
1916 1 -17.95041756334803 -33.873106147664714 0.9466446841394657 0 0 0
1920 1 -16.51418979166511 -31.839895420832708 3.4349959465099316 0 0 0
1921 1 -16.514189791591914 -31.83989542074196 0.9466959466834578 0 0 0
1962 1 -18.666614302058925 -31.83991328122257 2.1908126373357537 0 0 0
1847 1 -13.64557269090931 -33.87307127341328 3.434987874547271 0 0 0
1848 1 -13.645572690983998 -33.87307127343081 0.9466878746292801 0 0 0
1918 1 -15.797993935279074 -33.87309143223425 2.1908193426568294 0 0 0
1919 1 -14.361767299399341 -31.839874770000986 2.1908703788754136 0 0 0
1846 1 -11.49315403428303 -33.87304402117093 2.1908480008621316 0 0 0
1852 1 -12.209347006906208 -31.839847741875158 3.4350328258941705 0 0 0
1867 1 -12.209347006914266 -31.839847741977064 0.9467328257621453 0 0 0
1869 1 -10.056930537392567 -31.839810503993235 2.1908812669093045 0 0 0
1756 1 -9.340738840455808 -33.87300813676503 3.434998252411896 0 0 0
1771 1 -9.340738840514383 -33.873008136815 0.9466982523470818 0 0 0
1773 1 -7.1883274334831295 -33.87296444581857 2.190838277182993 0 0 0
1775 1 -7.904518261254521 -31.839764128032687 3.435015260357011 0 0 0
1776 1 -7.9045182612088345 -31.839764128013464 0.946715260290945 0 0 0
1691 1 -5.035920170150823 -33.87291388813389 3.4349690197080758 0 0 0
1692 1 -5.035920170240964 -33.872913888124614 0.9466690196994337 0 0 0
1696 1 -3.599707840059265 -31.839645878473522 3.434947770095951 0 0 0
1710 1 -3.599707840018198 -31.839645878440695 0.9466477700760644 0 0 0
1774 1 -5.752110216527395 -31.839709638636776 2.190836284737618 0 0 0
1644 1 -0.7311216236128311 -33.87280117188928 3.4349127459253745 0 0 0
1653 1 -0.731121623656558 -33.87280117174716 0.946612745901034 0 0 0
1690 1 -2.883518042400078 -33.87285762233725 2.190792732202416 0 0 0
1712 1 -1.4473134038191091 -31.839575307195258 2.190754730018706 0 0 0
1963 1 -17.230385738452384 -29.806701596842547 2.1908843925656636 0 0 0
1967 1 -17.946582481892392 -27.77350985489598 3.4350894294768546 0 0 0
1974 1 -17.94658248190663 -27.773509854841453 0.9467894292816993 0 0 0
1925 1 -15.077961930052691 -29.806680097432928 3.435066579415078 0 0 0
1939 1 -15.077961930124603 -29.806680097468313 0.9467665793013859 0 0 0
1941 1 -12.925539253783306 -29.80665452840779 2.190931804166501 0 0 0
1943 1 -13.641731207438927 -27.773464716032546 3.4351507067207896 0 0 0
1944 1 -13.641731207488204 -27.773464715931212 0.9468507067735129 0 0 0
1976 1 -15.794157552116573 -27.77348648995377 2.190981989279575 0 0 0
1871 1 -10.773120891764808 -29.806616390482294 3.4350771517289713 0 0 0
1872 1 -10.773120891768757 -29.80661639051099 0.9467771517987195 0 0 0
1942 1 -11.489309759539651 -27.77342640737629 2.190991112069376 0 0 0
1780 1 -6.468298191373013 -29.806510266914408 3.435008530404145 0 0 0
1795 1 -6.468298191302403 -29.806510266886388 0.9467085303600727 0 0 0
1870 1 -8.620707472198967 -29.80656742629554 2.1909019731459307 0 0 0
1876 1 -9.33689476247528 -27.773374202695635 3.43510207980071 0 0 0
1889 1 -9.336894762553767 -27.77337420271619 0.9468020797335903 0 0 0
1891 1 -7.184483964021212 -27.77331526023468 2.190887026990854 0 0 0
1797 1 -4.315894327446054 -29.80644129803342 2.190802082156974 0 0 0
1799 1 -5.032076814086557 -27.77324539103799 3.434954103774879 0 0 0
1800 1 -5.032076814187452 -27.77324539114232 0.946654103769889 0 0 0
1713 1 -2.163500774030786 -29.806356266438517 3.434890247157411 0 0 0
1714 1 -2.163500774085612 -29.806356266455598 0.9465902470847478 0 0 0
1716 1 -0.727305068845025 -27.773032409076837 3.4347830714771614 0 0 0
1725 1 -0.7273050688732434 -27.773032409024538 0.9464830714395747 0 0 0
1798 1 -2.879681895909768 -27.77314781766752 2.1907150699142166 0 0 0
7297 1 -0.011118532179355524 -29.806270106838248 2.190681708289911 0 0 0
1815 1 -17.954248481745534 -39.97270913434039 5.923210165586366 0 0 0
1819 1 -16.518023059396352 -37.939502578842934 5.923225353116855 0 0 0
1898 1 -18.670447509979816 -37.93950653149723 4.6790607924496195 0 0 0
1899 1 -18.670447509999683 -37.93950653143845 7.167360792618624 0 0 0
1731 1 -13.649404773400377 -39.97269249383224 5.923230318969057 0 0 0
1814 1 -15.8018253785041 -39.97270472035453 4.679070586282925 0 0 0
1817 1 -15.801825378376366 -39.97270472037392 7.167370586433208 0 0 0
1818 1 -14.365601478028127 -37.939490026213115 7.167388682932665 0 0 0
1827 1 -14.365601477997693 -37.939490026093274 4.67908868295481 0 0 0
1730 1 -11.49698650208506 -39.97267387458826 7.167388223114929 0 0 0
1735 1 -11.496986502195204 -39.972673874560044 4.679088223279806 0 0 0
1736 1 -10.060765813199918 -37.93944498586018 4.679105738244592 0 0 0
1737 1 -12.213182341026254 -37.93947078521193 5.92324923381057 0 0 0
1739 1 -10.060765813246439 -37.939444985912885 7.167405738439668 0 0 0
1658 1 -7.192157609372337 -39.97261979940096 4.679095064810221 0 0 0
1659 1 -9.344570708192437 -39.9726493855941 5.923243350685556 0 0 0
1661 1 -7.192157609379968 -39.97261979941266 7.167395064930254 0 0 0
1663 1 -7.908352228062796 -37.939412967363815 5.9232573640190145 0 0 0
1623 1 -5.039747338567115 -39.9725865835818 5.923243117107703 0 0 0
1629 1 -3.603534775209239 -37.939335787027076 5.923245484276539 0 0 0
1662 1 -5.755941817727186 -37.939375910947646 7.167403830087511 0 0 0
1671 1 -5.755941817803605 -37.93937591104521 4.6791038300191135 0 0 0
1616 1 -0.7349348728770418 -39.97252018061335 5.923229440574298 0 0 0
1622 1 -2.887339891012311 -39.97255210586531 7.167387698755127 0 0 0
1627 1 -2.8873398910690944 -39.97255210591614 4.67908769879242 0 0 0
1628 1 -1.4511310534203892 -37.93929616519646 4.679083298647182 0 0 0
1631 1 -1.4511310534118569 -37.93929616525748 7.167383298696942 0 0 0
1900 1 -17.234220471479787 -35.906302874207014 7.167382920820015 0 0 0
1904 1 -17.23422047140485 -35.90630287413873 4.679082920943062 0 0 0
1828 1 -12.929377737144822 -35.90626991431963 4.679115106383231 0 0 0
1829 1 -15.081797863897492 -35.90628964696176 5.923251093067835 0 0 0
1831 1 -12.929377737169041 -35.906269914247524 7.167415106478667 0 0 0
1741 1 -10.776960280958832 -35.906243152357845 5.923273267131246 0 0 0
1673 1 -6.4721352271033314 -35.906168425501406 5.923268425216357 0 0 0
1740 1 -8.624546012060874 -35.906209016290276 7.1674244763167865 0 0 0
1753 1 -8.624546012028075 -35.906209016251005 4.679124476370191 0 0 0
1672 1 -4.3197282775999355 -35.90612280184652 4.679105698231061 0 0 0
1675 1 -4.319728277644399 -35.90612280196368 7.1674056982618835 0 0 0
1632 1 -2.1673255932752986 -35.90607488741633 5.923237778808438 0 0 0
7248 1 -0.014926745026770612 -35.90603114615026 7.167366891189615 0 0 0
7250 1 -0.014926745072392784 -35.906031146295604 4.679066891158426 0 0 0
1906 1 -17.95041756337545 -33.87310614762517 5.92324468415721 0 0 0
1910 1 -16.514189791626116 -31.839895420754257 5.9232959466225905 0 0 0
1958 1 -18.666614302136367 -31.839913281347545 4.679112637299708 0 0 0
1959 1 -18.666614302029647 -31.839913281182618 7.167412637443184 0 0 0
1833 1 -13.645572690943741 -33.87307127339308 5.923287874758437 0 0 0
1905 1 -15.797993935360958 -33.873091432177844 4.6791193426658415 0 0 0
1908 1 -15.797993935315658 -33.873091432158844 7.167419342687606 0 0 0
1909 1 -14.361767299440244 -31.839874770000275 7.167470379010676 0 0 0
1922 1 -14.361767299341073 -31.83987476999168 4.679170378965064 0 0 0
1832 1 -11.493154034275266 -33.87304402119702 7.167448000891042 0 0 0
1849 1 -11.49315403436006 -33.873044021149035 4.679148000918518 0 0 0
1850 1 -10.056930537369297 -31.839810504030357 4.67918126692398 0 0 0
1851 1 -12.209347006903673 -31.839847742034234 5.923332825712607 0 0 0
1853 1 -10.056930537343344 -31.83981050400745 7.167481267043292 0 0 0
1754 1 -7.188327433582145 -33.87296444577632 4.679138277122513 0 0 0
1755 1 -9.340738840478283 -33.873008136775404 5.923298252392429 0 0 0
1757 1 -7.1883274334938125 -33.872964445786685 7.167438277198178 0 0 0
1759 1 -7.9045182612728295 -31.83976412799285 5.923315260237714 0 0 0
1677 1 -5.035920170185761 -33.872913888137276 5.923269019706275 0 0 0
1695 1 -3.5997078400690175 -31.83964587846901 5.923247770110724 0 0 0
1758 1 -5.75211021654588 -31.83970963861929 7.1674362848510755 0 0 0
1777 1 -5.752110216563155 -31.83970963857525 4.679136284820966 0 0 0
1643 1 -0.7311216235741311 -33.87280117179562 5.923212745941593 0 0 0
1676 1 -2.883518042377438 -33.87285762233091 7.1673927322091355 0 0 0
1693 1 -2.8835180424401514 -33.87285762244318 4.679092732204897 0 0 0
1694 1 -1.4473134037440587 -31.83957530717333 4.679054730040872 0 0 0
1697 1 -1.447313403819213 -31.839575307146962 7.16735473010349 0 0 0
1960 1 -17.230385738368305 -29.80670159688418 7.167484392511377 0 0 0
1964 1 -17.23038573831505 -29.806701596763993 4.679184392552577 0 0 0
1966 1 -17.946582481888942 -27.77350985490117 5.923389429215991 0 0 0
1923 1 -12.92553925379814 -29.80665452852787 4.679231804131855 0 0 0
1924 1 -15.077961930069575 -29.806680097507073 5.9233665793203585 0 0 0
1926 1 -12.925539253750703 -29.806654528457976 7.1675318041879645 0 0 0
1928 1 -13.641731207412068 -27.773464715961918 5.923450706687625 0 0 0
1965 1 -15.794157552204052 -27.77348649007617 4.679281989269325 0 0 0
1968 1 -15.794157552035477 -27.773486489926192 7.167581989305113 0 0 0
1855 1 -10.773120891796095 -29.80661639047707 5.923377151841093 0 0 0
1927 1 -11.489309759516077 -27.7734264073615 7.1675911121705225 0 0 0
1945 1 -11.489309759501642 -27.77342640734944 4.67929111208529 0 0 0
1779 1 -6.468298191363865 -29.806510266867097 5.923308530391001 0 0 0
1854 1 -8.620707472261211 -29.806567426229346 7.167501973181879 0 0 0
1873 1 -8.620707472187123 -29.806567426285284 4.6792019731515095 0 0 0
1874 1 -7.184483964191254 -27.77331526028063 4.679187026977087 0 0 0
1875 1 -9.336894762489392 -27.77337420270129 5.9234020797044105 0 0 0
1877 1 -7.18448396410307 -27.773315260201606 7.167487026960375 0 0 0
1778 1 -4.315894327412005 -29.806441298079495 4.67910208218832 0 0 0
1781 1 -4.315894327452689 -29.806441298064524 7.167402082170807 0 0 0
1783 1 -5.032076814164373 -27.773245391100637 5.923254103767269 0 0 0
1698 1 -2.1635007740377983 -29.806356266514687 5.9231902469783755 0 0 0
1715 1 -0.7273050688074549 -27.773032409022544 5.923083071452246 0 0 0
1782 1 -2.879681895922565 -27.77314781771493 7.167315069873253 0 0 0
1801 1 -2.8796818959699175 -27.77314781765756 4.679015069804956 0 0 0
7296 1 -0.011118532241373743 -29.806270106835285 7.167281708302841 0 0 0
7298 1 -0.011118532192778068 -29.806270106833036 4.678981708262327 0 0 0
2166 1 -16.51035633819082 -25.740292175736577 -4.0296756986023725 0 0 0
2182 1 -16.510356338052222 -25.740292175711446 -6.517975698726714 0 0 0
2249 1 -18.662781385049787 -25.740319992388752 -5.273882582073457 0 0 0
2183 1 -14.357924220500495 -25.74027875915556 -5.273802138576229 0 0 0
2088 1 -10.053079817475004 -25.74018465189585 -5.273879128121951 0 0 0
2089 1 -12.20549739855942 -25.740241941858347 -4.029669220238268 0 0 0
2090 1 -12.205497398539237 -25.74024194178999 -6.517969220115573 0 0 0
2022 1 -7.900667699851783 -25.740122879180138 -4.029826696871071 0 0 0
2037 1 -7.900667699824535 -25.7401228791776 -6.5181266970653295 0 0 0
1997 1 -3.5958542938538374 -25.739955117520893 -4.030077722961899 0 0 0
1998 1 -3.595854293925995 -25.73995511754713 -6.51837772296243 0 0 0
2038 1 -5.748254865056229 -25.740058942510434 -5.274099055464135 0 0 0
1996 1 -1.443481525110721 -25.739805047470167 -5.274342492843297 0 0 0
2267 1 -17.22656264787378 -23.70709322642943 -5.273695638445911 0 0 0
2269 1 -17.94278446047195 -21.673881216898728 -4.0293622345798905 0 0 0
2270 1 -17.94278446061068 -21.673881216914154 -6.51766223442519 0 0 0
2184 1 -12.921685299691152 -23.707065726388457 -5.273692328089872 0 0 0
2185 1 -15.074121587365159 -23.707097037599816 -4.029514407980923 0 0 0
2186 1 -15.074121587377105 -23.707097037674956 -6.517814407867762 0 0 0
2190 1 -13.63787799431552 -21.67390222950339 -4.029360255740627 0 0 0
2206 1 -13.637877994360567 -21.67390222946185 -6.517660255964794 0 0 0
2268 1 -15.790330118612456 -21.673919231689936 -5.273467261276791 0 0 0
2094 1 -10.769262550842939 -23.70700044425702 -4.02963379878869 0 0 0
2110 1 -10.769262550784736 -23.707000444244645 -6.517933798915843 0 0 0
2207 1 -11.485443635830313 -21.67382729202197 -5.273649937219786 0 0 0
2040 1 -6.4644290627567464 -23.706880764838317 -4.029962682303214 0 0 0
2041 1 -6.464429062754091 -23.70688076488172 -6.518262682177583 0 0 0
2111 1 -8.616850335009934 -23.70692960171369 -5.273930872314837 0 0 0
2112 1 -7.180602860110576 -21.67370516289854 -5.274146454033755 0 0 0
2113 1 -9.333034461692511 -21.67372976001657 -4.029723666769547 0 0 0
2114 1 -9.333034461830515 -21.673729759940045 -6.518023666626369 0 0 0
2039 1 -4.312014971752347 -23.706785152357234 -5.274299602661582 0 0 0
2045 1 -5.028161040227009 -21.67364731941958 -4.030269853707926 0 0 0
2055 1 -5.028161040267604 -21.67364731931167 -6.518569853852013 0 0 0
2001 1 -2.1596424572938178 -23.706596192457408 -4.030310038996907 0 0 0
2004 1 -2.1596424572702504 -23.706596192372228 -6.518610039115884 0 0 0
2005 1 -0.00730425484707754 -23.706399554893945 -5.274568825719732 0 0 0
2006 1 -0.7234568845968947 -21.673138369775 -4.030630876305938 0 0 0
2007 1 -0.7234568847029572 -21.673138369743917 -6.518930876182171 0 0 0
2056 1 -2.875780490119915 -21.673418446249805 -5.2746435485753 0 0 0
2274 1 -16.506562103926598 -19.640743199005033 -4.029030723308608 0 0 0
2288 1 -16.506562103895753 -19.64074319900898 -6.517330723422803 0 0 0
2321 1 -18.6590353039378 -19.640638512230563 -5.273252353709083 0 0 0
2333 1 -17.22283657775323 -17.607564252324828 -5.272754948283362 0 0 0
2289 1 -14.354086447494462 -19.640756533749613 -5.273244018411341 0 0 0
2291 1 -15.070334268328148 -17.607628771394364 -4.028695391073232 0 0 0
2292 1 -15.070334268354426 -17.60762877140122 -6.516995390822802 0 0 0
2290 1 -12.917814387971449 -17.60759281965634 -5.273180051156788 0 0 0
2208 1 -10.049225629281983 -19.640516225642394 -5.2738038316799605 0 0 0
2209 1 -12.201625648000565 -19.64068024062498 -4.029308734079877 0 0 0
2210 1 -12.201625647962821 -19.640680240661666 -6.517608734031763 0 0 0
2214 1 -10.765433960488302 -17.607285332143853 -4.029572681852298 0 0 0
2224 1 -10.765433960478722 -17.607285332202895 -6.517872682037721 0 0 0
2118 1 -7.896786725192072 -19.640516569911938 -4.030068207085663 0 0 0
2132 1 -7.8967867252221025 -19.64051656985959 -6.51836820726054 0 0 0
2225 1 -8.613006490814923 -17.607277617910608 -5.27436119117279 0 0 0
2135 1 -6.460412521435613 -17.6075257180445 -4.030811884091277 0 0 0
2136 1 -6.4604125214956465 -17.60752571813891 -6.519111883836918 0 0 0
2058 1 -3.591887184695409 -19.64029042972137 -4.030781647976669 0 0 0
2059 1 -3.5918871847498015 -19.640290429782223 -6.5190816478384725 0 0 0
2133 1 -5.7442916820013465 -19.640554543081745 -5.274621461348926 0 0 0
2134 1 -4.307957602546528 -17.607237960132345 -5.2753871494591476 0 0 0
2057 1 -1.4395700819063393 -19.63990472249594 -5.275096170140207 0 0 0
2062 1 -2.1556208083834623 -17.606732959657457 -4.03141485825408 0 0 0
2065 1 -2.1556208083247705 -17.60673295967343 -6.5197148584318985 0 0 0
7687 1 -0.0034310031816943425 -17.606177193092925 -5.275493459951463 0 0 0
2335 1 -17.939174160028774 -15.574377242136304 -4.027953231421467 0 0 0
2336 1 -17.939174160028884 -15.574377242085601 -6.5162532313355275 0 0 0
2340 1 -16.503171257087757 -13.541261692040242 -4.027113748235412 0 0 0
2342 1 -16.503171257121554 -13.541261692077914 -6.515413748455193 0 0 0
2348 1 -18.65559144846893 -13.541210612358906 -5.271067969662067 0 0 0
2296 1 -13.63402108214203 -15.57463311971977 -4.028614713366814 0 0 0
2302 1 -13.634021082308333 -15.574633119651478 -6.516914713442652 0 0 0
2334 1 -15.78666883638234 -15.574496569535185 -5.272232290969641 0 0 0
2343 1 -14.350268478919375 -13.54192638476802 -5.272130643238396 0 0 0
2303 1 -11.481669938093379 -15.574050493357067 -5.273639605659809 0 0 0
2304 1 -10.045857253607052 -13.54019481620747 -5.275164860417126 0 0 0
2305 1 -12.197926472181628 -13.54089251369635 -4.029437102653224 0 0 0
2306 1 -12.19792647218289 -13.540892513637889 -6.517737102453696 0 0 0
2226 1 -7.176541955603521 -15.574591404279928 -5.275543294483387 0 0 0
2227 1 -9.32932290095663 -15.573904462147661 -4.030487794024683 0 0 0
2228 1 -9.329322901032723 -15.573904462121343 -6.51878779386548 0 0 0
2232 1 -7.892731203821283 -13.541824250328956 -4.032401962119879 0 0 0
2234 1 -7.8927312038519215 -13.541824250399568 -6.520701962391101 0 0 0
2140 1 -5.0240026029735825 -15.574290415407011 -4.031962808259258 0 0 0
2146 1 -5.0240026030886735 -15.574290415417723 -6.5202628084178045 0 0 0
2149 1 -3.5874463967183607 -13.540895639443525 -4.033137784516816 0 0 0
2150 1 -3.5874463966584456 -13.540895639418796 -6.521437784314788 0 0 0
2235 1 -5.740069496122749 -13.541460345000994 -5.277276199444513 0 0 0
2066 1 -0.7194509369262464 -15.57277226469508 -4.031863549880597 0 0 0
2067 1 -0.7194509369779072 -15.572772264671642 -6.520163549743637 0 0 0
2147 1 -2.8715831383651422 -15.573690613118735 -5.276260283040564 0 0 0
2148 1 -1.435312771911591 -13.539448949537007 -5.276667952203069 0 0 0
2165 1 -16.510356338104582 -25.740292175718977 -1.541375698810926 0 0 0
2239 1 -18.662781385087737 -25.740319992364192 -0.2972825820780411 0 0 0
2250 1 -18.66278138496471 -25.740319992239442 -2.7855825820422537 0 0 0
2164 1 -14.357924220565742 -25.7402787592742 -2.785502138552821 0 0 0
2167 1 -14.35792422046684 -25.740278759128945 -0.2972021385432593 0 0 0
2074 1 -10.053079817537766 -25.74018465189735 -0.2972791279775616 0 0 0
2076 1 -12.205497398545633 -25.74024194187378 -1.5413692201173768 0 0 0
2091 1 -10.053079817459986 -25.740184651877627 -2.7855791280576665 0 0 0
2021 1 -7.900667699804485 -25.740122879130073 -1.5415266970462738 0 0 0
1989 1 -3.595854293842166 -25.739955117553173 -1.5417777230432967 0 0 0
2020 1 -5.748254865093912 -25.740058942541527 -2.7857990553985594 0 0 0
2023 1 -5.748254865060194 -25.740058942459736 -0.29749905542080735 0 0 0
1987 1 -1.4434815251037179 -25.739805047516814 -0.29774249279937687 0 0 0
1999 1 -1.4434815250817385 -25.73980504744604 -2.786042492859354 0 0 0
2251 1 -17.22656264798376 -23.70709322655936 -2.7853956385151664 0 0 0
2252 1 -17.22656264791872 -23.70709322643742 -0.297095638563774 0 0 0
2255 1 -17.942784460593167 -21.673881216956215 -1.5410622344636051 0 0 0
2168 1 -12.921685299718884 -23.707065726421735 -0.2970923280633236 0 0 0
2170 1 -15.074121587363972 -23.707097037644637 -1.5412144078533545 0 0 0
2187 1 -12.92168529959096 -23.707065726296772 -2.7853923281244533 0 0 0
2189 1 -13.6378779942766 -21.673902229455166 -1.5410602559815085 0 0 0
2253 1 -15.790330118682988 -21.67391923165228 -0.2968672611920971 0 0 0
2271 1 -15.790330118585333 -21.673919231514613 -2.7851672613593172 0 0 0
2093 1 -10.76926255081588 -23.707000444283178 -1.541333798916489 0 0 0
2188 1 -11.48544363603937 -21.673827292126656 -2.7853499371853108 0 0 0
2191 1 -11.48544363586335 -21.673827292030875 -0.2970499371742114 0 0 0
2026 1 -6.4644290627066665 -23.706880764934233 -1.5416626821612451 0 0 0
2092 1 -8.616850335045157 -23.706929601856938 -2.785630872212447 0 0 0
2095 1 -8.616850335009115 -23.70692960175462 -0.2973308722844676 0 0 0
2096 1 -7.1806028601505485 -21.67370516286186 -0.29754645390445783 0 0 0
2098 1 -9.333034461694849 -21.673729760021818 -1.5414236665857548 0 0 0
2115 1 -7.1806028601416045 -21.673705162738617 -2.7858464540323586 0 0 0
2024 1 -4.31201497168332 -23.70678515234386 -0.29769960259024464 0 0 0
2042 1 -4.312014971698229 -23.706785152211836 -2.785999602635363 0 0 0
2044 1 -5.028161040194156 -21.673647319334446 -1.5419698538419908 0 0 0
2000 1 -2.1596424572923496 -23.7065961924271 -1.5420100390166114 0 0 0
7620 1 -0.007304254852337765 -23.70639955501513 -2.7862688256640484 0 0 0
7621 1 -0.0073042548265346875 -23.70639955493673 -0.29796882578811706 0 0 0
2003 1 -0.723456884664761 -21.673138369787534 -1.542330876235768 0 0 0
2043 1 -2.875780490263715 -21.67341844625953 -2.7863435485473262 0 0 0
2046 1 -2.875780490126725 -21.673418446221234 -0.2980435485203774 0 0 0
2273 1 -16.506562103883127 -19.640743199002202 -1.540730723534203 0 0 0
2311 1 -18.65903530402482 -19.640638512273128 -0.2966523536837724 0 0 0
2322 1 -18.65903530382347 -19.640638512183322 -2.7849523536174097 0 0 0
2323 1 -17.22283657786138 -17.60756425239963 -2.7844549482737597 0 0 0
2324 1 -17.222836577805566 -17.607564252277555 -0.29615494834736883 0 0 0
2272 1 -14.35408644754486 -19.640756533804396 -2.7849440183542065 0 0 0
2275 1 -14.354086447527967 -19.64075653370194 -0.296644018363792 0 0 0
2278 1 -15.070334268341721 -17.60762877143355 -1.5403953908088306 0 0 0
2276 1 -12.917814387963553 -17.607592819734418 -0.2965800511159304 0 0 0
2293 1 -12.917814387814238 -17.60759281961098 -2.7848800511381318 0 0 0
2192 1 -10.049225629341342 -19.64051622566407 -0.2972038316877136 0 0 0
2194 1 -12.201625648025257 -19.640680240663162 -1.5410087340550895 0 0 0
2211 1 -10.049225629271907 -19.6405162254409 -2.785503831707886 0 0 0
2213 1 -10.765433960474928 -17.607285332269107 -1.5412726820632825 0 0 0
2117 1 -7.896786725222763 -19.640516569806714 -1.5417682073141605 0 0 0
2212 1 -8.613006490948878 -17.60727761812945 -2.7860611911026436 0 0 0
2215 1 -8.613006490845878 -17.607277617947204 -0.29776119112871835 0 0 0
2122 1 -6.460412521483228 -17.607525718078033 -1.5425118838250744 0 0 0
2049 1 -3.5918871847276947 -19.640290429766065 -1.5424816478128192 0 0 0
2116 1 -5.744291682025607 -19.64055454326831 -2.7863214612886447 0 0 0
2119 1 -5.744291681956168 -19.640554543081162 -0.2980214612442518 0 0 0
2120 1 -4.307957602471335 -17.607237960153988 -0.2987871495106833 0 0 0
2137 1 -4.307957602381852 -17.607237959941553 -2.7870871495042637 0 0 0
2047 1 -1.4395700819619452 -19.639904722611824 -0.29849617013979984 0 0 0
2060 1 -1.4395700818580652 -19.63990472247589 -2.786796170111396 0 0 0
2061 1 -2.155620808320694 -17.606732959617815 -1.5431148584210896 0 0 0
7679 1 -0.003431003274866336 -17.606177193312188 -2.7871934599266948 0 0 0
7680 1 -0.0034310031329122105 -17.60617719311413 -0.29889345996570554 0 0 0
2327 1 -17.939174160001603 -15.574377242139386 -1.5396532313049083 0 0 0
2339 1 -16.50317125718105 -13.541261692094572 -1.538813748470562 0 0 0
2346 1 -18.655591448533652 -13.54121061241301 -0.2944679695843687 0 0 0
2349 1 -18.655591448434894 -13.541210612352813 -2.7827679696352723 0 0 0
2295 1 -13.634021082192696 -15.57463311971256 -1.5403147134783364 0 0 0
2325 1 -15.78666883643437 -15.574496569509941 -0.2956322909473138 0 0 0
2337 1 -15.786668836351703 -15.57449656929741 -2.783932290969959 0 0 0
2338 1 -14.350268479059196 -13.54192638487935 -2.7838306432656017 0 0 0
2341 1 -14.350268478930841 -13.541926384772681 -0.2955306431752266 0 0 0
2294 1 -11.481669938299689 -15.574050493407315 -2.7853396056542166 0 0 0
2297 1 -11.481669938101813 -15.574050493308677 -0.2970396056189129 0 0 0
2298 1 -10.045857253591798 -13.540194816156754 -0.29856486033487595 0 0 0
2300 1 -12.197926472173581 -13.540892513595434 -1.541137102462348 0 0 0
2307 1 -10.045857253490396 -13.540194816018088 -2.7868648603478086 0 0 0
2216 1 -7.176541955567109 -15.574591404303701 -0.29894329441942935 0 0 0
2218 1 -9.329322900950219 -15.573904462096822 -1.5421877938023745 0 0 0
2229 1 -7.176541955571382 -15.574591404106883 -2.7872432944891314 0 0 0
2231 1 -7.8927312038572905 -13.5418242503458 -1.5441019623614995 0 0 0
2139 1 -5.02400260303676 -15.574290415440302 -1.5436628084291788 0 0 0
2144 1 -3.58744639672951 -13.540895639535282 -1.5448377843519159 0 0 0
2230 1 -5.74006949626656 -13.541460345069265 -2.788976199469724 0 0 0
2233 1 -5.740069496083006 -13.541460345047218 -0.3006761993989333 0 0 0
2064 1 -0.7194509369616598 -15.572772264748117 -1.5435635497027655 0 0 0
2138 1 -2.8715831385444393 -15.573690613250648 -2.787960283014153 0 0 0
2141 1 -2.8715831384057213 -15.573690613123063 -0.2996602829767364 0 0 0
2142 1 -1.435312771908373 -13.539448949542052 -0.30006795223385957 0 0 0
2151 1 -1.4353127718133898 -13.539448949445733 -2.7883679521751192 0 0 0
2155 1 -16.510356338197045 -25.74029217572547 3.435224301225062 0 0 0
2156 1 -16.51035633805022 -25.740292175700304 0.9469243014366305 0 0 0
2240 1 -18.662781384945628 -25.74031999226648 2.19101741791618 0 0 0
2154 1 -14.357924220598964 -25.74027875925871 2.1910978614280343 0 0 0
2070 1 -12.205497398594511 -25.74024194186563 3.435230779885771 0 0 0
2075 1 -12.205497398522498 -25.740241941762815 0.9469307797371698 0 0 0
2077 1 -10.053079817390858 -25.74018465179919 2.1910208718677007 0 0 0
2011 1 -7.900667699828879 -25.740122879152572 3.435073302976449 0 0 0
2012 1 -7.900667699849509 -25.74012287919964 0.9467733030848173 0 0 0
1984 1 -3.595854293878459 -25.739955117564122 3.434822277133706 0 0 0
1988 1 -3.5958542938905325 -25.739955117498415 0.9465222769462522 0 0 0
2010 1 -5.748254865127214 -25.740058942567607 2.1908009445858645 0 0 0
1990 1 -1.4434815250639215 -25.739805047449963 2.1905575071302863 0 0 0
2241 1 -17.22656264792569 -23.707093226530244 2.191204361515256 0 0 0
2245 1 -17.94278446050041 -21.673881216895445 3.435537765564807 0 0 0
2254 1 -17.942784460598766 -21.673881216906242 0.9472377654210596 0 0 0
2160 1 -15.074121587356883 -23.70709703763696 3.4353855921149186 0 0 0
2169 1 -15.074121587342708 -23.707097037656208 0.9470855919967962 0 0 0
2171 1 -12.921685299591411 -23.707065726258246 2.191207671906054 0 0 0
2173 1 -13.637877994288408 -21.67390222950905 3.435539744077096 0 0 0
2174 1 -13.637877994388758 -21.673902229483 0.9472397442424295 0 0 0
2256 1 -15.790330118508376 -21.673919231570615 2.191432738714102 0 0 0
2079 1 -10.76926255080883 -23.70700044424527 3.435266201069775 0 0 0
2080 1 -10.769262550782393 -23.707000444272627 0.9469662012479623 0 0 0
2172 1 -11.48544363595077 -21.673827292161764 2.1912500627918328 0 0 0
2016 1 -6.464429062805728 -23.70688076488074 3.4349373177842146 0 0 0
2025 1 -6.464429062728355 -23.70688076482231 0.9466373176992725 0 0 0
2078 1 -8.616850335075583 -23.706929601847825 2.1909691277184287 0 0 0
2084 1 -9.333034461706625 -21.67372976004789 3.4351763334158965 0 0 0
2097 1 -9.333034461793124 -21.673729759927205 0.9468763331958574 0 0 0
2099 1 -7.180602860016013 -21.673705162781637 2.1907535459204595 0 0 0
2027 1 -4.312014971721456 -23.706785152272506 2.1906003972983514 0 0 0
2029 1 -5.02816104021035 -21.673647319386653 3.434630146137553 0 0 0
2030 1 -5.0281610403154255 -21.673647319353815 0.9463301463093311 0 0 0
1991 1 -2.1596424572630695 -23.706596192402245 3.434589960930837 0 0 0
1992 1 -2.1596424573045074 -23.70659619240212 0.9462899609804463 0 0 0
7615 1 -0.0073042548765989 -23.706399554946596 2.1903311743248524 0 0 0
1995 1 -0.7234568846395488 -21.673138369829278 3.434269123832426 0 0 0
2002 1 -0.7234568846806708 -21.67313836969597 0.9459691237154843 0 0 0
2028 1 -2.8757804902263793 -21.673418446337816 2.1902564515071203 0 0 0
2258 1 -16.50656210395792 -19.640743198963676 3.435869276571676 0 0 0
2259 1 -16.506562103909634 -19.64074319902925 0.9475692766870131 0 0 0
2312 1 -18.65903530388832 -19.640638512134995 2.191647646265922 0 0 0
2313 1 -17.2228365778657 -17.607564252435132 2.192145051719359 0 0 0
2257 1 -14.354086447588283 -19.640756533895285 2.191655981621272 0 0 0
2263 1 -15.070334268342988 -17.60762877137185 3.436204609106291 0 0 0
2277 1 -15.070334268356365 -17.607628771399927 0.9479046089770973 0 0 0
2279 1 -12.917814387854946 -17.607592819513112 2.1917199488060555 0 0 0
2178 1 -12.20162564802865 -19.640680240670182 3.435591266085849 0 0 0
2193 1 -12.201625647970067 -19.64068024063412 0.9472912658559131 0 0 0
2195 1 -10.049225629232238 -19.64051622550968 2.1910961683005494 0 0 0
2197 1 -10.765433960497061 -17.607285332143316 3.4353273179141404 0 0 0
2198 1 -10.765433960503604 -17.60728533220762 0.9470273181354443 0 0 0
2101 1 -7.89678672519448 -19.640516569884376 3.4348317927835095 0 0 0
2102 1 -7.896786725259465 -19.64051656989407 0.9465317929158868 0 0 0
2196 1 -8.613006490975897 -17.60727761807213 2.1905388088779723 0 0 0
2106 1 -6.460412521493835 -17.60752571805711 3.434088116115036 0 0 0
2121 1 -6.460412521474 -17.60752571811542 0.9457881159381677 0 0 0
2034 1 -3.591887184735767 -19.640290429765948 3.4341183521946217 0 0 0
2048 1 -3.591887184724255 -19.640290429752664 0.9458183520452629 0 0 0
2100 1 -5.744291682090069 -19.640554543229616 2.1902785386849826 0 0 0
2123 1 -4.307957602431855 -17.607237960009712 2.189512850502781 0 0 0
2050 1 -1.4395700818368253 -19.639904722391837 2.1898038298281013 0 0 0
2051 1 -2.15562080835977 -17.6067329596202 3.4334851415548115 0 0 0
2052 1 -2.1556208083496315 -17.606732959707855 0.9451851417247275 0 0 0
7673 1 -0.0034310032843954397 -17.60617719321718 2.189406540096054 0 0 0
2317 1 -17.939174159969124 -15.574377242147245 3.4369467686302855 0 0 0
2326 1 -17.93917416004342 -15.574377242094032 0.9486467685911224 0 0 0
2330 1 -16.503171257089534 -13.541261692112684 3.437786251553442 0 0 0
2331 1 -16.503171257119305 -13.541261692007 0.9494862517321714 0 0 0
2347 1 -18.655591448398315 -13.541210612293412 2.193832030346999 0 0 0
2281 1 -13.63402108218305 -15.57463311972845 3.4362852864781024 0 0 0
2282 1 -13.63402108228056 -15.574633119641723 0.9479852866653098 0 0 0
2328 1 -15.786668836307287 -15.574496569379985 2.192667709062392 0 0 0
2329 1 -14.350268479044976 -13.541926384875675 2.192769356745188 0 0 0
2280 1 -11.481669938169313 -15.574050493520547 2.191260394310621 0 0 0
2286 1 -12.197926472178425 -13.540892513620607 3.435462897624564 0 0 0
2299 1 -12.197926472184266 -13.540892513732624 0.9471628973018071 0 0 0
2301 1 -10.045857253457438 -13.540194816047388 2.1897351395929405 0 0 0
2202 1 -9.32932290095055 -15.57390446215242 3.4344122061436284 0 0 0
2217 1 -9.329322901039747 -15.573904462110525 0.9461122060143458 0 0 0
2219 1 -7.176541955538372 -15.574591404103547 2.189356705545034 0 0 0
2221 1 -7.892731203803738 -13.541824250367506 3.432498037635465 0 0 0
2222 1 -7.892731203845484 -13.541824250375182 0.9441980378737217 0 0 0
2125 1 -5.024002602995714 -15.574290415380325 3.4329371915804736 0 0 0
2126 1 -5.024002603102801 -15.574290415435335 0.9446371917363773 0 0 0
2130 1 -3.5874463967208228 -13.540895639440816 3.4317622156646364 0 0 0
2143 1 -3.5874463966452836 -13.54089563940585 0.9434622154855046 0 0 0
2220 1 -5.740069496236095 -13.541460345121845 2.187623800556948 0 0 0
2054 1 -0.7194509369528463 -15.572772264700122 3.4330364502704014 0 0 0
2063 1 -0.7194509369537176 -15.572772264657265 0.9447364501435876 0 0 0
2124 1 -2.8715831384700348 -15.573690613239426 2.1886397169765917 0 0 0
2145 1 -1.4353127718219003 -13.539448949387621 2.188232047731626 0 0 0
2153 1 -16.51035633812415 -25.74029217570515 5.923524301355625 0 0 0
2236 1 -18.662781385084813 -25.740319992342712 4.679317417949669 0 0 0
2237 1 -18.66278138500396 -25.74031999224016 7.167617417931589 0 0 0
2152 1 -14.35792422056601 -25.74027875922925 7.16769786148632 0 0 0
2157 1 -14.35792422046697 -25.740278759174036 4.679397861418522 0 0 0
2068 1 -10.053079817568774 -25.74018465199461 4.679320871976137 0 0 0
2069 1 -12.205497398545647 -25.740241941861232 5.923530779725681 0 0 0
2071 1 -10.05307981744948 -25.74018465181439 7.167620871969634 0 0 0
2009 1 -7.900667699821971 -25.740122879175704 5.923373303089049 0 0 0
1983 1 -3.595854293805085 -25.739955117516143 5.9231222768873115 0 0 0
2008 1 -5.748254865143771 -25.740058942537484 7.167400944643948 0 0 0
2013 1 -5.74825486503061 -25.74005894248323 4.679100944558277 0 0 0
1982 1 -1.4434815250977173 -25.73980504747525 4.67885750719359 0 0 0
1985 1 -1.4434815250504682 -25.73980504749936 7.167157507090669 0 0 0
2238 1 -17.226562647987272 -23.707093226555447 7.167804361462819 0 0 0
2242 1 -17.226562647895598 -23.70709322642116 4.67950436145823 0 0 0
2244 1 -17.942784460583198 -21.67388121694225 5.923837765389691 0 0 0
2158 1 -12.9216852996594 -23.70706572644771 4.679507671896991 0 0 0
2159 1 -15.074121587361182 -23.707097037652723 5.923685592014053 0 0 0
2161 1 -12.921685299653491 -23.707065726308038 7.16780767190146 0 0 0
2163 1 -13.637877994285343 -21.673902229501397 5.923839744203775 0 0 0
2243 1 -15.790330118678893 -21.67391923161443 4.679732738681064 0 0 0
2246 1 -15.790330118583777 -21.673919231540747 7.168032738740804 0 0 0
2073 1 -10.769262550819011 -23.707000444314275 5.9235662012355235 0 0 0
2162 1 -11.485443635977964 -21.673827292154325 7.167850062891024 0 0 0
2175 1 -11.485443635925067 -21.673827292022438 4.679550062751108 0 0 0
2015 1 -6.464429062698494 -23.706880764900912 5.9232373177740865 0 0 0
2072 1 -8.616850335087573 -23.706929601899542 7.167569127769034 0 0 0
2081 1 -8.616850334978412 -23.70692960175223 4.679269127759015 0 0 0
2082 1 -7.180602860233742 -21.673705162874 4.679053546048839 0 0 0
2083 1 -9.333034461667692 -21.67372975999104 5.923476333219813 0 0 0
2085 1 -7.180602860042284 -21.673705162775665 7.167353546048614 0 0 0
2014 1 -4.312014971762947 -23.706785152309347 4.67890039739963 0 0 0
2017 1 -4.312014971652842 -23.706785152260945 7.16720039734417 0 0 0
2019 1 -5.028161040229853 -21.67364731936854 5.922930146318089 0 0 0
1986 1 -2.1596424573248583 -23.70659619248806 5.922889961029546 0 0 0
1993 1 -0.007304254818271725 -23.706399554950664 4.678631174275238 0 0 0
7614 1 -0.00730425484848402 -23.706399554995365 7.166931174286144 0 0 0
1994 1 -0.7234568846201019 -21.673138369749307 5.922569123661031 0 0 0
2018 1 -2.875780490211106 -21.67341844632604 7.166856451546566 0 0 0
2031 1 -2.8757804901921977 -21.673418446176658 4.67855645141269 0 0 0
2248 1 -16.506562103921123 -19.640743198989554 5.924169276634541 0 0 0
2308 1 -18.659035303925425 -19.64063851229768 4.67994764640071 0 0 0
2309 1 -18.6590353039792 -19.640638512168877 7.1682476463528575 0 0 0
2310 1 -17.222836577894363 -17.607564252378175 7.168745051693971 0 0 0
2314 1 -17.222836577762468 -17.60756425230726 4.680445051687958 0 0 0
2247 1 -14.354086447603116 -19.640756533851288 7.168255981614897 0 0 0
2260 1 -14.354086447476234 -19.640756533661758 4.679955981646084 0 0 0
2262 1 -15.070334268329452 -17.607628771445878 5.924504608978252 0 0 0
2261 1 -12.917814387958154 -17.607592819745726 4.680019948882424 0 0 0
2264 1 -12.91781438783313 -17.607592819599002 7.1683199488678175 0 0 0
2176 1 -10.049225629377649 -19.640516225594588 4.679396168300757 0 0 0
2177 1 -12.20162564800288 -19.640680240650628 5.923891265809151 0 0 0
2179 1 -10.049225629241556 -19.640516225508378 7.167696168294597 0 0 0
2181 1 -10.765433960512084 -17.607285332277993 5.9236273181639545 0 0 0
2087 1 -7.896786725241337 -19.64051656985999 5.923131792835057 0 0 0
2180 1 -8.613006490993682 -17.607277618093995 7.167138808893973 0 0 0
2199 1 -8.613006490843317 -17.607277618017886 4.67883880885783 0 0 0
2105 1 -6.460412521489133 -17.607525718078435 5.922388115957798 0 0 0
2033 1 -3.5918871847238614 -19.64029042972839 5.9224183520683935 0 0 0
2086 1 -5.744291682040752 -19.64055454323581 7.166878538771575 0 0 0
2103 1 -5.7442916819778365 -19.64055454313096 4.6785785386673036 0 0 0
2104 1 -4.307957602531393 -17.60723796007567 4.677812850546017 0 0 0
2107 1 -4.30795760236932 -17.607237960010295 7.166112850451108 0 0 0
2032 1 -1.4395700819323884 -19.639904722605017 4.678103829928459 0 0 0
2035 1 -1.4395700818849126 -19.639904722493366 7.1664038298033725 0 0 0
2036 1 -2.1556208083573876 -17.606732959643693 5.9217851417544916 0 0 0
7672 1 -0.0034310032371095913 -17.606177193210637 7.166006540049296 0 0 0
7674 1 -0.0034310031696714372 -17.606177193206424 4.677706540054662 0 0 0
2316 1 -17.939174159998704 -15.574377242148445 5.925246768604866 0 0 0
2320 1 -16.503171257173328 -13.541261692009508 5.926086251733642 0 0 0
2344 1 -18.655591448529655 -13.541210612423546 4.682132030329676 0 0 0
2345 1 -18.65559144844407 -13.541210612326793 7.170432030431829 0 0 0
2266 1 -13.634021082160562 -15.574633119716095 5.924585286674321 0 0 0
2315 1 -15.786668836400148 -15.57449656942625 4.680967708981266 0 0 0
2318 1 -15.786668836360024 -15.574496569381592 7.169267709125411 0 0 0
2319 1 -14.350268479066607 -13.541926384889972 7.1693693568089705 0 0 0
2332 1 -14.350268478916488 -13.541926384756419 4.6810693567350805 0 0 0
2265 1 -11.481669938201245 -15.574050493469924 7.167860394330465 0 0 0
2283 1 -11.481669938227693 -15.57405049323252 4.67956039439029 0 0 0
2284 1 -10.045857253632132 -13.54019481613209 4.678035139653692 0 0 0
2285 1 -12.197926472183465 -13.540892513656761 5.923762897273411 0 0 0
2287 1 -10.045857253444394 -13.54019481601499 7.166335139666256 0 0 0
2200 1 -7.176541955678291 -15.574591404294575 4.6776567055176 0 0 0
2201 1 -9.329322900987915 -15.573904462094724 5.922712206022844 0 0 0
2203 1 -7.176541955491694 -15.57459140413187 7.165956705587211 0 0 0
2205 1 -7.892731203853032 -13.541824250316832 5.9207980378814655 0 0 0
2223 1 -5.740069496110509 -13.541460344911528 4.675923800514134 0 0 0
2109 1 -5.024002603063975 -15.574290415456947 5.921237191707965 0 0 0
2129 1 -3.587446396712454 -13.540895639509365 5.920062215458409 0 0 0
2204 1 -5.740069496191199 -13.541460345189412 7.164223800584191 0 0 0
2131 1 -1.4353127718296579 -13.539448949423413 7.164832047788031 0 0 0
2128 1 -1.4353127719596255 -13.539448949548728 4.676532047836496 0 0 0
2127 1 -2.8715831384751134 -15.573690613108473 4.676939716950762 0 0 0
2108 1 -2.8715831385068116 -15.573690613259004 7.165239717043401 0 0 0
2053 1 -0.7194509369412205 -15.572772264707437 5.921336450133852 0 0 0
2582 1 -17.22003974423362 -11.50768702435339 -5.269701831462227 0 0 0
2506 1 -15.06657284276954 -11.509632835381257 -4.02698365320903 0 0 0
2507 1 -15.066572842628567 -11.509632835317541 -6.5152836531085905 0 0 0
2427 1 -10.762855996364765 -11.505682886735439 -4.0320066904581315 0 0 0
2443 1 -10.762855996471561 -11.505682886711735 -6.520306690616243 0 0 0
2505 1 -12.914120765858218 -11.508102133917152 -5.273662364819639 0 0 0
2444 1 -8.609029338220312 -11.509358414194125 -5.278340147863471 0 0 0
2384 1 -4.3032443191926095 -11.508493912285108 -5.2787969872929335 0 0 0
2385 1 -6.456337475313297 -11.508740909030625 -4.034993424533371 0 0 0
2386 1 -6.456337475302656 -11.508740908997789 -6.523293424395171 0 0 0
2358 1 -2.150890575927917 -11.50650017350216 -4.033249299738161 0 0 0
2361 1 -2.1508905758285795 -11.506500173521173 -6.521549299875101 0 0 0
2584 1 -17.9374967985105 -9.47301173154736 -4.023024004867366 0 0 0
2585 1 -17.93749679852666 -9.473011731396227 -6.511324004547419 0 0 0
2589 1 -16.500757277131672 -7.446562911514385 -4.022342419948812 0 0 0
2603 1 -16.500757277519863 -7.446562911639803 -6.510642419882328 0 0 0
2636 1 -18.655487551534268 -7.435543375140282 -5.263238604124484 0 0 0
2511 1 -13.629767125170035 -9.476448272449328 -4.0299974671558 0 0 0
2527 1 -13.629767125282749 -9.47644827265912 -6.518297467694673 0 0 0
2583 1 -15.783270743255086 -9.478096576883749 -5.269487063090759 0 0 0
2604 1 -14.344674208212956 -7.449064376556696 -5.275858695187648 0 0 0
2528 1 -11.480821790150458 -9.469269994590368 -5.277984150440921 0 0 0
2529 1 -10.041749595935753 -7.447858961201781 -5.287900081165244 0 0 0
2530 1 -12.200089228429242 -7.4276282567517935 -4.03705899458188 0 0 0
2531 1 -12.200089228108483 -7.427628256575794 -6.525358994506863 0 0 0
2445 1 -7.173016089174604 -9.475852312249852 -5.282100008402425 0 0 0
2446 1 -9.32544826466302 -9.477642118606381 -4.0374620817154465 0 0 0
2447 1 -9.325448264772835 -9.477642118480182 -6.525762081309722 0 0 0
2451 1 -7.890396913927264 -7.442403852225398 -4.042366441074347 0 0 0
2465 1 -7.890396914045946 -7.44240385224987 -6.530666441127272 0 0 0
2390 1 -5.019426801452621 -9.47675142412266 -4.0368612616137955 0 0 0
2400 1 -5.0194268015417745 -9.476751424116475 -6.525161261801517 0 0 0
2403 1 -3.5800361457069627 -7.447162649728032 -4.0334818266142705 0 0 0
2404 1 -3.5800361457345473 -7.447162649716742 -6.521781826569588 0 0 0
2466 1 -5.7366104745912345 -7.444650179067472 -5.284360749742613 0 0 0
2362 1 -0.7166775463472059 -9.467280286204486 -4.031397873952654 0 0 0
2363 1 -0.7166775463775557 -9.467280286205904 -6.519697873874881 0 0 0
2401 1 -2.8657894898795506 -9.474722899048759 -5.277968462785684 0 0 0
2402 1 -1.434657107493407 -7.426078831151855 -5.274357171218034 0 0 0
2648 1 -17.219445011843536 -5.412142109824851 -5.259989598938625 0 0 0
2650 1 -17.941532874704148 -3.3665619004096543 -3.998277115051188 0 0 0
2651 1 -17.941532873914426 -3.366561900015144 -6.4865771152792995 0 0 0
2605 1 -12.926656991498625 -5.377610761409692 -5.286114603102029 0 0 0
2606 1 -15.055863760310379 -5.430291838326557 -4.037212981672804 0 0 0
2607 1 -15.055863760465726 -5.43029183751187 -6.525512980508998 0 0 0
2611 1 -13.657273853723513 -3.2878375673440967 -4.04883802389484 0 0 0
2617 1 -13.65727385454663 -3.2878375675492637 -6.537138023753082 0 0 0
2649 1 -15.756826859058382 -3.4320472269246114 -5.2996936857588945 0 0 0
2535 1 -10.753404195374149 -5.420668608607874 -4.056917276313701 0 0 0
2545 1 -10.753404195337998 -5.420668608920129 -6.545217276960452 0 0 0
2618 1 -11.471161202706455 -3.414941647311873 -5.332024426200042 0 0 0
2546 1 -8.607788865674456 -5.408381087048857 -5.291787339884392 0 0 0
2547 1 -7.18460228629482 -3.3587052917103706 -5.3033777192670675 0 0 0
2548 1 -9.309109032355924 -3.362276509015581 -4.0468650316778705 0 0 0
2549 1 -9.309109032192744 -3.362276508982304 -6.535165031600614 0 0 0
2468 1 -6.457586149819905 -5.4100205573202995 -4.046000593938948 0 0 0
2469 1 -6.457586149650635 -5.410020557152063 -6.534300593732648 0 0 0
2467 1 -4.290631382960501 -5.42769325252517 -5.274154979266168 0 0 0
2473 1 -4.996827700967157 -3.432669140163208 -4.01586360962345 0 0 0
2479 1 -4.996827700998173 -3.4326691402430844 -6.504163609688171 0 0 0
2407 1 -2.159308833668701 -5.377436348067067 -4.0281145454954554 0 0 0
2410 1 -2.1593088337413073 -5.377436347969311 -6.516414545558907 0 0 0
2411 1 -0.7088968261444278 -3.4021959239289616 -3.9900477421222136 0 0 0
2412 1 -0.7088968262886159 -3.4021959237935393 -6.478347742051105 0 0 0
2480 1 -2.884825078330221 -3.2921011463673664 -5.269756030897812 0 0 0
2655 1 -16.45010094314598 -1.4919846688702612 -4.120216767424948 0 0 0
2657 1 -16.450100943208685 -1.4919846702510053 -6.608516769381558 0 0 0
2663 1 -18.574441773138282 -1.2409586073850463 -5.1999360285069525 0 0 0
2658 1 -14.366224749060514 -1.1104212820622348 -5.2774484228205685 0 0 0
2619 1 -10.037119496937347 -1.366363030535969 -5.228442584941009 0 0 0
2620 1 -12.174189586819676 -1.4076441678505884 -4.157800210421115 0 0 0
2621 1 -12.174189586913853 -1.407644167222626 -6.646100209644393 0 0 0
2553 1 -7.821487440000851 -1.2156195126970113 -4.0942635848591955 0 0 0
2555 1 -7.8214874400898005 -1.2156195126937595 -6.582563584951983 0 0 0
2482 1 -3.629760263747736 -1.1589888781054267 -4.06210889221015 0 0 0
2483 1 -3.6297602636138917 -1.1589888780866284 -6.550408892239153 0 0 0
2556 1 -5.705557912181604 -1.48868046299474 -5.206494500075588 0 0 0
2481 1 -1.4042958104872754 -1.366720169190881 -5.173136802693227 0 0 0
2566 1 -17.220039744315258 -11.507687024495505 -2.7814018317491525 0 0 0
2567 1 -17.220039744256763 -11.507687024363104 -0.2931018315328154 0 0 0
2493 1 -15.066572842654555 -11.509632835309931 -1.5386836531112398 0 0 0
2426 1 -10.762855996499072 -11.505682886793458 -1.5437066905086219 0 0 0
2491 1 -12.914120765840865 -11.508102133936303 -0.2970623647776068 0 0 0
2508 1 -12.91412076582155 -11.508102133716374 -2.7853623645355277 0 0 0
2425 1 -8.609029338301434 -11.509358414420525 -2.790040147965391 0 0 0
2428 1 -8.609029338167685 -11.509358414228755 -0.3017401478499151 0 0 0
2370 1 -4.303244319297281 -11.508493912298528 -0.3021969872939812 0 0 0
2372 1 -6.456337475292261 -11.508740908991161 -1.5466934243239876 0 0 0
2387 1 -4.303244319165639 -11.508493912092522 -2.790496987308198 0 0 0
2357 1 -2.1508905759082535 -11.506500173524806 -1.5449492999436325 0 0 0
2570 1 -17.9374967984519 -9.473011731371836 -1.534724004631452 0 0 0
2588 1 -16.50075727748516 -7.446562911690937 -1.5340424199028695 0 0 0
2626 1 -18.655487551506972 -7.435543375134976 -0.28663860410360453 0 0 0
2637 1 -18.655487551543995 -7.435543374929449 -2.7749386037461985 0 0 0
2510 1 -13.629767125230249 -9.476448272726298 -1.5416974677278277 0 0 0
2568 1 -15.783270743217493 -9.478096576918986 -0.2928870630403552 0 0 0
2586 1 -15.783270743097757 -9.478096576788431 -2.781187062989655 0 0 0
2587 1 -14.344674208172858 -7.449064377016547 -2.787558695873951 0 0 0
2590 1 -14.344674208236432 -7.4490643765374775 -0.29925869510754594 0 0 0
2509 1 -11.480821790450767 -9.46926999476214 -2.789684150500896 0 0 0
2512 1 -11.480821790200896 -9.469269994589162 -0.30138415053969314 0 0 0
2513 1 -10.041749596023141 -7.4478589612209225 -0.3113000811636804 0 0 0
2515 1 -12.200089228186553 -7.4276282566224205 -1.5487589944667313 0 0 0
2532 1 -10.041749595970288 -7.447858960903704 -2.79960008083431 0 0 0
2429 1 -7.17301608918468 -9.475852312229966 -0.3055000083612144 0 0 0
2431 1 -9.325448264701794 -9.477642118545402 -1.5491620813173024 0 0 0
2448 1 -7.1730160891070724 -9.475852312134794 -2.7938000084123393 0 0 0
2450 1 -7.890396913994629 -7.442403852359472 -1.5540664411328204 0 0 0
2389 1 -5.019426801464136 -9.476751424150876 -1.5485612618216238 0 0 0
2394 1 -3.580036145721073 -7.447162649744275 -1.545181826560298 0 0 0
2449 1 -5.736610474603788 -7.444650179243447 -2.7960607498426713 0 0 0
2452 1 -5.736610474531873 -7.444650179107095 -0.3077607498299134 0 0 0
2360 1 -0.7166775463933528 -9.46728028626942 -1.54309787382169 0 0 0
2388 1 -2.8657894899884817 -9.474722899116417 -2.789668462785796 0 0 0
2391 1 -2.865789489854539 -9.474722899043522 -0.301368462749378 0 0 0
2392 1 -1.4346571075004146 -7.426078831154453 -0.2977571712114847 0 0 0
2405 1 -1.4346571073980259 -7.426078831076664 -2.7860571712972537 0 0 0
2638 1 -17.21944501241186 -5.4121421099071245 -2.771689599095353 0 0 0
2639 1 -17.219445011812187 -5.412142109848066 -0.28338959909666916 0 0 0
2642 1 -17.941532873797467 -3.3665619000193274 -1.5099771154081045 0 0 0
2591 1 -12.926656991455348 -5.377610761382222 -0.30951460323923047 0 0 0
2593 1 -15.05586376044233 -5.430291837487294 -1.5489129804497836 0 0 0
2608 1 -12.926656990927766 -5.377610761084068 -2.7978146031373012 0 0 0
2610 1 -13.657273854573646 -3.287837567621487 -1.5605380237426596 0 0 0
2640 1 -15.756826859011639 -3.4320472269867053 -0.32309368578700726 0 0 0
2652 1 -15.756826859505809 -3.4320472259033505 -2.8113936837931512 0 0 0
2534 1 -10.753404195300096 -5.420668608933238 -1.5686172769855737 0 0 0
2609 1 -11.47116120277121 -3.4149416479644303 -2.84372442705703 0 0 0
2612 1 -11.471161202706652 -3.4149416473427796 -0.3554244262243673 0 0 0
2533 1 -8.607788865946176 -5.408381087121489 -2.8034873400295113 0 0 0
2536 1 -8.607788865697316 -5.408381087015662 -0.3151873399893355 0 0 0
2537 1 -7.184602286354861 -3.3587052917553564 -0.326777719297063 0 0 0
2539 1 -9.309109032138215 -3.362276508970126 -1.5585650315657114 0 0 0
2550 1 -7.184602286338725 -3.3587052915051867 -2.815077719174536 0 0 0
2455 1 -6.457586149703831 -5.4100205572394335 -1.5577005937476514 0 0 0
2453 1 -4.2906313829540945 -5.427693252587291 -0.2975549793036093 0 0 0
2470 1 -4.290631382903723 -5.42769325247086 -2.785854979082324 0 0 0
2472 1 -4.996827701044568 -3.4326691402425404 -1.5275636097647776 0 0 0
2406 1 -2.1593088336981388 -5.377436347987034 -1.5398145455130838 0 0 0
2409 1 -0.7088968262614863 -3.4021959239018926 -1.501747742143849 0 0 0
2471 1 -2.884825078384801 -3.2921011462968552 -2.781456030884157 0 0 0
2474 1 -2.8848250783897678 -3.2921011463467327 -0.2931560308006863 0 0 0
2654 1 -16.45010094320622 -1.4919846703812567 -1.6319167693529908 0 0 0
2661 1 -18.57444177317109 -1.240958607242945 -0.22333602847815157 0 0 0
2664 1 -18.574441772659462 -1.2409586074311192 -2.7116360284947727 0 0 0
2653 1 -14.366224749884166 -1.1104212821994894 -2.7891484228918744 0 0 0
2656 1 -14.36622474903051 -1.1104212820770498 -0.3008484227704708 0 0 0
2613 1 -10.037119496902955 -1.3663630304948788 -0.2518425850141404 0 0 0
2615 1 -12.174189586920722 -1.4076441671554558 -1.669500209611915 0 0 0
2622 1 -10.037119496623633 -1.3663630303659353 -2.7401425849690315 0 0 0
2552 1 -7.821487440062426 -1.2156195126990421 -1.6059635850071643 0 0 0
2477 1 -3.6297602636274666 -1.1589888780621986 -1.5738088921825772 0 0 0
2551 1 -5.705557912165813 -1.4886804630044759 -2.718194500347933 0 0 0
2554 1 -5.705557912157236 -1.4886804629856913 -0.22989450008311793 0 0 0
2475 1 -1.4042958105455157 -1.3667201691529491 -0.19653680267646162 0 0 0
2484 1 -1.4042958105650745 -1.3667201691838653 -2.684836802567377 0 0 0
2558 1 -17.22003974430989 -11.507687024522628 2.1951981683513946 0 0 0
2487 1 -15.06657284268064 -11.509632835300273 3.4379163468947587 0 0 0
2492 1 -15.066572842755292 -11.509632835382652 0.9496163467612792 0 0 0
2416 1 -10.76285599644752 -11.505682886775173 3.43289330942187 0 0 0
2417 1 -10.762855996398986 -11.50568288666587 0.9445933095034624 0 0 0
2494 1 -12.914120765817152 -11.508102133684474 2.1912376354404 0 0 0
2415 1 -8.609029338271593 -11.50935841440074 2.186559852049899 0 0 0
2366 1 -6.456337475251572 -11.508740908994021 3.4299065756075886 0 0 0
2371 1 -6.456337475329327 -11.508740909009648 0.9416065755055993 0 0 0
2373 1 -4.3032443191103456 -11.50849391213542 2.1861030127018535 0 0 0
2352 1 -2.15089057590294 -11.50650017346994 3.4316507000990133 0 0 0
2353 1 -2.1508905758460446 -11.506500173528696 0.9433507002513596 0 0 0
2562 1 -17.937496798433912 -9.473011731352065 3.4418759954017086 0 0 0
2569 1 -17.9374967985642 -9.473011731567935 0.9535759951741735 0 0 0
2573 1 -16.50075727746799 -7.446562911728957 3.44255758001481 0 0 0
2574 1 -16.50075727714182 -7.446562911429609 0.9542575801481852 0 0 0
2627 1 -18.655487551515595 -7.435543374911471 2.2016613962924585 0 0 0
2496 1 -13.629767125200225 -9.476448272672672 3.434902532394899 0 0 0
2497 1 -13.629767125266994 -9.476448272400157 0.9466025327685 0 0 0
2571 1 -15.783270743008732 -9.47809657675997 2.1954129369894604 0 0 0
2572 1 -14.344674208184173 -7.4490643770233715 2.1890413041107766 0 0 0
2495 1 -11.480821790389028 -9.469269994736102 2.1869158495416734 0 0 0
2501 1 -12.20008922812365 -7.427628256613095 3.427841005484581 0 0 0
2514 1 -12.200089228413473 -7.427628256706872 0.9395410054257934 0 0 0
2516 1 -10.041749595920182 -7.447858960890112 2.1769999191888396 0 0 0
2421 1 -9.325448264638103 -9.477642118451993 3.42743791862139 0 0 0
2430 1 -9.325448264780514 -9.47764211863453 0.9391379183678021 0 0 0
2432 1 -7.173016089021109 -9.475852312142672 2.182799991650042 0 0 0
2434 1 -7.890396914056912 -7.442403852272899 3.4225335588206383 0 0 0
2435 1 -7.890396913936008 -7.442403852213176 0.934233558982306 0 0 0
2375 1 -5.019426801481385 -9.476751424126318 3.4280387381934374 0 0 0
2376 1 -5.019426801516464 -9.476751424073312 0.9397387383706882 0 0 0
2380 1 -3.580036145715448 -7.447162649666857 3.4314181735000275 0 0 0
2393 1 -3.5800361457265457 -7.447162649760226 0.9431181733452952 0 0 0
2433 1 -5.736610474632472 -7.4446501791877004 2.180539250165798 0 0 0
2355 1 -0.716677546317265 -9.46728028623144 3.433502126155559 0 0 0
2359 1 -0.7166775463843236 -9.46728028617163 0.9452021260057415 0 0 0
2374 1 -2.8657894899851355 -9.474722899143222 2.1869315371387286 0 0 0
2395 1 -1.4346571074474703 -7.426078831079413 2.1905428287443676 0 0 0
2628 1 -17.219445012312118 -5.412142109947283 2.2049104009486262 0 0 0
2632 1 -17.9415328739328 -3.3665619000156854 3.4666228846994933 0 0 0
2641 1 -17.941532874699835 -3.366561900435035 0.9783228849647255 0 0 0
2578 1 -15.05586376036421 -5.43029183754231 3.427687019487413 0 0 0
2592 1 -15.055863760366254 -5.430291838295139 0.9393870183157682 0 0 0
2594 1 -12.926656990984087 -5.3776107612141315 2.178785396875989 0 0 0
2596 1 -13.657273854500417 -3.287837567605113 3.416061976250876 0 0 0
2597 1 -13.65727385375558 -3.2878375672584674 0.9277619761105137 0 0 0
2643 1 -15.756826859391127 -3.432047225899643 2.165206316165627 0 0 0
2518 1 -10.753404195355618 -5.420668608965413 3.407982722994482 0 0 0
2519 1 -10.753404195366723 -5.420668608561157 0.9196827236840487 0 0 0
2595 1 -11.471161202672459 -3.4149416479069123 2.1328755730222326 0 0 0
2517 1 -8.607788865904874 -5.408381087162189 2.1731126600402484 0 0 0
2523 1 -9.309109032151872 -3.3622765089435322 3.4180349683670945 0 0 0
2538 1 -9.309109032390074 -3.362276509039538 0.9297349683170077 0 0 0
2540 1 -7.184602286256299 -3.3587052916363556 2.1615222807857797 0 0 0
2439 1 -6.45758614973125 -5.410020557257888 3.418899406213576 0 0 0
2454 1 -6.457586149711514 -5.410020557248628 0.9305994060343743 0 0 0
2456 1 -4.290631382872063 -5.4276932524621815 2.1907450209034005 0 0 0
2458 1 -4.99682770097645 -3.4326691402751512 3.4490363903564076 0 0 0
2459 1 -4.996827701024654 -3.4326691401034326 0.9607363903544794 0 0 0
2396 1 -2.1593088337051514 -5.37743634806574 3.43678545443775 0 0 0
2397 1 -2.159308833663272 -5.377436347962213 0.9484854545096562 0 0 0
2399 1 -0.7088968261817211 -3.402195923897846 3.47485225790232 0 0 0
2408 1 -0.7088968262397238 -3.402195923817352 0.9865522579013792 0 0 0
2457 1 -2.8848250783643365 -3.2921011463833256 2.1951439691453754 0 0 0
2645 1 -16.450100943249854 -1.491984670268651 3.344683230621737 0 0 0
2646 1 -16.450100943122802 -1.4919846688675482 0.8563832325666251 0 0 0
2662 1 -18.574441772690136 -1.240958607493529 2.2649639715140157 0 0 0
2644 1 -14.366224749886428 -1.1104212821188297 2.187451577150941 0 0 0
2601 1 -12.174189586876263 -1.4076441672410414 3.307099790401978 0 0 0
2614 1 -12.174189586840185 -1.4076441678019036 0.8187997895074072 0 0 0
2616 1 -10.037119496657972 -1.3663630303937326 2.2364574150586547 0 0 0
2542 1 -7.821487440096162 -1.215619512777338 3.3706364149915538 0 0 0
2543 1 -7.821487439995548 -1.2156195126623124 0.8823364151515916 0 0 0
2463 1 -3.6297602636935515 -1.158988878074045 3.402791107838214 0 0 0
2476 1 -3.6297602637281825 -1.1589888781436046 0.9144911078100367 0 0 0
2541 1 -5.7055579122852205 -1.488680462960303 2.2584054996226834 0 0 0
2478 1 -1.4042958105212784 -1.3667201692201045 2.291763197347393 0 0 0
2557 1 -17.220039744313347 -11.507687024542026 7.171798168293515 0 0 0
2559 1 -17.220039744284872 -11.507687024359171 4.683498168398964 0 0 0
2486 1 -15.066572842793867 -11.509632835368846 5.926216346782487 0 0 0
2414 1 -10.762855996391055 -11.505682886734803 5.92119330963316 0 0 0
2485 1 -12.914120765902718 -11.508102133918639 4.679537635262053 0 0 0
2488 1 -12.914120765781815 -11.508102133696061 7.167837635421999 0 0 0
2413 1 -8.609029338218484 -11.509358414392585 7.163159852001315 0 0 0
2418 1 -8.609029338200036 -11.509358414210585 4.674859852143198 0 0 0
2364 1 -4.303244319227882 -11.508493912200882 4.674403012686791 0 0 0
2365 1 -6.45633747530915 -11.508740909000549 5.9182065755387 0 0 0
2367 1 -4.303244319228924 -11.508493912144068 7.162703012722781 0 0 0
2350 1 -2.1508905759232504 -11.506500173505875 5.919950700222276 0 0 0
2561 1 -17.937496798507 -9.473011731606737 5.9301759950905195 0 0 0
2565 1 -16.50075727716039 -7.446562911503077 5.930857580142699 0 0 0
2623 1 -18.655487551575657 -7.4355433751650475 4.689961395841539 0 0 0
2624 1 -18.655487551510205 -7.435543374949436 7.178261396289391 0 0 0
2490 1 -13.629767125245314 -9.476448272442633 5.923202532775779 0 0 0
2560 1 -15.783270743339875 -9.47809657693072 4.683712936941735 0 0 0
2563 1 -15.783270743004845 -9.478096576805987 7.172012937067995 0 0 0
2564 1 -14.344674208240066 -7.449064377018547 7.165641304190514 0 0 0
2575 1 -14.344674208194762 -7.449064376545188 4.677341304854265 0 0 0
2489 1 -11.480821790440855 -9.46926999472561 7.16351584941488 0 0 0
2498 1 -11.480821790238684 -9.46926999461116 4.6752158495419405 0 0 0
2499 1 -10.041749595999812 -7.447858961206164 4.665299918798344 0 0 0
2500 1 -12.200089228468066 -7.427628256726281 5.916141005494642 0 0 0
2502 1 -10.041749595976672 -7.447858960902184 7.153599919190201 0 0 0
2419 1 -7.1730160892399075 -9.475852312217077 4.671099991567089 0 0 0
2420 1 -9.325448264713767 -9.47764211864943 5.9157379183217715 0 0 0
2422 1 -7.173016089040099 -9.475852312083823 7.15939999166352 0 0 0
2424 1 -7.890396913891211 -7.4424038522497185 5.910833558924555 0 0 0
2369 1 -5.019426801437676 -9.4767514240847 5.916338738364592 0 0 0
2379 1 -3.580036145742815 -7.447162649807281 5.919718173332687 0 0 0
2423 1 -5.736610474595324 -7.444650179219496 7.157139250107247 0 0 0
2436 1 -5.736610474575074 -7.444650179088212 4.668839250227854 0 0 0
2354 1 -0.7166775463700945 -9.46728028622729 5.921802126081251 0 0 0
2368 1 -2.8657894899473524 -9.474722899132617 7.16353153723708 0 0 0
2377 1 -2.865789489878606 -9.474722899015111 4.675231537247293 0 0 0
2378 1 -1.434657107454029 -7.426078831162553 4.678842828738155 0 0 0
2381 1 -1.4346571074770182 -7.426078831073516 7.167142828728669 0 0 0
2625 1 -17.219445012305485 -5.412142109958745 7.181510400789836 0 0 0
2629 1 -17.21944501191394 -5.4121421098158535 4.69321040102034 0 0 0
2631 1 -17.94153287461509 -3.3665619004140757 5.954922884852688 0 0 0
2576 1 -12.926656991422592 -5.3776107612878645 4.667085396898776 0 0 0
2577 1 -15.055863760352572 -5.430291838268815 5.915987018396124 0 0 0
2579 1 -12.926656990944114 -5.377610761198939 7.155385396754033 0 0 0
2581 1 -13.65727385379307 -3.2878375673268185 5.90436197611449 0 0 0
2630 1 -15.756826859164265 -3.432047226901233 4.653506314254413 0 0 0
2633 1 -15.75682685935353 -3.4320472259498516 7.1418063161318415 0 0 0
2504 1 -10.753404195289903 -5.420668608568054 5.896282723690761 0 0 0
2580 1 -11.471161202680749 -3.4149416479551125 7.1094755729998695 0 0 0
2598 1 -11.471161202806925 -3.4149416473980265 4.621175573717675 0 0 0
2503 1 -8.60778886591661 -5.408381087098364 7.149712659962229 0 0 0
2520 1 -8.607788865730669 -5.408381086976433 4.661412660004251 0 0 0
2521 1 -7.184602286367193 -3.358705291629615 4.649822280734676 0 0 0
2522 1 -9.309109032304942 -3.3622765090208957 5.9063349683846385 0 0 0
2524 1 -7.184602286300283 -3.3587052916470554 7.138122280830385 0 0 0
2438 1 -6.457586149770835 -5.410020557306935 5.907199406076379 0 0 0
2437 1 -4.290631382969161 -5.4276932525023875 4.679045020777612 0 0 0
2440 1 -4.290631382898312 -5.427693252542763 7.167345020844252 0 0 0
2442 1 -4.99682770105466 -3.432669140085613 5.9373363902661875 0 0 0
2383 1 -2.159308833654608 -5.377436347978137 5.925085454539556 0 0 0
2398 1 -0.7088968261855922 -3.402195923933848 5.963152257811643 0 0 0
2441 1 -2.88482507839149 -3.2921011463766003 7.171743969202041 0 0 0
2460 1 -2.8848250783656155 -3.2921011462810545 4.683443969093821 0 0 0
2660 1 -18.574441772739913 -1.24095860734714 7.241563971607844 0 0 0
2635 1 -16.45010094313796 -1.4919846689770204 5.832983232602171 0 0 0
2659 1 -18.57444177314678 -1.240958607346318 4.753263971463952 0 0 0
2647 1 -14.366224749059183 -1.1104212820377308 4.675751577201161 0 0 0
2634 1 -14.366224749831314 -1.1104212821400086 7.164051577141525 0 0 0
2602 1 -10.037119496629922 -1.3663630304018357 7.213057414972186 0 0 0
2600 1 -12.17418958681636 -1.4076441677397804 5.795399789510368 0 0 0
2599 1 -10.037119496864216 -1.3663630305401075 4.724757415027396 0 0 0
2526 1 -7.821487439994893 -1.215619512708654 5.858936415161398 0 0 0
2544 1 -5.70555791215854 -1.4886804630116675 4.746705499927081 0 0 0
2525 1 -5.7055579122503675 -1.4886804629567645 7.235005499694422 0 0 0
2462 1 -3.62976026375816 -1.158988878140671 5.891091107803498 0 0 0
2464 1 -1.4042958105499033 -1.366720169171975 7.2683631973744225 0 0 0
2461 1 -1.4042958105868433 -1.3667201692282511 4.780063197325006 0 0 0
8040 1 -16.374819960943412 0.5703319449480851 -5.635363384893031 1 0 0
8050 1 -16.265847387454393 3.060791863208042 -5.882214213666604 1 0 0
8068 1 -18.063297335710242 1.8642227174206734 -7.102823148637183 1 0 1
8085 1 -18.063297335309958 1.864222717313592 -4.614523149354982 1 0 0
2966 1 -14.53923992702057 1.712967329243914 -7.044458641101865 0 0 1
2975 1 -14.539239927205221 1.71296732918318 -4.556158641050077 0 0 0
2902 1 -10.968824106030683 1.8558899520871277 -7.138021571096857 0 0 1
2919 1 -10.9688241058757 1.855889952086619 -4.649721570735011 0 0 0
2921 1 -12.711996472925145 0.6314836049588662 -5.7187808556531 0 0 0
2940 1 -12.781583972294772 3.068760632679129 -5.8958136883709615 0 0 0
2836 1 -7.475799627419099 1.8333384315738732 -7.2513810440243 0 0 1
2853 1 -7.47579962743603 1.833338431538146 -4.763081044099548 0 0 0
2855 1 -9.207463287546261 0.6518498171464533 -6.008847143903154 0 0 0
2874 1 -9.222129528165958 3.1238247048910206 -5.9344064130758785 0 0 0
2770 1 -3.952015941656984 1.7554426617683765 -7.258647785483273 0 0 1
2787 1 -3.9520159415488894 1.7554426617574732 -4.770347785561601 0 0 0
2789 1 -5.757243958334185 0.5676491436743055 -6.205146605405686 0 0 0
2808 1 -5.697398487586426 3.0654610879978725 -5.962635026309858 0 0 0
2704 1 -0.4083473648520452 1.8615747536818332 -7.156769425996801 0 0 1
2721 1 -0.4083473648025269 1.8615747536179847 -4.668469425979894 0 0 0
2723 1 -2.1492066784508923 0.6486530017263581 -6.042145999790026 0 0 0
2742 1 -2.202226137641765 3.0942138960420102 -5.93786708112702 0 0 0
8052 1 -16.268435155164994 5.56358153071768 -5.914996831811541 1 0 0
8069 1 -18.022695732419827 4.3327129401143525 -7.157767683345436 1 0 1
8082 1 -18.038518052603965 6.810506627739226 -7.167356297669604 1 0 1
8107 1 -18.02269573234827 4.332712940232798 -4.669467683343679 1 0 0
8108 1 -18.038518052613846 6.81050662772819 -4.679056297833834 1 0 0
2967 1 -14.524367219962532 4.287050345883244 -7.145469789065678 0 0 1
2973 1 -14.518973934032761 6.801939343971303 -7.163674791370585 0 0 1
2985 1 -14.524367220067978 4.287050345917374 -4.657169789002872 0 0 0
2986 1 -14.518973934115934 6.8019393439614655 -4.675374791438501 0 0 0
2903 1 -11.009582231378495 4.322284197972354 -7.162980444430549 0 0 1
2916 1 -11.003079742378645 6.807465430415725 -7.16696230272962 0 0 1
2941 1 -11.00958223127493 4.322284197941286 -4.67468044445636 0 0 0
2942 1 -11.003079742341436 6.807465430378389 -4.678662302655247 0 0 0
2944 1 -12.770020054330672 5.560450767770149 -5.916087285818775 0 0 0
2837 1 -7.4533553917007875 4.323526485400783 -7.181524815654072 0 0 1
2850 1 -7.468737888731636 6.811425587608286 -7.172029308330964 0 0 1
2875 1 -7.453355391757017 4.323526485381096 -4.69322481573251 0 0 0
2876 1 -7.468737888794501 6.811425587611122 -4.683729308348735 0 0 0
2878 1 -9.23313133061791 5.576718716441301 -5.926372944612408 0 0 0
2771 1 -3.955262934431787 4.303011237654208 -7.184680125403292 0 0 1
2784 1 -3.9514708793500595 6.809929367368731 -7.1729664380194125 0 0 1
2809 1 -3.9552629344067904 4.303011237727049 -4.696380125429226 0 0 0
2810 1 -3.951470879332643 6.809929367371202 -4.68466643807014 0 0 0
2812 1 -5.7032546399276525 5.567442853947029 -5.93316446785538 0 0 0
2705 1 -0.43034709777813895 4.33122404300077 -7.165762456981244 0 0 1
2718 1 -0.43247382381645544 6.81722946378729 -7.169397033880441 0 0 1
2743 1 -0.430347097804718 4.331224043005133 -4.677462456929057 0 0 0
2744 1 -0.4324738238415047 6.817229463729071 -4.681097033915156 0 0 0
2746 1 -2.1965818758007742 5.572881550444247 -5.928755103752514 0 0 0
8059 1 -16.27865452634639 8.052394098632673 -5.923490215707635 1 0 0
8061 1 -16.28240726165681 10.540084965161608 -5.9258190860337265 1 0 0
8083 1 -18.04412421637089 9.295204381133507 -7.170078085653512 1 0 1
8123 1 -18.04412421640739 9.295204381157765 -4.681778085599762 1 0 0
2974 1 -14.520184343533424 9.295668222747482 -7.168707999979396 0 0 1
2992 1 -14.520184343489841 9.29566822273711 -4.680407999958789 0 0 0
2917 1 -10.999333945477225 9.296617455589042 -7.169140735660114 0 0 1
2956 1 -12.761255686704521 8.05183057272275 -5.9231256807540555 0 0 0
2957 1 -10.999333945543631 9.296617455575623 -4.680840735732948 0 0 0
2960 1 -12.759924956709268 10.541163215163383 -5.925419160951592 0 0 0
2851 1 -7.4751337112425436 9.29918315639863 -7.170285234036617 0 0 1
2890 1 -9.236868308502583 8.054933045918983 -5.925419008350173 0 0 0
2891 1 -7.475133711256627 9.29918315639534 -4.681985234216472 0 0 0
2894 1 -9.237797519732613 10.54245772263919 -5.925812554677089 0 0 0
2785 1 -3.9532708913538768 9.302219330665666 -7.170736349148211 0 0 1
2824 1 -5.711250051084135 8.057139141837336 -5.927222579277143 0 0 0
2825 1 -3.9532708913673518 9.302219330643299 -4.682436349169179 0 0 0
2828 1 -5.715160988923862 10.545417922429825 -5.926294406411028 0 0 0
2719 1 -0.4332693257407998 9.306281502955894 -7.170299009326709 0 0 1
2758 1 -2.193203276003929 8.060357306742489 -5.926637926629072 0 0 0
2759 1 -0.4332693258073555 9.306281503045026 -4.681999009236856 0 0 0
2762 1 -2.1939353236222687 10.548974240043648 -5.9263989275254545 0 0 0
8064 1 -16.282936608024347 13.028708208560873 -5.926458781870037 1 0 0
8104 1 -18.044468324620542 11.783578681908528 -7.170723884180234 1 0 1
8124 1 -18.04446832462523 11.7835786819022 -4.682423884337772 1 0 0
2984 1 -14.521386906981828 11.78480032144985 -7.170156090255408 0 0 1
2993 1 -14.521386906995458 11.784800321474322 -4.681856090305372 0 0 0
2938 1 -10.999108456361302 11.785965517197106 -7.170084440144399 0 0 1
2958 1 -10.999108456345958 11.785965517130903 -4.681784440165101 0 0 0
2964 1 -12.760440170148744 13.029930657544929 -5.926210669605208 0 0 0
2872 1 -7.477143460493333 11.78798913878528 -7.170323865948358 0 0 1
2892 1 -7.477143460492523 11.787989138791056 -4.682023865903497 0 0 0
2898 1 -9.2384924062127 13.031420860902623 -5.926228430982702 0 0 0
2806 1 -3.9552098641564553 11.791187580382248 -7.170538356931736 0 0 1
2826 1 -3.9552098641413 11.791187580331021 -4.682238356941104 0 0 0
2832 1 -5.716704683900263 13.033922510857566 -5.9263713992408205 0 0 0
2740 1 -0.4333260329095955 11.794262193776182 -7.170659042978354 0 0 1
2760 1 -0.4333260329280694 11.794262193804787 -4.682359043116305 0 0 0
2766 1 -2.1945895704901934 13.036841023949343 -5.926518494453192 0 0 0
8033 1 -16.374819960947406 0.5703319449643789 -0.6587633848620656 1 0 0
8039 1 -16.37481996079808 0.5703319437845052 -3.1470633856872268 1 0 0
8041 1 -16.26584738745394 3.060791863218254 -0.9056142135566767 1 0 0
8042 1 -16.265847387317944 3.0607918635968727 -3.393914213813319 1 0 0
8088 1 -18.063297335772155 1.8642227174357713 -2.1262231486996663 1 0 0
2976 1 -14.539239927041214 1.712967329220774 -2.0678586410501696 0 0 0
2907 1 -12.711996472901388 0.6314836048628003 -0.7421808556038906 0 0 0
2920 1 -12.711996472874086 0.6314836055637275 -3.2304808553480715 0 0 0
2922 1 -10.96882410608978 1.8558899520622345 -2.161421571093903 0 0 0
2924 1 -12.781583972316664 3.0687606327863146 -0.9192136883874726 0 0 0
2925 1 -12.78158397230247 3.0687606324746004 -3.407513688055828 0 0 0
2841 1 -9.207463287548899 0.651849817137271 -1.0322471438166032 0 0 0
2854 1 -9.207463287717113 0.6518498170899875 -3.520547143834024 0 0 0
2856 1 -7.4757996273949665 1.8333384315001933 -2.2747810440674616 0 0 0
2858 1 -9.222129528200037 3.1238247048561383 -0.957806413104309 0 0 0
2859 1 -9.222129528270477 3.1238247047662577 -3.446106413195512 0 0 0
2775 1 -5.757243958295377 0.567649143711246 -1.228546605445076 0 0 0
2788 1 -5.757243958310032 0.5676491436915146 -3.7168466054340445 0 0 0
2790 1 -3.952015941614385 1.7554426617617398 -2.282047785558096 0 0 0
2792 1 -5.6973984875825145 3.0654610879189543 -0.9860350262997672 0 0 0
2793 1 -5.697398487524721 3.0654610879892292 -3.4743350263368242 0 0 0
2709 1 -2.1492066784036727 0.648653001684515 -1.065545999749498 0 0 0
2722 1 -2.149206678378948 0.6486530017534309 -3.5538459998683463 0 0 0
2724 1 -0.40834736473547684 1.8615747536028842 -2.1801694260156697 0 0 0
2726 1 -2.2022261375865115 3.094213896072394 -0.9612670811173976 0 0 0
2727 1 -2.202226137610214 3.094213896042154 -3.4495670811781776 0 0 0
8044 1 -16.26843515516368 5.563581530769509 -0.9383968318229884 1 0 0
8051 1 -16.26843515517852 5.563581530630568 -3.4266968319471474 1 0 0
8089 1 -18.022695732433938 4.332712940172096 -2.1811676833560285 1 0 0
8111 1 -18.038518052584273 6.810506627763876 -2.190756297757969 1 0 0
2977 1 -14.524367219909832 4.287050345932403 -2.168869789078231 0 0 0
2987 1 -14.518973934021018 6.801939343947475 -2.187074791360835 0 0 0
2923 1 -11.009582231408883 4.322284197931981 -2.186380444416421 0 0 0
2929 1 -12.770020054364489 5.560450767767803 -0.9394872857800202 0 0 0
2943 1 -12.7700200543633 5.560450767802681 -3.427787285638172 0 0 0
2945 1 -11.003079742409861 6.807465430370906 -2.19036230271633 0 0 0
2857 1 -7.4533553917300335 4.323526485434486 -2.2049248157399224 0 0 0
2863 1 -9.23313133065388 5.576718716448267 -0.9497729445600325 0 0 0
2877 1 -9.233131330631394 5.576718716449535 -3.4380729446580265 0 0 0
2879 1 -7.468737888785489 6.811425587609898 -2.1954293084062884 0 0 0
2791 1 -3.9552629343819645 4.303011237725409 -2.208080125498986 0 0 0
2797 1 -5.703254639942732 5.567442853881844 -0.9565644678491235 0 0 0
2811 1 -5.703254639980881 5.567442853960798 -3.4448644677412346 0 0 0
2813 1 -3.9514708793660067 6.809929367346017 -2.1963664380517978 0 0 0
2725 1 -0.43034709778051916 4.331224042998022 -2.1891624568986585 0 0 0
2731 1 -2.196581875802299 5.572881550449461 -0.9521551036771435 0 0 0
2745 1 -2.1965818757948936 5.57288155038157 -3.4404551037020807 0 0 0
2747 1 -0.43247382380141425 6.817229463732293 -2.192797033793655 0 0 0
8053 1 -16.278654526331227 8.052394098513519 -0.9468902157557134 1 0 0
8054 1 -16.278654526358675 8.05239409871082 -3.4351902157580985 1 0 0
8056 1 -16.282407261574154 10.540084965157611 -0.9492190860250165 1 0 0
8060 1 -16.282407261588457 10.540084965005185 -3.43751908606014 1 0 0
8112 1 -18.044124216373255 9.295204381160364 -2.1934780856506846 1 0 0
2988 1 -14.520184343508294 9.29566822272175 -2.192107999963102 0 0 0
2946 1 -10.99933394550796 9.296617455581098 -2.192540735642029 0 0 0
2947 1 -12.761255686712811 8.051830572671491 -0.9465256807586694 0 0 0
2948 1 -12.761255686709656 8.051830572671058 -3.4348256806705204 0 0 0
2952 1 -12.759924956698722 10.54116321516888 -0.9488191609552693 0 0 0
2959 1 -12.759924956728344 10.5411632151751 -3.437119160887024 0 0 0
2880 1 -7.475133711242688 9.299183156393449 -2.193685234050903 0 0 0
2881 1 -9.236868308496854 8.054933045954446 -0.9488190083041625 0 0 0
2882 1 -9.236868308532927 8.054933045896632 -3.43711900828773 0 0 0
2886 1 -9.237797519832657 10.54245772267216 -0.9492125547054341 0 0 0
2893 1 -9.23779751973781 10.542457722751088 -3.437512554707324 0 0 0
2814 1 -3.9532708913247787 9.30221933064375 -2.194136349205711 0 0 0
2815 1 -5.711250051056018 8.057139141870653 -0.950622579286188 0 0 0
2816 1 -5.711250051035511 8.057139141808802 -3.4389225792973175 0 0 0
2820 1 -5.715160988939695 10.545417922439945 -0.9496944064904533 0 0 0
2827 1 -5.715160988908022 10.545417922478048 -3.437994406433492 0 0 0
2748 1 -0.4332693257965165 9.30628150302839 -2.193699009357543 0 0 0
2749 1 -2.1932032760171323 8.0603573066436 -0.9500379266621178 0 0 0
2750 1 -2.193203275939248 8.060357306723255 -3.43833792662234 0 0 0
2754 1 -2.193935323638944 10.54897424003959 -0.9497989275495591 0 0 0
2761 1 -2.193935323606528 10.548974239984732 -3.438098927589657 0 0 0
8062 1 -16.282936607967915 13.028708208525833 -0.9498587818741687 1 0 0
8063 1 -16.28293660799045 13.028708208617871 -3.4381587818471266 1 0 0
8127 1 -18.04446832459078 11.783578681885173 -2.1941238842759354 1 0 0
2994 1 -14.521386907024988 11.784800321504072 -2.193556090314778 0 0 0
2961 1 -10.999108456357282 11.785965517081092 -2.193484440189334 0 0 0
2962 1 -12.760440170113212 13.029930657584265 -0.9496106695497214 0 0 0
2963 1 -12.760440170160942 13.029930657442408 -3.4379106695818984 0 0 0
2895 1 -7.477143460502005 11.787989138792904 -2.1937238659686114 0 0 0
2896 1 -9.238492406149204 13.031420860868089 -0.9496284310179122 0 0 0
2897 1 -9.238492406152671 13.031420860747476 -3.4379284309697167 0 0 0
2829 1 -3.955209864130753 11.791187580334016 -2.1939383570186455 0 0 0
2830 1 -5.716704683917388 13.033922510830681 -0.9497713992597614 0 0 0
2831 1 -5.716704683896183 13.033922510765056 -3.438071399205526 0 0 0
2763 1 -0.4333260328940537 11.794262193839847 -2.1940590430118903 0 0 0
2764 1 -2.1945895704903657 13.036841023996093 -0.9499184943992833 0 0 0
2765 1 -2.1945895704619574 13.036841023940427 -3.438218494386396 0 0 0
8032 1 -16.374819960802455 0.5703319438092532 1.8295366143236078 1 0 0
8035 1 -16.26584738731355 3.0607918636069034 1.5826857861096988 1 0 0
8071 1 -18.063297335311297 1.8642227172838084 0.3620768506971719 1 0 0
8074 1 -18.063297335716236 1.8642227174558208 2.850376851331649 1 0 0
2968 1 -14.539239927329302 1.7129673292115757 0.4204413588126868 0 0 0
2969 1 -14.539239926926601 1.7129673291904162 2.908741359017554 0 0 0
2905 1 -10.968824105847341 1.8558899521075312 0.32687842927421895 0 0 0
2906 1 -12.711996472807005 0.6314836055964227 1.7461191446863327 0 0 0
2908 1 -10.968824106041827 1.8558899520572363 2.8151784289104813 0 0 0
2911 1 -12.78158397222078 3.068760632469126 1.5690863118509046 0 0 0
2839 1 -7.475799627467538 1.8333384316094496 0.21351895589657255 0 0 0
2840 1 -9.207463287640369 0.6518498171445061 1.4560528561423147 0 0 0
2842 1 -7.475799627420891 1.8333384315271921 2.7018189559589416 0 0 0
2845 1 -9.22212952826704 3.123824704808617 1.5304935867924234 0 0 0
2773 1 -3.9520159415976295 1.7554426618076742 0.20625221448929945 0 0 0
2774 1 -5.757243958307179 0.567649143594178 1.2597533946185544 0 0 0
2776 1 -3.9520159415906586 1.7554426617672718 2.6945522144572673 0 0 0
2779 1 -5.697398487555136 3.0654610880227446 1.5022649737169236 0 0 0
2707 1 -0.4083473648714536 1.8615747536487988 0.3081305740552802 0 0 0
2708 1 -2.149206678446977 0.6486530017648975 1.4227540001991308 0 0 0
2710 1 -0.4083473647919689 1.8615747536251879 2.79643057398144 0 0 0
2713 1 -2.202226137611532 3.0942138960604226 1.5270329188485758 0 0 0
8043 1 -16.268435155121693 5.563581530544642 1.5499031680583133 1 0 0
8075 1 -18.022695732451837 4.332712940158451 2.7954323165294204 1 0 0
8092 1 -18.022695732296256 4.332712940195651 0.3071323167810944 1 0 0
8093 1 -18.038518052557535 6.810506627698254 0.29754370218773923 1 0 0
8096 1 -18.03851805264579 6.810506627751262 2.7858437023085982 1 0 0
2970 1 -14.524367219933163 4.287050345911616 2.8077302109243587 0 0 0
2978 1 -14.524367220079654 4.287050345899534 0.3194302110612381 0 0 0
2979 1 -14.518973934065134 6.80193934396893 0.3012252086096289 0 0 0
2980 1 -14.518973934034248 6.801939343989189 2.7895252086009075 0 0 0
2909 1 -11.009582231341989 4.322284197952595 2.7902195556084135 0 0 0
2926 1 -11.009582231276667 4.3222841979669955 0.30191955553440963 0 0 0
2927 1 -11.003079742340232 6.807465430419654 0.29793769729865527 0 0 0
2928 1 -12.770020054302538 5.560450767847908 1.548812714263935 0 0 0
2930 1 -11.003079742360601 6.80746543037632 2.7862376972577607 0 0 0
2843 1 -7.453355391715839 4.323526485417253 2.7716751843570426 0 0 0
2860 1 -7.4533553917626385 4.323526485370409 0.28337518424165775 0 0 0
2861 1 -7.4687378887597085 6.811425587620675 0.29287069166116103 0 0 0
2862 1 -9.23313133063552 5.57671871651602 1.5385270553400032 0 0 0
2864 1 -7.468737888758666 6.81142558759522 2.7811706916005283 0 0 0
2777 1 -3.9552629344556722 4.3030112377402245 2.7685198745850292 0 0 0
2794 1 -3.955262934420381 4.303011237648366 0.28021987459794684 0 0 0
2795 1 -3.951470879337156 6.809929367361331 0.2919335619805858 0 0 0
2796 1 -5.703254639927552 5.567442853963419 1.5317355321790784 0 0 0
2798 1 -3.9514708793571156 6.809929367373489 2.780233561928969 0 0 0
2711 1 -0.4303470977880222 4.331224043020272 2.7874375429856983 0 0 0
2728 1 -0.4303470977892327 4.331224043003023 0.29913754308863055 0 0 0
2729 1 -0.4324738238567899 6.8172294637781885 0.29550296606872634 0 0 0
2730 1 -2.1965818758228495 5.572881550421051 1.5361448962435085 0 0 0
2732 1 -0.43247382383101385 6.817229463732396 2.7838029661444685 0 0 0
8046 1 -16.278654526344713 8.052394098709572 1.5414097842686247 1 0 0
8055 1 -16.282407261667018 10.540084965091443 1.53908091393058 1 0 0
8097 1 -18.04412421641882 9.29520438111817 2.783121914291313 1 0 0
8115 1 -18.044124216363937 9.295204381146942 0.294821914430734 1 0 0
2981 1 -14.52018434346915 9.295668222730715 2.784492000035277 0 0 0
2989 1 -14.520184343559132 9.29566822275993 0.29619200001082635 0 0 0
2931 1 -10.999333945557355 9.296617455586428 2.7840592643304447 0 0 0
2933 1 -12.761255686674188 8.051830572683153 1.5417743192639883 0 0 0
2949 1 -10.999333945453122 9.29661745558307 0.2957592642748017 0 0 0
2951 1 -12.759924956695414 10.541163215207336 1.5394808390755983 0 0 0
2865 1 -7.475133711210654 9.299183156396303 2.7829147658525226 0 0 0
2867 1 -9.236868308502627 8.05493304583645 1.5394809916066434 0 0 0
2883 1 -7.475133711251927 9.299183156398014 0.2946147658563288 0 0 0
2885 1 -9.237797519731973 10.542457722695083 1.5390874453055274 0 0 0
2799 1 -3.953270891381877 9.302219330636378 2.7824636508199725 0 0 0
2801 1 -5.711250051060944 8.057139141799142 1.5376774207208095 0 0 0
2817 1 -3.953270891329199 9.302219330654 0.2941636508098541 0 0 0
2819 1 -5.715160988926848 10.545417922469019 1.538605593581759 0 0 0
2733 1 -0.43326932580204214 9.306281503041284 2.7829009907044524 0 0 0
2735 1 -2.193203275998767 8.060357306764537 1.5382620733499408 0 0 0
2751 1 -0.43326932573235316 9.306281502964692 0.29460099076066326 0 0 0
2753 1 -2.193935323612373 10.548974240014353 1.5385010724688362 0 0 0
8058 1 -16.28293660801822 13.028708208573297 1.538441218158502 1 0 0
8116 1 -18.04446832460362 11.783578681879764 0.2941761157324466 1 0 0
8119 1 -18.044468324630635 11.783578681896191 2.7824761157271354 1 0 0
2990 1 -14.521386906998822 11.784800321444775 0.29474390978156373 0 0 0
2991 1 -14.521386906985349 11.784800321473963 2.7830439097271533 0 0 0
2950 1 -10.999108456342315 11.785965517192224 0.2948155599034174 0 0 0
2953 1 -10.99910845635075 11.78596551714412 2.783115559779777 0 0 0
2955 1 -12.760440170161846 13.029930657496209 1.5386893304276796 0 0 0
2884 1 -7.47714346049975 11.787989138789433 0.2945761340825716 0 0 0
2887 1 -7.47714346050303 11.787989138790774 2.7828761340553068 0 0 0
2889 1 -9.238492406212142 13.031420860844877 1.5386715689973351 0 0 0
2818 1 -3.9552098641568953 11.791187580381331 0.29436164307021184 0 0 0
2821 1 -3.955209864168973 11.791187580313789 2.7826616430559086 0 0 0
2823 1 -5.716704683906093 13.03392251083343 1.538528600746251 0 0 0
2752 1 -0.4333260328986861 11.794262193779193 0.29424095695880503 0 0 0
2755 1 -0.4333260329185923 11.794262193809995 2.7825409569737944 0 0 0
2757 1 -2.1945895704940845 13.03684102397456 1.53838150556567 0 0 0
8029 1 -16.37481996077224 0.5703319438273748 6.806136614372745 1 0 0
8030 1 -16.374819960973078 0.5703319448825807 4.317836615094105 1 0 0
8031 1 -16.265847387318807 3.0607918636157545 6.559285786206107 1 0 0
8034 1 -16.26584738744281 3.060791863162594 4.070985786458598 1 0 0
8065 1 -18.063297335347475 1.8642227172638228 5.338676850637752 1 0 0
2965 1 -14.539239927365232 1.7129673291519996 5.397041358863853 0 0 0
2899 1 -10.968824105878928 1.8558899520894718 5.303478429265089 0 0 0
2900 1 -12.711996472799273 0.6314836054938217 6.722719144685499 0 0 0
2901 1 -12.711996472974072 0.6314836049653447 4.234419144336497 0 0 0
2904 1 -12.781583972252971 3.0687606325630186 6.545686311786254 0 0 0
2910 1 -12.781583972357893 3.0687606326869834 4.057386311708565 0 0 0
2833 1 -7.475799627421184 1.83333843153856 5.1901189558607195 0 0 0
2834 1 -9.207463287627789 0.6518498171236959 6.432652856243181 0 0 0
2835 1 -9.207463287619174 0.6518498170694618 3.944352856147984 0 0 0
2838 1 -9.222129528272934 3.1238247047832353 6.507093586739313 0 0 0
2844 1 -9.22212952817923 3.123824704852739 4.018793586926659 0 0 0
2767 1 -3.9520159415990195 1.755442661751538 5.182852214439309 0 0 0
2768 1 -5.757243958265672 0.56764914357779 6.236353394604393 0 0 0
2769 1 -5.757243958366154 0.567649143804352 3.7480533945225645 0 0 0
2772 1 -5.697398487540201 3.0654610879202058 6.478864973738996 0 0 0
2778 1 -5.697398487560054 3.065461087966846 3.990564973652294 0 0 0
2701 1 -0.4083473647964442 1.8615747536006053 5.284730573996083 0 0 0
2702 1 -2.149206678396781 0.6486530016975065 6.399354000230996 0 0 0
2703 1 -2.1492066784010926 0.6486530017023587 3.9110540001766414 0 0 0
2706 1 -2.2022261375913303 3.0942138960383043 6.503632918868094 0 0 0
2712 1 -2.2022261376648538 3.094213896060155 4.015332918855317 0 0 0
8036 1 -16.26843515514868 5.563581530584354 6.526503168022734 1 0 0
8037 1 -16.26843515516407 5.563581530796533 4.038203168184197 1 0 0
8078 1 -18.02269573229947 4.3327129402398 5.283732316765445 1 0 0
8079 1 -18.038518052524825 6.810506627700486 5.274143702108926 1 0 0
2971 1 -14.524367220008473 4.287050345938472 5.296030210997778 0 0 0
2972 1 -14.518973934059265 6.801939343937529 5.2778252085885935 0 0 0
2912 1 -11.009582231337257 4.322284197921966 5.278519555519482 0 0 0
2913 1 -11.003079742364731 6.807465430371437 5.274537697365146 0 0 0
2914 1 -12.770020054361403 5.560450767863528 6.5254127143248875 0 0 0
2915 1 -12.77002005434881 5.560450767738665 4.037112714262141 0 0 0
2846 1 -7.453355391759868 4.323526485404926 5.259975184161077 0 0 0
2847 1 -7.468737888788245 6.811425587618785 5.269470691640257 0 0 0
2848 1 -9.233131330675999 5.57671871650938 6.5151270554043945 0 0 0
2849 1 -9.233131330603673 5.576718716372306 4.026827055404872 0 0 0
2780 1 -3.955262934386041 4.303011237725763 5.256819874530466 0 0 0
2781 1 -3.9514708793407265 6.809929367362992 5.268533561955226 0 0 0
2782 1 -5.703254639924797 5.567442853902866 6.508335532245419 0 0 0
2783 1 -5.703254639988203 5.567442853940464 4.020035532187915 0 0 0
2714 1 -0.43034709781999464 4.33122404300693 5.275737543179016 0 0 0
2715 1 -0.43247382381390326 6.817229463728486 5.2721029661565 0 0 0
2716 1 -2.196581875791846 5.572881550422638 6.512744896261246 0 0 0
2717 1 -2.196581875818584 5.572881550403 4.024444896334618 0 0 0
8038 1 -16.27865452631867 8.052394098602655 6.518009784250176 1 0 0
8045 1 -16.27865452633677 8.052394098618976 4.029709784280535 1 0 0
8047 1 -16.282407261576274 10.540084965096266 6.515680913945181 1 0 0
8048 1 -16.28240726156739 10.540084965065459 4.0273809139706485 1 0 0
8100 1 -18.044124216338684 9.295204381156847 5.271421914439573 1 0 0
2982 1 -14.520184343505383 9.295668222729347 5.272792000039088 0 0 0
2918 1 -12.761255686691399 8.051830572623436 6.518374319312839 0 0 0
2932 1 -12.761255686696803 8.051830572720315 4.030074319272889 0 0 0
2934 1 -10.999333945493673 9.29661745558411 5.272359264301755 0 0 0
2936 1 -12.75992495668861 10.541163215209783 6.516080839044856 0 0 0
2937 1 -12.759924956711334 10.541163215139084 4.0277808390874235 0 0 0
2852 1 -9.236868308505755 8.054933045866939 6.516080991677272 0 0 0
2866 1 -9.236868308499247 8.054933045956513 4.027780991726329 0 0 0
2868 1 -7.475133711241511 9.2991831563795 5.271214765871653 0 0 0
2870 1 -9.237797519837533 10.542457722744029 6.5156874452880675 0 0 0
2871 1 -9.237797519727103 10.542457722656241 4.027387445306259 0 0 0
2786 1 -5.711250051033362 8.057139141833481 6.514277420730016 0 0 0
2800 1 -5.711250051017821 8.057139141828833 4.02597742067892 0 0 0
2802 1 -3.9532708913217705 9.30221933064869 5.270763650801922 0 0 0
2804 1 -5.715160988943144 10.545417922474323 6.515205593538599 0 0 0
2805 1 -5.7151609889264545 10.54541792243788 4.026905593570196 0 0 0
2720 1 -2.193203276015884 8.0603573066707 6.514862073342471 0 0 0
2734 1 -2.1932032759451467 8.06035730669096 4.026562073422402 0 0 0
2736 1 -0.43326932581759026 9.30628150303107 5.271200990722492 0 0 0
2738 1 -2.193935323646426 10.548974240005895 6.515101072443437 0 0 0
2739 1 -2.193935323633229 10.54897423999289 4.026801072439387 0 0 0
8049 1 -16.282936607975678 13.028708208556429 6.515041218106398 1 0 0
8057 1 -16.282936608001837 13.028708208585767 4.02674121814428 1 0 0
8101 1 -18.04446832458923 11.783578681854355 5.270776115663999 1 0 0
2983 1 -14.521386907026493 11.78480032150348 5.271343909666165 0 0 0
2935 1 -10.999108456335698 11.785965517090244 5.271415559872818 0 0 0
2939 1 -12.760440170098274 13.029930657551287 6.515289330446483 0 0 0
2954 1 -12.76044017017214 13.029930657488855 4.026989330419308 0 0 0
2869 1 -7.4771434605342675 11.787989138782583 5.2711761340741345 0 0 0
2873 1 -9.23849240615091 13.031420860811089 6.515271568987977 0 0 0
2888 1 -9.23849240615007 13.031420860817455 4.026971569043779 0 0 0
2803 1 -3.955209864130306 11.791187580336663 5.270961642976557 0 0 0
2807 1 -5.71670468394297 13.033922510778718 6.515128600746567 0 0 0
2822 1 -5.716704683911018 13.033922510804645 4.026828600772743 0 0 0
2737 1 -0.43332603291450333 11.794262193819469 5.2708409569198444 0 0 0
2741 1 -2.1945895705046543 13.036841024031357 6.514981505555388 0 0 0
2756 1 -2.1945895704635143 13.036841023930501 4.026681505604424 0 0 0
8436 1 -16.28255523108331 15.518010319350601 -5.92665836765204 1 0 0
8455 1 -18.04359403276164 14.273122624100376 -7.170881393416162 1 0 1
8461 1 -18.04282285323518 16.76282509512911 -7.170919689695056 1 0 1
8480 1 -18.04359403267001 14.273122624149513 -4.682581393386943 1 0 0
8481 1 -18.042822853193233 16.762825095191975 -4.682619689748922 1 0 0
3289 1 -14.521758543852862 14.273731454400739 -7.170621466890657 0 0 1
3293 1 -14.521648316496604 16.76296496036415 -7.170795335488537 0 0 1
3304 1 -14.521758543840384 14.273731454356843 -4.682321466972196 0 0 0
3305 1 -14.521648316489358 16.762964960404492 -4.6824953354973236 0 0 0
3223 1 -10.999680973005464 14.275042665547964 -7.170520209924765 0 0 1
3229 1 -11.000014302007072 16.7640448709525 -7.170728952006838 0 0 1
3248 1 -10.999680972974662 14.275042665519937 -4.6822202099873 0 0 0
3249 1 -11.000014302072307 16.764044871005545 -4.682428951902767 0 0 0
3251 1 -12.760818425072328 15.518875322802128 -5.926522194990751 0 0 0
3157 1 -7.477942206910207 14.276932153518965 -7.1705596627335755 0 0 1
3163 1 -7.478222639839018 16.76565952915432 -7.1707297543560315 0 0 1
3182 1 -7.477942206879356 14.276932153516334 -4.682259662827855 0 0 0
3183 1 -7.478222639904401 16.76565952917149 -4.682429754355091 0 0 0
3185 1 -9.239016245063363 15.520380260858287 -5.926488931999902 0 0 0
3091 1 -3.9559501871260734 14.27942654519174 -7.170666456212136 0 0 1
3097 1 -3.9559662518685763 16.76743632396884 -7.170782977119587 0 0 1
3116 1 -3.9559501871563083 14.279426545174646 -4.682366456283727 0 0 0
3117 1 -3.955966251819956 16.76743632399528 -4.682482977156974 0 0 0
3119 1 -5.717164920897131 15.522394281934568 -5.9265370855609945 0 0 0
3025 1 -0.4330852739181854 14.281489780682065 -7.170805385266655 0 0 1
3031 1 -0.43281702900548985 16.768710658927734 -7.170871322361082 0 0 1
3050 1 -0.43308527395054985 14.281489780625158 -4.682505385172992 0 0 0
3051 1 -0.43281702894875557 16.76871065896375 -4.682571322530548 0 0 0
3053 1 -2.194614456597638 15.524403106356637 -5.926633331692413 0 0 0
8445 1 -16.282099313123364 18.00749821157844 -5.926729492223349 1 0 0
8447 1 -16.28176531856938 20.496892797909425 -5.926758301971809 1 0 0
8462 1 -18.042371795988114 19.252362756285045 -7.170929299234627 1 0 1
8502 1 -18.042371795960012 19.252362756276387 -4.682629299170482 1 0 0
3294 1 -14.521375554580045 19.252291596259667 -7.170868356051439 0 0 1
3315 1 -14.521375554542377 19.252291596253517 -4.682568356100533 0 0 0
3230 1 -10.999981507700038 19.253025961572146 -7.170831377742963 0 0 1
3269 1 -12.760824140853673 18.007999905561157 -5.926658423221053 0 0 0
3270 1 -10.999981507638221 19.25302596160376 -4.6825313778827145 0 0 0
3273 1 -12.760603673430367 20.497139041817775 -5.926722001659342 0 0 0
3164 1 -7.478142910977369 19.254217024839054 -7.170827285801312 0 0 1
3203 1 -9.239173989979317 18.009212175274797 -5.926631755232799 0 0 0
3204 1 -7.47814291102868 19.25421702482695 -4.68252728584049 0 0 0
3207 1 -9.239008761064953 20.497958013735293 -5.9267062641098684 0 0 0
3098 1 -3.955716698159784 19.255410818725153 -7.170853896884028 0 0 1
3137 1 -5.717129690056117 18.010714415947028 -5.926650325331369 0 0 0
3138 1 -3.9557166981339402 19.255410818694557 -4.68255389691379 0 0 0
3141 1 -5.716866092477316 20.49897072378255 -5.926714254817716 0 0 0
3032 1 -0.43260878868737546 19.256194790906225 -7.170902607562366 0 0 1
3071 1 -2.194377203091696 18.012010006455135 -5.92670388861457 0 0 0
3072 1 -0.432608788704032 19.256194790905468 -4.68260260759772 0 0 0
3075 1 -2.1941042328969265 20.49978695663905 -5.926742363574254 0 0 0
8452 1 -16.28155532314314 22.986089732727677 -5.92677112856863 1 0 0
8477 1 -18.042172030856012 21.741655951242592 -7.1709318518404555 1 0 1
8478 1 -18.042119805697137 24.23071426634432 -7.17093260061307 1 0 1
8503 1 -18.04217203089855 21.74165595125264 -4.682631851923631 1 0 0
8516 1 -18.04211980568862 24.23071426641006 -4.6826326005859675 1 0 0
3302 1 -14.521088695571965 21.741523964078656 -7.1709016314409775 0 0 1
3303 1 -14.520840102197079 24.230584035550137 -7.170917530948174 0 0 1
3316 1 -14.521088695578875 21.741523963995654 -4.682601631384943 0 0 0
3322 1 -14.520840102267126 24.230584035535696 -4.682617530976763 0 0 0
3245 1 -10.99971658780378 21.741948216545467 -7.170882213109551 0 0 1
3246 1 -10.999365452211778 24.230780459252834 -7.170907585377939 0 0 1
3271 1 -10.999716587882567 21.74194821648998 -4.682582212998927 0 0 0
3283 1 -12.760299489736724 22.986177563273763 -5.926752770599369 0 0 0
3284 1 -10.999365452165762 24.23078045929299 -4.682607585391674 0 0 0
3179 1 -7.477846609935579 21.74270870393247 -7.170879094454936 0 0 1
3180 1 -7.477465384531504 24.231194107524423 -7.170905765831294 0 0 1
3205 1 -7.47784660995559 21.742708703931825 -4.682579094393288 0 0 0
3217 1 -9.238669274704153 22.986646168001872 -5.92674431672552 0 0 0
3218 1 -7.477465384513762 24.231194107620766 -4.682605765907746 0 0 0
3113 1 -3.955399379005845 21.74345970419064 -7.170892413466396 0 0 1
3114 1 -3.9550810866258694 24.231623593981457 -7.170912435451315 0 0 1
3139 1 -3.9553993790386186 21.74345970417049 -4.68259241341838 0 0 0
3151 1 -5.716513634071917 22.98725396070476 -5.9267480052811115 0 0 0
3152 1 -3.9550810866492667 24.23162359397264 -4.682612435506667 0 0 0
3047 1 -0.43245351469798504 21.743950933060724 -7.17091788614526 0 0 1
3048 1 -0.4323256579953962 24.23192670906425 -7.170925456469399 0 0 1
3073 1 -0.4324535147723355 21.743950932995382 -4.682617886166357 0 0 0
3085 1 -2.1938532296700513 22.98775029206932 -5.926762393364323 0 0 0
3086 1 -0.4323256580171095 24.231926709099337 -4.682625456362437 0 0 0
8454 1 -16.281431490173837 25.475078576296053 -5.926777184494972 1 0 0
8500 1 -18.04213872624894 26.719577142661972 -7.170932857704667 1 0 1
8517 1 -18.042138726270117 26.71957714268399 -4.682632857624925 1 0 0
8836 1 -16.281360895195874 27.963889630303267 -5.92678013455318 1 0 0
3314 1 -14.520642820090147 26.719467494544787 -7.170925322584701 0 0 1
3323 1 -14.520642820134 26.719467494527517 -4.682625322487553 0 0 0
3268 1 -10.999022502093391 26.719517353524612 -7.170920286662142 0 0 1
3285 1 -10.99902250206748 26.719517353543246 -4.682620286566951 0 0 0
3287 1 -12.759998100989272 25.47507541280285 -5.926767943055014 0 0 0
3589 1 -12.759740752071455 27.963839370260214 -5.926775493618576 0 0 0
3202 1 -7.477087735989659 26.719690446381332 -7.170919313096358 0 0 1
3219 1 -7.477087735976601 26.719690446383588 -4.682619313045618 0 0 0
3221 1 -9.238284792605176 25.475288264489382 -5.926763569245883 0 0 0
3523 1 -9.237931397568193 27.9638895514989 -5.926773267803538 0 0 0
3136 1 -3.9547873795983732 26.71989781357626 -7.170922653287349 0 0 1
3153 1 -3.9547873795426804 26.719897813572754 -4.6826226531593615 0 0 0
3155 1 -5.716150985486047 25.475599422486365 -5.926765340500599 0 0 0
3457 1 -5.715821419080954 27.964004110260447 -5.9267741367578965 0 0 0
3070 1 -0.43220952862428713 26.720070069495804 -7.170929238125066 0 0 1
3087 1 -0.4322095285448287 26.720070069529037 -4.682629238079927 0 0 0
3089 1 -2.1936276706406796 25.4758769226283 -5.926772621846765 0 0 0
3391 1 -2.1934265695746586 27.96413226932703 -5.926777801889227 0 0 0
8429 1 -16.282555231119243 15.518010319341146 -0.950058367695897 1 0 0
8435 1 -16.282555231130388 15.518010319360148 -3.438358367692467 1 0 0
8464 1 -18.043594032742945 14.273122624094372 -2.1942813934183847 1 0 0
8484 1 -18.042822853265868 16.76282509519021 -2.194319689722199 1 0 0
3295 1 -14.521758543858448 14.273731454309956 -2.194021466866678 0 0 0
3306 1 -14.521648316513124 16.762964960372518 -2.194195335466984 0 0 0
3232 1 -10.9996809729387 14.275042665490629 -2.193920209955492 0 0 0
3236 1 -12.760818425103087 15.518875322766123 -0.9499221949204895 0 0 0
3250 1 -12.760818425122542 15.51887532284409 -3.438222194898215 0 0 0
3252 1 -11.000014302082763 16.76404487096359 -2.1941289518781932 0 0 0
3166 1 -7.477942206918737 14.276932153491604 -2.193959662709048 0 0 0
3170 1 -9.239016244998343 15.52038026082491 -0.9498889319734416 0 0 0
3184 1 -9.23901624506488 15.520380260872027 -3.4381889319427295 0 0 0
3186 1 -7.478222639865125 16.76565952912428 -2.1941297543551608 0 0 0
3100 1 -3.9559501871921396 14.279426545140751 -2.1940664562229033 0 0 0
3104 1 -5.717164920821987 15.522394281943697 -0.9499370856887724 0 0 0
3118 1 -5.717164920883794 15.522394281938652 -3.438237085607075 0 0 0
3120 1 -3.9559662517981447 16.767436323970003 -2.194182977164892 0 0 0
3034 1 -0.4330852738992347 14.28148978068256 -2.1942053852620336 0 0 0
3038 1 -2.194614456527639 15.524403106331816 -0.9500333317250205 0 0 0
3052 1 -2.194614456534275 15.52440310631715 -3.438333331742206 0 0 0
3054 1 -0.4328170289818408 16.768710658891568 -2.194271322416332 0 0 0
8437 1 -16.28209931318113 18.007498211592825 -0.9501294922623144 1 0 0
8438 1 -16.282099313198167 18.007498211571395 -3.4384294921603873 1 0 0
8440 1 -16.28176531862302 20.49689279787613 -0.9501583019580072 1 0 0
8446 1 -16.281765318531395 20.496892797878978 -3.438458301987112 1 0 0
8485 1 -18.0423717959382 19.25236275630328 -2.1943292992683467 1 0 0
3307 1 -14.521375554635366 19.25229159623194 -2.194268356120701 0 0 0
3253 1 -10.999981507690796 19.25302596154642 -2.194231377813681 0 0 0
3254 1 -12.760824140824944 18.007999905512698 -0.9500584231649831 0 0 0
3255 1 -12.76082414085947 18.007999905483 -3.438358423220395 0 0 0
3259 1 -12.7606036734476 20.49713904180728 -0.9501220016966982 0 0 0
3272 1 -12.760603673424912 20.497139041847973 -3.4384220017196965 0 0 0
3187 1 -7.478142910980609 19.25421702481078 -2.1942272857791005 0 0 0
3188 1 -9.239173990009217 18.00921217525407 -0.9500317553069758 0 0 0
3189 1 -9.2391739899362 18.00921217523379 -3.438331755271229 0 0 0
3193 1 -9.239008761069336 20.497958013763327 -0.9501062641097916 0 0 0
3206 1 -9.239008761036906 20.497958013795582 -3.4384062640986226 0 0 0
3121 1 -3.9557166981435676 19.25541081861429 -2.194253896939417 0 0 0
3122 1 -5.71712969006223 18.010714415928696 -0.9500503253609454 0 0 0
3123 1 -5.717129690053261 18.010714415856594 -3.438350325367534 0 0 0
3127 1 -5.71686609249645 20.498970723752855 -0.9501142547951009 0 0 0
3140 1 -5.716866092533178 20.498970723810817 -3.438414254748102 0 0 0
3055 1 -0.4326087886896278 19.256194790857304 -2.194302607600988 0 0 0
3056 1 -2.194377203097861 18.012010006353602 -0.9501038886556323 0 0 0
3057 1 -2.194377203137628 18.012010006436377 -3.4384038886373633 0 0 0
3061 1 -2.1941042329584626 20.499786956588206 -0.9501423635612175 0 0 0
3074 1 -2.194104232943983 20.49978695657979 -3.438442363574854 0 0 0
8448 1 -16.281555323147458 22.986089732724245 -0.9501711284768242 1 0 0
8449 1 -16.281555323129002 22.986089732800544 -3.438471128538582 1 0 0
8506 1 -18.042172030925276 21.741655951275394 -2.1943318517790504 1 0 0
8507 1 -18.042119805696533 24.230714266381977 -2.1943326006166393 1 0 0
3317 1 -14.521088695576859 21.741523964020367 -2.1943016313618418 0 0 0
3318 1 -14.520840102181419 24.230584035560515 -2.194317530921164 0 0 0
3274 1 -10.999716587811792 21.74194821655654 -2.194282213139533 0 0 0
3275 1 -10.999365452199743 24.23078045932429 -2.1943075853459986 0 0 0
3276 1 -12.760299489780568 22.986177563324365 -0.9501527705649347 0 0 0
3277 1 -12.760299489745204 22.986177563310235 -3.43845277059656 0 0 0
3208 1 -7.477846609935564 21.742708703959 -2.194279094448466 0 0 0
3209 1 -7.4774653844434 24.23119410756372 -2.194305765819434 0 0 0
3210 1 -9.238669274745208 22.986646167980403 -0.9501443166378399 0 0 0
3211 1 -9.238669274735408 22.98664616797241 -3.4384443166266974 0 0 0
3142 1 -3.9553993790112045 21.743459704173187 -2.194292413457567 0 0 0
3143 1 -3.95508108664872 24.231623593959625 -2.1943124354094152 0 0 0
3144 1 -5.716513634083251 22.98725396067386 -0.9501480052653081 0 0 0
3145 1 -5.716513634115931 22.987253960684967 -3.438448005270174 0 0 0
3076 1 -0.43245351471321236 21.743950933020443 -2.194317886180071 0 0 0
3077 1 -0.4323256580272297 24.231926709059227 -2.1943254564098704 0 0 0
3078 1 -2.1938532297354794 22.98775029208398 -0.9501623932297495 0 0 0
3079 1 -2.193853229665592 22.987750292060678 -3.438462393258696 0 0 0
8451 1 -16.281431490171617 25.47507857632551 -0.9501771844605964 1 0 0
8453 1 -16.28143149024462 25.475078576396793 -3.438477184474658 1 0 0
8520 1 -18.04213872622959 26.719577142679196 -2.1943328576534795 1 0 0
8827 1 -16.281360895112137 27.963889630287074 -0.9501801345253367 1 0 0
8828 1 -16.28136089515758 27.963889630297594 -3.438480134544446 1 0 0
3324 1 -14.520642820189877 26.71946749451613 -2.194325322544187 0 0 0
3281 1 -12.759998100966115 25.47507541280305 -0.9501679429963159 0 0 0
3286 1 -12.759998101008332 25.475075412876834 -3.4384679429872036 0 0 0
3288 1 -10.999022502112773 26.719517353513186 -2.1943202866370775 0 0 0
3572 1 -12.759740752066799 27.96383937022766 -0.9501754935573782 0 0 0
3573 1 -12.759740752085277 27.96383937012321 -3.4384754936224016 0 0 0
3215 1 -9.238284792650191 25.475288264517232 -0.9501635692054627 0 0 0
3220 1 -9.238284792623187 25.475288264653184 -3.4384635692701155 0 0 0
3222 1 -7.477087736004163 26.719690446430373 -2.1943193131416256 0 0 0
3506 1 -9.237931397597874 27.963889551513343 -0.9501732678288689 0 0 0
3507 1 -9.237931397632916 27.963889551372738 -3.4384732678390586 0 0 0
3149 1 -5.716150985513758 25.47559942247957 -0.9501653403971504 0 0 0
3154 1 -5.716150985502565 25.475599422587273 -3.4384653404671366 0 0 0
3156 1 -3.954787379524048 26.71989781359813 -2.1943226532507505 0 0 0
3440 1 -5.7158214190769865 27.96400411024584 -0.9501741367633216 0 0 0
3441 1 -5.715821419141396 27.96400411013908 -3.438474136822367 0 0 0
3083 1 -2.193627670659769 25.475876922614557 -0.9501726218338811 0 0 0
3088 1 -2.193627670679035 25.47587692267456 -3.438472621843121 0 0 0
3090 1 -0.43220952855817685 26.7200700694619 -2.1943292381290065 0 0 0
3374 1 -2.193426569601694 27.96413226931526 -0.9501778018748741 0 0 0
3375 1 -2.1934265695656587 27.96413226925721 -3.438477801874742 0 0 0
8428 1 -16.282555231105736 15.5180103193261 1.5382416323251433 1 0 0
8456 1 -18.04359403268354 14.273122624125278 2.782318606542731 1 0 0
8465 1 -18.04359403275082 14.27312262408669 0.29401860666110774 1 0 0
8466 1 -18.042822853232195 16.762825095118252 0.29398031023108795 1 0 0
8469 1 -18.0428228532038 16.762825095196145 2.7822803102730633 1 0 0
3290 1 -14.521758543845861 14.273731454369077 2.782578533062931 0 0 0
3296 1 -14.521758543852924 14.273731454404803 0.2942785331059265 0 0 0
3297 1 -14.521648316483878 16.762964960366325 0.29410466455646617 0 0 0
3298 1 -14.521648316494215 16.762964960424508 2.782404664507549 0 0 0
3224 1 -10.999680972982187 14.275042665508733 2.782679790085015 0 0 0
3233 1 -10.999680973019561 14.27504266554548 0.2943797900093893 0 0 0
3234 1 -11.000014302012236 16.764044870961175 0.29417104808667727 0 0 0
3235 1 -12.76081842507191 15.51887532285578 1.5383778050608674 0 0 0
3237 1 -11.00001430204865 16.764044871009606 2.782471048057249 0 0 0
3158 1 -7.477942206873104 14.276932153517953 2.782640337247027 0 0 0
3167 1 -7.477942206910197 14.27693215352876 0.2943403371574188 0 0 0
3168 1 -7.478222639837953 16.765659529138993 0.2941702456572168 0 0 0
3169 1 -9.239016245058512 15.520380260926283 1.5384110680191188 0 0 0
3171 1 -7.478222639875033 16.76565952915944 2.782470245593017 0 0 0
3092 1 -3.955950187161653 14.279426545203673 2.782533543749601 0 0 0
3101 1 -3.9559501871112763 14.279426545206395 0.29423354373199107 0 0 0
3102 1 -3.9559662518541776 16.767436323968184 0.2941170229028091 0 0 0
3103 1 -5.717164920894354 15.522394281971007 1.5383629144282003 0 0 0
3105 1 -3.9559662518255467 16.767436324025617 2.7824170228119005 0 0 0
3026 1 -0.43308527394455404 14.28148978066008 2.7823946148050496 0 0 0
3035 1 -0.4330852739217314 14.281489780699484 0.2940946148010804 0 0 0
3036 1 -0.43281702901878016 16.76871065892837 0.294028677559797 0 0 0
3037 1 -2.1946144565925896 15.524403106356898 1.5382666683026547 0 0 0
3039 1 -0.4328170289467729 16.768710658992212 2.782328677536899 0 0 0
8431 1 -16.282099313134573 18.007498211598325 1.5381705077777041 1 0 0
8439 1 -16.281765318589603 20.49689279791731 1.5381416980219687 1 0 0
8470 1 -18.0423717959605 19.252362756247635 2.7822707007850305 1 0 0
8488 1 -18.042371795987624 19.252362756292918 0.29397070076477577 1 0 0
3299 1 -14.521375554559082 19.252291596257326 2.7823316439108448 0 0 0
3308 1 -14.521375554597629 19.252291596276894 0.29403164392058073 0 0 0
3238 1 -10.99998150764544 19.25302596158829 2.7823686222088138 0 0 0
3240 1 -12.760824140858341 18.007999905522357 1.538241576801772 0 0 0
3256 1 -10.99998150768737 19.253025961587085 0.2940686221878691 0 0 0
3258 1 -12.760603673448996 20.497139041856506 1.5381779983476824 0 0 0
3172 1 -7.478142911016681 19.254217024828666 2.782372714257657 0 0 0
3174 1 -9.239173989953867 18.009212175208305 1.5382682447780844 0 0 0
3190 1 -7.478142910978521 19.25421702483587 0.2940727141371292 0 0 0
3192 1 -9.239008761066817 20.497958013829404 1.538193735910932 0 0 0
3106 1 -3.9557166981269947 19.255410818709294 2.7823461031208896 0 0 0
3108 1 -5.717129690060119 18.01071441589195 1.5382496746971908 0 0 0
3124 1 -3.955716698170225 19.25541081870971 0.29404610305242057 0 0 0
3126 1 -5.716866092473177 20.498970723841953 1.5381857452018477 0 0 0
3040 1 -0.4326087887106385 19.256194790887395 2.7822973923807672 0 0 0
3042 1 -2.194377203098988 18.012010006476327 1.538196111413846 0 0 0
3058 1 -0.43260878868722424 19.256194790891154 0.29399739247941586 0 0 0
3060 1 -2.194104232877452 20.49978695663446 1.5381576364111196 0 0 0
8442 1 -16.281555323126486 22.9860897327317 1.5381288714880317 1 0 0
8489 1 -18.04217203086474 21.74165595125325 0.29396814815353745 1 0 0
8492 1 -18.04217203089688 21.74165595126326 2.782268148105414 1 0 0
8493 1 -18.042119805672463 24.23071426640164 2.7822673994054647 1 0 0
8510 1 -18.042119805687076 24.230714266347615 0.29396739941537037 1 0 0
3309 1 -14.521088695572583 21.741523964080308 0.2939983685868328 0 0 0
3310 1 -14.521088695572255 21.741523964006713 2.7822983685936062 0 0 0
3311 1 -14.520840102261154 24.23058403556549 2.7822824690808416 0 0 0
3319 1 -14.520840102195736 24.230584035573944 0.2939824690378663 0 0 0
3257 1 -10.999716587816026 21.741948216548323 0.29401778699486325 0 0 0
3260 1 -10.999716587898142 21.741948216499292 2.782317786947267 0 0 0
3261 1 -10.999365452185277 24.23078045931117 2.782292414687786 0 0 0
3263 1 -12.760299489759483 22.986177563212348 1.5381472294159866 0 0 0
3278 1 -10.999365452237111 24.23078045927656 0.293992414601652 0 0 0
3191 1 -7.477846609944049 21.742708703930067 0.2940209056493633 0 0 0
3194 1 -7.477846609950556 21.742708703929694 2.782320905556202 0 0 0
3195 1 -7.477465384521218 24.231194107608584 2.7822942341788752 0 0 0
3197 1 -9.238669274708807 22.986646167940535 1.5381556833324352 0 0 0
3212 1 -7.477465384523773 24.231194107553346 0.2939942341379757 0 0 0
3125 1 -3.955399378996466 21.743459704180353 0.2940075865774716 0 0 0
3128 1 -3.955399379017175 21.74345970417593 2.7823075865249995 0 0 0
3129 1 -3.9550810866416897 24.23162359398025 2.7822875645575476 0 0 0
3131 1 -5.716513634080835 22.987253960646605 1.5381519947086433 0 0 0
3146 1 -3.9550810866339203 24.23162359399205 0.2939875644903388 0 0 0
3059 1 -0.4324535147146016 21.743950933050836 0.2939821138327309 0 0 0
3062 1 -0.4324535147812713 21.743950933005685 2.782282113867375 0 0 0
3063 1 -0.4323256580262854 24.23192670910426 2.782274543622233 0 0 0
3065 1 -2.193853229667196 22.98775029205681 1.5381376066605 0 0 0
3080 1 -0.4323256579863343 24.23192670906081 0.2939745435433267 0 0 0
8450 1 -16.2814314901543 25.47507857634194 1.5381228155116902 1 0 0
8511 1 -18.042138726240612 26.71957714265416 0.29396714232453175 1 0 0
8514 1 -18.04213872626688 26.71957714268097 2.7822671423666137 1 0 0
8823 1 -16.281360895202358 27.963889630300883 1.538119865457988 1 0 0
3320 1 -14.520642820090112 26.719467494554124 0.2939746774827155 0 0 0
3321 1 -14.520642820137414 26.719467494575994 2.782274677468415 0 0 0
3279 1 -10.99902250208641 26.719517353520075 0.2939797135077332 0 0 0
3280 1 -12.759998101004848 25.475075412894174 1.5381320570075077 0 0 0
3282 1 -10.999022502064404 26.71951735356812 2.7822797133824144 0 0 0
3563 1 -12.75974075205496 27.963839370203633 1.5381245064231504 0 0 0
3213 1 -7.477087735990306 26.719690446394708 0.2939806870062051 0 0 0
3214 1 -9.238284792611577 25.475288264598138 1.5381364308007661 0 0 0
3216 1 -7.47708773597941 26.719690446383314 2.782280686885461 0 0 0
3497 1 -9.237931397561464 27.96388955142875 1.5381267322087153 0 0 0
3147 1 -3.954787379599907 26.719897813593523 0.29397734677553183 0 0 0
3148 1 -5.716150985467817 25.47559942257935 1.5381346595333163 0 0 0
3150 1 -3.954787379520327 26.71989781360082 2.7822773467669326 0 0 0
3431 1 -5.715821419079557 27.964004110171118 1.5381258632423676 0 0 0
3081 1 -0.4322095286139451 26.720070069494426 0.2939707619151411 0 0 0
3082 1 -2.193627670644737 25.47587692268594 1.538127378167057 0 0 0
3084 1 -0.43220952854957767 26.72007006953079 2.7822707619301728 0 0 0
3365 1 -2.1934265695567094 27.96413226926935 1.5381221981250872 0 0 0
8425 1 -16.282555231146343 15.518010319340366 6.514841632273526 1 0 0
8426 1 -16.282555231158387 15.518010319378897 4.026541632279915 1 0 0
8457 1 -18.043594032744892 14.27312262411931 5.270618606634047 1 0 0
8458 1 -18.042822853284186 16.76282509520446 5.270580310242386 1 0 0
3291 1 -14.521758543865296 14.273731454348146 5.270878533081101 0 0 0
3292 1 -14.521648316532344 16.762964960375026 5.270704664518783 0 0 0
3225 1 -10.999680972914492 14.275042665493496 5.270979789956685 0 0 0
3226 1 -11.00001430204722 16.76404487097093 5.270771048183798 0 0 0
3227 1 -12.760818425089093 15.518875322819772 6.514977805042639 0 0 0
3228 1 -12.760818425084091 15.518875322793289 4.026677805109729 0 0 0
3159 1 -7.477942206921782 14.27693215348749 5.270940337223582 0 0 0
3160 1 -7.4782226398397755 16.765659529133316 5.270770245698272 0 0 0
3161 1 -9.239016244966761 15.520380260895037 6.515011067997905 0 0 0
3162 1 -9.239016245044187 15.5203802608153 4.026711068066557 0 0 0
3093 1 -3.9559501872104996 14.27942654515414 5.270833543750302 0 0 0
3094 1 -3.955966251814359 16.767436323984036 5.270717022813704 0 0 0
3095 1 -5.717164920831923 15.522394281977435 6.514962914336776 0 0 0
3096 1 -5.717164920885046 15.522394281902773 4.026662914388267 0 0 0
3027 1 -0.4330852739050786 14.28148978070264 5.270694614762707 0 0 0
3028 1 -0.43281702898211083 16.76871065890584 5.2706286775237015 0 0 0
3029 1 -2.194614456534802 15.524403106336333 6.514866668267158 0 0 0
3030 1 -2.194614456535655 15.524403106362595 4.026566668265175 0 0 0
8427 1 -16.28209931318788 18.007498211607626 6.514770507738654 1 0 0
8430 1 -16.2820993131872 18.007498211554466 4.02647050784372 1 0 0
8432 1 -16.281765318611065 20.496892797839752 6.514741698042119 1 0 0
8433 1 -16.281765318536095 20.49689279788066 4.026441698020971 1 0 0
8473 1 -18.042371795928673 19.252362756287727 5.270570700801966 1 0 0
3300 1 -14.521375554656009 19.25229159623359 5.27063164383976 0 0 0
3231 1 -12.760824140857295 18.007999905453502 6.514841576826332 0 0 0
3239 1 -12.760824140844134 18.007999905518435 4.02654157677072 0 0 0
3241 1 -10.999981507694514 19.25302596153739 5.270668622091118 0 0 0
3243 1 -12.760603673461617 20.49713904184732 6.514777998287713 0 0 0
3244 1 -12.760603673440094 20.497139041784195 4.026477998305432 0 0 0
3165 1 -9.239173990005646 18.00921217519359 6.51486824465708 0 0 0
3173 1 -9.239173989898307 18.00921217532163 4.026568244731292 0 0 0
3175 1 -7.478142910984313 19.254217024831117 5.2706727141403915 0 0 0
3177 1 -9.239008761062221 20.49795801384477 6.514793735847475 0 0 0
3178 1 -9.239008761044499 20.497958013725686 4.026493735911088 0 0 0
3099 1 -5.717129690048702 18.010714415897574 6.514849674639582 0 0 0
3107 1 -5.717129690062528 18.010714415925182 4.026549674634364 0 0 0
3109 1 -3.9557166981177825 19.255410818644027 5.270646103048136 0 0 0
3111 1 -5.71686609248881 20.498970723814644 6.514785745174951 0 0 0
3112 1 -5.7168660924924435 20.49897072373369 4.026485745256 0 0 0
3033 1 -2.1943772031163404 18.012010006360264 6.514796111326435 0 0 0
3041 1 -2.1943772031689672 18.01201000646418 4.026496111369144 0 0 0
3043 1 -0.4326087886993178 19.256194790847665 5.270597392407378 0 0 0
3045 1 -2.1941042329553477 20.499786956609952 6.5147576364060775 0 0 0
3046 1 -2.194104232927435 20.499786956596232 4.026457636417803 0 0 0
8434 1 -16.281555323131656 22.98608973271034 6.514728871502683 1 0 0
8441 1 -16.281555323091435 22.986089732798053 4.026428871458939 1 0 0
8474 1 -18.04217203090386 21.74165595125117 5.270568148188691 1 0 0
8496 1 -18.042119805688692 24.230714266401353 5.270567399379751 1 0 0
3301 1 -14.52108869557331 21.741523963994563 5.270598368670288 0 0 0
3312 1 -14.520840102171409 24.230584035598277 5.27058246904309 0 0 0
3242 1 -10.999716587824029 21.741948216545264 5.270617786936456 0 0 0
3247 1 -12.760299489796948 22.986177563264697 6.514747229424309 0 0 0
3262 1 -12.760299489793162 22.986177563376547 4.026447229407084 0 0 0
3264 1 -10.999365452206629 24.23078045931428 5.270592414552544 0 0 0
3176 1 -7.477846609910175 21.742708703942057 5.270620905595523 0 0 0
3181 1 -9.23866927472529 22.98664616788037 6.514755683312287 0 0 0
3196 1 -9.2386692747503 22.986646168066436 4.026455683357028 0 0 0
3198 1 -7.477465384432597 24.231194107527443 5.270594234091976 0 0 0
3110 1 -3.955399379001559 21.743459704167666 5.270607586574551 0 0 0
3115 1 -5.716513634072323 22.987253960595627 6.514751994738868 0 0 0
3130 1 -5.716513634077285 22.987253960739785 4.0264519947123745 0 0 0
3132 1 -3.9550810866441943 24.231623593969086 5.270587564520444 0 0 0
3044 1 -0.43245351471345894 21.743950933016865 5.270582113805491 0 0 0
3049 1 -2.1938532297331714 22.987750292069908 6.514737606749242 0 0 0
3064 1 -2.193853229672225 22.987750292094923 4.0264376067293055 0 0 0
3066 1 -0.4323256580383715 24.231926709089567 5.270574543586535 0 0 0
8443 1 -16.281431490167098 25.47507857635829 6.514722815523995 1 0 0
8444 1 -16.2814314902261 25.47507857639166 4.026422815526511 1 0 0
8497 1 -18.042138726242634 26.719577142667962 5.27056714232878 1 0 0
8821 1 -16.28136089512381 27.963889630256237 6.514719865445585 1 0 0
8822 1 -16.28136089516143 27.963889630354927 4.026419865425391 1 0 0
3313 1 -14.520642820201587 26.71946749454003 5.270574677473546 0 0 0
3265 1 -10.999022502109888 26.719517353534012 5.270579713417503 0 0 0
3266 1 -12.759998100958752 25.475075412879686 6.514732056951021 0 0 0
3267 1 -12.759998101015603 25.47507541282871 4.026432057025453 0 0 0
3560 1 -12.759740752064213 27.9638393701725 6.5147245064104204 0 0 0
3562 1 -12.759740752075329 27.96383937021609 4.0264245063658075 0 0 0
3199 1 -7.477087735989007 26.71969044640096 5.270580686925867 0 0 0
3200 1 -9.238284792654227 25.475288264594386 6.514736430752228 0 0 0
3201 1 -9.23828479262549 25.475288264584307 4.026436430739766 0 0 0
3494 1 -9.23793139760393 27.963889551429197 6.514726732139939 0 0 0
3496 1 -9.237931397614448 27.9638895514858 4.026426732150817 0 0 0
3133 1 -3.9547873795187813 26.719897813620936 5.270577346816466 0 0 0
3134 1 -5.716150985503043 25.475599422529584 6.514734659572936 0 0 0
3135 1 -5.7161509854878965 25.475599422503365 4.0264346595306835 0 0 0
3428 1 -5.715821419078778 27.964004110140934 6.51472586323528 0 0 0
3430 1 -5.715821419111143 27.964004110210777 4.026425863150191 0 0 0
3067 1 -0.43220952856322864 26.720070069484596 5.270570761904869 0 0 0
3068 1 -2.193627670669064 25.47587692266996 6.514727378150696 0 0 0
3069 1 -2.193627670701535 25.47587692264562 4.026427378149384 0 0 0
3362 1 -2.1934265695964217 27.964132269258833 6.514722198114533 0 0 0
3364 1 -2.1934265695583868 27.96413226933656 4.026422198134888 0 0 0
8838 1 -16.28132241672516 30.45256483865824 -5.926781601321261 1 0 0
8857 1 -18.042184416420778 29.208290123394143 -7.170932964666492 1 0 1
8888 1 -18.04218441637565 29.20829012339421 -4.682632964653546 1 0 0
3625 1 -14.520495388918496 29.208203294829417 -7.170929193548744 0 0 1
3640 1 -14.520495388863736 29.20820329490304 -4.682629193558522 0 0 0
3559 1 -10.998732558868392 29.20817014739188 -7.170926655560592 0 0 1
3590 1 -10.998732558852103 29.208170147366047 -4.682626655621451 0 0 0
3593 1 -12.759540312244452 30.452495197634477 -5.92677927359608 0 0 0
3493 1 -7.47675952965474 29.208195060371636 -7.17092615048416 0 0 1
3524 1 -7.476759529653227 29.20819506031288 -4.68262615060145 0 0 0
3527 1 -9.23764139747801 30.452454555349032 -5.926778148631778 0 0 0
3427 1 -3.9545316987417403 29.20825834667597 -7.170927821707555 0 0 1
3458 1 -3.954531698742881 29.208258346709393 -4.68262782180129 0 0 0
3461 1 -5.71554530173572 30.452451015613423 -5.926778575826951 0 0 0
3361 1 -0.43210138414610083 29.20833795533528 -7.170931137282276 0 0 1
3392 1 -0.43210138415617133 29.20833795537455 -4.682631137330859 0 0 0
3395 1 -2.1932524550038233 30.4524815563663 -5.9267804168297475 0 0 0
8847 1 -16.281303575950638 32.94114398031074 -5.926782338493704 1 0 0
8866 1 -18.042234838049257 31.696895164309627 -7.1709330187503495 1 0 1
8867 1 -18.04228057889036 34.185426973908875 -7.170933046789991 1 0 1
8889 1 -18.042234837990314 31.696895164352586 -4.682633018725787 1 0 0
8908 1 -18.042280578908237 34.18542697387987 -4.68263304688494 1 0 0
3629 1 -14.520391049605411 31.69682866812692 -7.170931130043166 0 0 1
3630 1 -14.52032138954902 34.18537753634273 -7.170932103062279 0 0 1
3641 1 -14.520391049615878 31.696828668135314 -4.682631129957021 0 0 0
3649 1 -14.520321389514674 34.18537753633896 -4.682632103164309 0 0 0
3568 1 -10.99850839455418 31.69675621206756 -7.17092985455225 0 0 1
3569 1 -10.998346266448408 34.18529301271221 -7.170931462828238 0 0 1
3591 1 -10.99850839462394 31.696756212089415 -4.682629854390325 0 0 0
3609 1 -12.759394597336197 32.94107162820469 -5.926781171410173 0 0 0
3610 1 -10.998346266445878 34.18529301271917 -4.682631462979153 0 0 0
3502 1 -7.4764971963718185 31.696700716567744 -7.170929594324802 0 0 1
3503 1 -7.476300416718369 34.185201890989084 -7.1709313299611885 0 0 1
3525 1 -7.476497196441743 31.69670071655483 -4.682629594230549 0 0 0
3543 1 -9.237420832694118 32.94098876529104 -5.926780603028116 0 0 0
3544 1 -7.476300416668797 34.1852018910118 -4.6826313301942495 0 0 0
3436 1 -3.9543208887158583 31.696678248185094 -7.170930430309809 0 0 1
3437 1 -3.9541560693273743 34.18513489401765 -7.170931749305291 0 0 1
3459 1 -3.9543208887216372 31.696678248211423 -4.682630430246624 0 0 0
3477 1 -5.715328172917306 32.94092276921134 -5.926780814225989 0 0 0
3478 1 -3.954156069345844 34.18513489401719 -4.6826317495204774 0 0 0
3370 1 -0.43200371523243564 31.696695122067954 -7.170932096432274 0 0 1
3371 1 -0.4319201176133947 34.185113121628405 -7.17093258607772 0 0 1
3393 1 -0.43200371518886 31.696695122146107 -4.682632096329949 0 0 0
3411 1 -2.1931083350811402 32.94089473069556 -5.9267817376223695 0 0 0
3412 1 -0.4319201176599854 34.18511312157159 -4.682632586258652 0 0 0
8849 1 -16.281296844280504 35.42965952417616 -5.926782708189243 1 0 0
8854 1 -16.281297384965384 37.91813580816699 -5.926782895959119 1 0 0
8884 1 -18.042318481445623 36.673912253977846 -7.170933063733834 1 0 1
8909 1 -18.042318481418878 36.673912253858546 -4.6826330637684705 1 0 0
3638 1 -14.520278077027456 36.67387676255336 -7.170932592528773 0 0 1
3650 1 -14.520278077020228 36.673876762562315 -4.682632592437168 0 0 0
3586 1 -10.998235790259146 36.673795542971185 -7.170932272253529 0 0 1
3611 1 -10.998235790273014 36.67379554296927 -4.68263227225582 0 0 0
3613 1 -12.759294983661313 35.42959361385088 -5.926782124549481 0 0 0
3621 1 -12.759231188881577 37.91808052956562 -5.926782604900046 0 0 0
3520 1 -7.476160888075901 36.67369598590337 -7.17093220481595 0 0 1
3545 1 -7.476160888114146 36.6736959858381 -4.682632204706938 0 0 0
3547 1 -9.237262959506817 35.42949839159175 -5.926781839483457 0 0 0
3555 1 -9.237156310719481 37.91798960602131 -5.9267824601578125 0 0 0
3454 1 -3.9540338857287214 36.67361180974426 -7.1709324131890915 0 0 1
3479 1 -3.9540338857956683 36.67361180976322 -4.68263241309082 0 0 0
3481 1 -5.71516669979329 35.42940642195355 -5.92678194454614 0 0 0
3489 1 -5.715053016816518 37.9178938080724 -5.926782511220688 0 0 0
3388 1 -0.4318527043564047 36.67356983348797 -7.170932832923499 0 0 1
3413 1 -0.4318527043396105 36.67356983346223 -4.682632832847352 0 0 0
3415 1 -2.192995054034915 35.429348191807044 -5.926782408297925 0 0 0
3423 1 -2.192910755154608 37.91782473711073 -5.926782742107257 0 0 0
8856 1 -16.281301949410057 40.40659000987992 -5.926782987198888 1 0 0
8885 1 -18.042348187912168 39.162370384996386 -7.170933070601667 1 0 1
8920 1 -18.04234818799309 39.16237038503913 -4.682633070710551 1 0 0
9248 1 -18.04237048030609 41.65081470312446 -7.170933072869985 1 0 1
9263 1 -18.042370480247996 41.65081470312216 -4.6826330727589545 1 0 0
3639 1 -14.520253740355294 39.1623460147961 -7.1709328389259825 0 0 1
3654 1 -14.52025374035601 39.162346014888556 -4.68263283910939 0 0 0
3950 1 -14.520242337449043 41.65079892050427 -7.17093295843207 0 0 1
3959 1 -14.520242337432073 41.65079892057223 -4.6826329584355655 0 0 0
3587 1 -10.99816518532194 39.162275629312774 -7.170932677369658 0 0 1
3622 1 -10.998165185310167 39.162275629304226 -4.682632677587256 0 0 0
3624 1 -12.759193610363187 40.40654645800976 -5.926782843131619 0 0 0
3884 1 -10.998123663871487 41.65074206592945 -7.170932877181788 0 0 1
3899 1 -10.998123663861683 41.650742065936434 -4.682632877055954 0 0 0
3521 1 -7.476067528718818 39.16218264107947 -7.170932641019369 0 0 1
3556 1 -7.4760675287261 39.16218264111527 -4.682632641128249 0 0 0
3558 1 -9.237088837627429 40.40646790491248 -5.926782769511201 0 0 0
3818 1 -7.476009255602714 41.65066275049565 -7.170932856582513 0 0 1
3833 1 -7.476009255497872 41.65066275058104 -4.682632856405406 0 0 0
3455 1 -3.953948236522517 39.162098070287584 -7.170932743453961 0 0 1
3490 1 -3.9539482364694694 39.16209807031021 -4.682632743667904 0 0 0
3492 1 -5.7149776607149665 40.406380442561066 -5.926782791863324 0 0 0
3752 1 -3.953891903066064 41.65058699023562 -7.170932907542134 0 0 1
3767 1 -3.9538919030454616 41.65058699027482 -4.682632907369957 0 0 0
3389 1 -0.4318015186036217 39.16204891188908 -7.170932952372151 0 0 1
3424 1 -0.4318015185848802 39.16204891184262 -4.6826329525678085 0 0 0
3426 1 -2.1928515908437363 40.40631260665257 -5.926782907249109 0 0 0
3686 1 -0.43176496762744615 41.650538948873 -7.170933014450879 0 0 1
3701 1 -0.4317649676353274 41.65053894886028 -4.682633014294983 0 0 0
8830 1 -16.281322416670275 30.45256483867399 -0.9501816012509707 1 0 0
8837 1 -16.28132241679318 30.452564838695146 -3.4384816012499324 1 0 0
8869 1 -18.042184416408343 29.208290123403497 -2.194332964625511 1 0 0
3631 1 -14.520495388873849 29.208203294815714 -2.1943291934481004 0 0 0
3571 1 -10.998732558854375 29.20817014732578 -2.1943266555455887 0 0 0
3577 1 -12.759540312248557 30.452495197610425 -0.9501792734921501 0 0 0
3592 1 -12.759540312227916 30.452495197669002 -3.4384792735497274 0 0 0
3505 1 -7.476759529672357 29.208195060413548 -2.1943261504657676 0 0 0
3511 1 -9.23764139742298 30.45245455536133 -0.9501781485567434 0 0 0
3526 1 -9.237641397477255 30.452454555436244 -3.4384781486099545 0 0 0
3439 1 -3.9545316987214583 29.208258346677624 -2.194327821647088 0 0 0
3445 1 -5.715545301748098 30.452451015648528 -0.9501785757485974 0 0 0
3460 1 -5.715545301777903 30.452451015745453 -3.4384785757990444 0 0 0
3373 1 -0.4321013841443625 29.208337955345456 -2.1943311372550935 0 0 0
3379 1 -2.1932524549996644 30.45248155636593 -0.9501804168074608 0 0 0
3394 1 -2.1932524550576327 30.45248155647829 -3.4384804168330256 0 0 0
8839 1 -16.281303575924966 32.941143980317555 -0.9501823385179402 1 0 0
8840 1 -16.281303575961143 32.94114398023495 -3.438482338484477 1 0 0
8892 1 -18.042234838005204 31.69689516433122 -2.1943330187456733 1 0 0
8893 1 -18.042280578881964 34.185426973871074 -2.1943330468445557 1 0 0
3642 1 -14.520391049633101 31.69682866813326 -2.194331130042773 0 0 0
3643 1 -14.52032138953768 34.18537753635206 -2.1943321031045393 0 0 0
3594 1 -10.99850839458116 31.696756212098435 -2.194329854429518 0 0 0
3595 1 -10.998346266426866 34.185293012706104 -2.1943314628234107 0 0 0
3596 1 -12.759394597384867 32.94107162813818 -0.950181171378525 0 0 0
3597 1 -12.759394597335543 32.941071628099564 -3.4384811714113153 0 0 0
3528 1 -7.476497196401847 31.696700716555746 -2.194329594247626 0 0 0
3529 1 -7.476300416681836 34.18520189103785 -2.1943313300076697 0 0 0
3530 1 -9.237420832728107 32.94098876527833 -0.9501806029906772 0 0 0
3531 1 -9.237420832679138 32.94098876515768 -3.4384806029970103 0 0 0
3462 1 -3.9543208887278047 31.696678248204748 -2.194330430303706 0 0 0
3463 1 -3.954156069317433 34.185134894063516 -2.19433174942206 0 0 0
3464 1 -5.715328172933731 32.94092276922354 -0.9501808141887337 0 0 0
3465 1 -5.715328172882534 32.940922769086285 -3.4384808142369936 0 0 0
3396 1 -0.4320037151802512 31.696695122158115 -2.1943320963413626 0 0 0
3397 1 -0.4319201176413065 34.185113121597816 -2.19433258612992 0 0 0
3398 1 -2.193108335055662 32.94089473068126 -0.9501817376319823 0 0 0
3399 1 -2.193108335080052 32.94089473063212 -3.438481737627102 0 0 0
8842 1 -16.28129684425397 35.42965952415274 -0.9501827081778006 1 0 0
8848 1 -16.28129684423214 35.42965952417686 -3.4384827082052394 1 0 0
8850 1 -16.281297385048127 37.91813580818382 -0.9501828959203262 1 0 0
8851 1 -16.281297384951838 37.91813580805633 -3.4384828959266724 1 0 0
8912 1 -18.042318481416643 36.673912253906195 -2.194333063732731 1 0 0
3651 1 -14.520278076984082 36.67387676260622 -2.1943325924685064 0 0 0
3601 1 -12.759294983716059 35.4295936138501 -0.9501821245279363 0 0 0
3612 1 -12.759294983664171 35.42959361393203 -3.4384821245250747 0 0 0
3614 1 -10.998235790307897 36.673795542970375 -2.194332272298118 0 0 0
3616 1 -12.759231188835448 37.918080529556995 -0.950182604912013 0 0 0
3617 1 -12.759231188796429 37.91808052943949 -3.43848260492013 0 0 0
3535 1 -9.237262959550021 35.429498391559825 -0.9501818393914403 0 0 0
3546 1 -9.23726295949854 35.42949839164554 -3.4384818393912595 0 0 0
3548 1 -7.4761608880601305 36.673695985858046 -2.1943322048063982 0 0 0
3550 1 -9.237156310686595 37.917989605982605 -0.9501824601337305 0 0 0
3551 1 -9.237156310686018 37.91798960586622 -3.438482460147615 0 0 0
3469 1 -5.715166699760781 35.429406421929784 -0.9501819444900161 0 0 0
3480 1 -5.715166699772083 35.42940642207798 -3.4384819445630748 0 0 0
3482 1 -3.954033885769519 36.67361180966551 -2.1943324132363577 0 0 0
3484 1 -5.715053016816779 37.91789380807338 -0.9501825112318173 0 0 0
3485 1 -5.71505301687471 37.91789380788934 -3.4384825112019533 0 0 0
3403 1 -2.192995054106101 35.429348191818484 -0.9501824083453695 0 0 0
3414 1 -2.1929950540656935 35.42934819188925 -3.4384824082706023 0 0 0
3416 1 -0.43185270427677125 36.67356983344796 -2.1943328329536573 0 0 0
3418 1 -2.192910755167799 37.917824737070866 -0.9501827421244615 0 0 0
3419 1 -2.1929107551212246 37.91782473692115 -3.438482742090892 0 0 0
8853 1 -16.28130194936374 40.406590009840166 -0.9501829872062374 1 0 0
8855 1 -16.2813019493828 40.406590010012515 -3.438482987136706 1 0 0
8913 1 -18.042348187959544 39.16237038498394 -2.1943330705469357 1 0 0
9264 1 -18.04237048028607 41.650814703081146 -2.1943330729059722 1 0 0
3652 1 -14.520253740336601 39.16234601483634 -2.194332838977643 0 0 0
3960 1 -14.520242337404 41.65079892046208 -2.1943329584975535 0 0 0
3615 1 -10.998165185359417 39.16227562933996 -2.194332677418494 0 0 0
3620 1 -12.759193610326793 40.40654645799117 -0.9501828430559268 0 0 0
3623 1 -12.759193610388804 40.406546458153166 -3.4384828430930288 0 0 0
3900 1 -10.998123663842618 41.65074206590925 -2.1943328771945354 0 0 0
3549 1 -7.476067528660509 39.162182641068604 -2.194332640989952 0 0 0
3554 1 -9.237088837621517 40.40646790488058 -0.9501827695068 0 0 0
3557 1 -9.23708883758908 40.406467905100165 -3.438482769449918 0 0 0
3834 1 -7.476009255563842 41.65066275049812 -2.1943328565119895 0 0 0
3483 1 -3.9539482365459206 39.162098070320006 -2.194332743495757 0 0 0
3488 1 -5.714977660749872 40.40638044256973 -0.95018279179804 0 0 0
3491 1 -5.714977660771094 40.40638044273325 -3.438482791742163 0 0 0
3768 1 -3.9538919030698687 41.650586990193865 -2.1943329075139166 0 0 0
3417 1 -0.4318015185846856 39.16204891190961 -2.194332952285712 0 0 0
3422 1 -2.1928515907935773 40.40631260666816 -0.950182907232874 0 0 0
3425 1 -2.192851590795488 40.40631260683945 -3.438482907239284 0 0 0
3702 1 -0.4317649676111453 41.65053894885472 -2.1943330144500246 0 0 0
8829 1 -16.28132241674553 30.452564838708422 1.538118398698623 1 0 0
8859 1 -18.042184416369476 29.208290123372315 2.782267035364988 1 0 0
8872 1 -18.0421844164286 29.208290123420472 0.29396703533352064 1 0 0
3626 1 -14.520495388865335 29.208203294913446 2.78227080651633 0 0 0
3632 1 -14.520495388912098 29.208203294826156 0.29397080645046886 0 0 0
3561 1 -10.998732558810369 29.208170147370875 2.782273344494804 0 0 0
3574 1 -10.998732558866083 29.208170147385076 0.293973344374142 0 0 0
3576 1 -12.759540312235472 30.452495197712203 1.5381207264539734 0 0 0
3495 1 -7.476759529631548 29.208195060304863 2.7822738494977353 0 0 0
3508 1 -7.476759529637731 29.208195060380387 0.29397384942756855 0 0 0
3510 1 -9.237641397452276 30.452454555431384 1.5381218513880206 0 0 0
3429 1 -3.9545316987290358 29.208258346708277 2.7822721783246305 0 0 0
3442 1 -3.954531698741313 29.20825834666783 0.29397217822667554 0 0 0
3444 1 -5.7155453017190965 30.45245101571427 1.538121424178871 0 0 0
3363 1 -0.4321013841470712 29.208337955365035 2.7822688627356325 0 0 0
3376 1 -0.4321013841372758 29.208337955332013 0.29396886268698474 0 0 0
3378 1 -2.1932524549929364 30.4524815564469 1.5381195832100094 0 0 0
8832 1 -16.28130357593498 32.94114398026098 1.5381176615015786 1 0 0
8873 1 -18.0422348380511 31.69689516432483 0.2939669813355397 1 0 0
8876 1 -18.04223483798221 31.69689516435219 2.7822669812695313 1 0 0
8877 1 -18.042280578895756 34.185426973877675 2.7822669531905264 1 0 0
8896 1 -18.042280578894392 34.18542697390939 0.29396695315343246 1 0 0
3633 1 -14.520391049607777 31.69682866811305 0.2939688700670968 0 0 0
3634 1 -14.520391049627541 31.69682866813554 2.782268869994358 0 0 0
3635 1 -14.520321389496486 34.185377536324395 2.782267896953025 0 0 0
3644 1 -14.520321389548648 34.18537753633711 0.29396789687790786 0 0 0
3575 1 -10.998508394542704 31.696756212058343 0.2939701456291475 0 0 0
3578 1 -10.998508394616778 31.696756212078515 2.7822701455459056 0 0 0
3579 1 -10.998346266453837 34.185293012710844 2.782268537171692 0 0 0
3581 1 -12.759394597337913 32.94107162812622 1.5381188286203584 0 0 0
3598 1 -10.998346266448662 34.18529301272241 0.2939685370882882 0 0 0
3509 1 -7.476497196370641 31.69670071656955 0.29397040580870715 0 0 0
3512 1 -7.476497196426073 31.696700716545475 2.7822704056848377 0 0 0
3513 1 -7.476300416675811 34.18520189101106 2.7822686699627868 0 0 0
3515 1 -9.237420832687427 32.940988765175874 1.5381193970128555 0 0 0
3532 1 -7.476300416730291 34.18520189098883 0.29396866994937343 0 0 0
3443 1 -3.954320888715775 31.696678248172933 0.29396956978864 0 0 0
3446 1 -3.954320888719255 31.696678248191194 2.7822695696693485 0 0 0
3447 1 -3.9541560693681346 34.18513489401449 2.7822682506306524 0 0 0
3449 1 -5.715328172923144 32.9409227690803 1.5381191857876355 0 0 0
3466 1 -3.954156069332229 34.1851348939972 0.2939682505863629 0 0 0
3377 1 -0.4320037152315952 31.69669512206593 0.2939679036987643 0 0 0
3380 1 -0.43200371519918485 31.69669512213798 2.7822679036392306 0 0 0
3381 1 -0.43192011766462757 34.18511312157088 2.782267413867679 0 0 0
3383 1 -2.1931083351042577 32.94089473058596 1.5381182623901715 0 0 0
3400 1 -0.4319201176109122 34.18511312162671 0.2939674138048313 0 0 0
8841 1 -16.28129684426595 35.429659524244926 1.5381172918436254 1 0 0
8844 1 -16.28129738496961 37.918135808071476 1.5381171040518826 1 0 0
8897 1 -18.042318481421013 36.67391225397296 0.2939669363587815 1 0 0
8900 1 -18.04231848140608 36.673912253864586 2.7822669361714896 1 0 0
3645 1 -14.520278077034103 36.67387676255629 0.2939674075818975 0 0 0
3646 1 -14.520278077033502 36.673876762548694 2.7822674074817306 0 0 0
3599 1 -10.99823579027273 36.673795542967 0.2939677278627216 0 0 0
3600 1 -12.759294983684908 35.429593613954324 1.5381178754869398 0 0 0
3602 1 -10.998235790290314 36.673795542972016 2.78226772763756 0 0 0
3605 1 -12.759231188870269 37.91808052945402 1.538117395102798 0 0 0
3533 1 -7.476160888096185 36.673695985903834 0.29396779535550144 0 0 0
3534 1 -9.237262959523466 35.429498391699305 1.5381181605462084 0 0 0
3536 1 -7.476160888132646 36.67369598582692 2.7822677952002595 0 0 0
3539 1 -9.23715631073928 37.9179896058819 1.5381175398415698 0 0 0
3467 1 -3.9540338857380117 36.673611809745815 0.29396758696942593 0 0 0
3468 1 -5.715166699818064 35.42940642208669 1.538118055509789 0 0 0
3470 1 -3.9540338857997224 36.67361180973726 2.782267586783602 0 0 0
3473 1 -5.7150530168209706 37.91789380792851 1.5381174887772162 0 0 0
3401 1 -0.43185270435087175 36.673569833504224 0.29396716721555355 0 0 0
3402 1 -2.1929950540310257 35.429348191924106 1.5381175917069263 0 0 0
3404 1 -0.4318527043578982 36.67356983346386 2.7822671670176256 0 0 0
3407 1 -2.1929107551539673 37.91782473696612 1.5381172579013107 0 0 0
8852 1 -16.28130194940095 40.406590009973044 1.5381170128118076 1 0 0
8901 1 -18.042348187995298 39.162370385053336 2.7822669294030233 1 0 0
8916 1 -18.0423481879107 39.16237038500272 0.2939669293586295 1 0 0
9251 1 -18.042370480295098 41.65081470310562 0.29396692724719586 1 0 0
9252 1 -18.042370480240688 41.65081470312967 2.7822669271314027 1 0 0
3647 1 -14.520253740360065 39.162346014864454 2.7822671610199774 0 0 0
3653 1 -14.520253740342119 39.162346014787474 0.29396716097736497 0 0 0
3952 1 -14.52024233743573 41.65079892049954 0.29396704167857146 0 0 0
3953 1 -14.520242337437612 41.65079892056978 2.782267041465616 0 0 0
3603 1 -10.998165185304693 39.16227562930692 2.7822673225638983 0 0 0
3618 1 -10.99816518530959 39.16227562931112 0.29396732252129454 0 0 0
3619 1 -12.759193610370417 40.4065464581144 1.5381171569060652 0 0 0
3887 1 -10.998123663871944 41.65074206591316 0.2939671229676699 0 0 0
3888 1 -10.998123663873091 41.650742065922074 2.78226712281194 0 0 0
3537 1 -7.47606752873837 39.16218264110932 2.782267359032744 0 0 0
3552 1 -7.476067528718311 39.16218264106913 0.2939673588330231 0 0 0
3553 1 -9.237088837621382 40.406467905046185 1.538117230512716 0 0 0
3821 1 -7.476009255592715 41.65066275051789 0.29396714362412707 0 0 0
3822 1 -7.4760092554942785 41.650662750560556 2.782267143458677 0 0 0
3471 1 -3.9539482364569745 39.16209807030551 2.7822672564976125 0 0 0
3486 1 -3.9539482365067835 39.162098070271824 0.29396725636688925 0 0 0
3487 1 -5.71497766070293 40.40638044270147 1.538117208158737 0 0 0
3755 1 -3.9538919030610744 41.650586990228256 0.2939670926708697 0 0 0
3756 1 -3.9538919030505544 41.6505869902662 2.78226709249274 0 0 0
3405 1 -0.43180151860417987 39.162048911875345 2.7822670476209423 0 0 0
3420 1 -0.4318015185968521 39.16204891187606 0.2939670475068377 0 0 0
3421 1 -2.1928515908405766 40.40631260681029 1.5381170927799301 0 0 0
3689 1 -0.4317649676281796 41.65053894887274 0.2939669857306781 0 0 0
3690 1 -0.43176496764572947 41.65053894884033 2.7822669855404563 0 0 0
8824 1 -16.281322416685732 30.452564838704497 6.514718398700754 1 0 0
8825 1 -16.281322416778767 30.452564838663477 4.02641839875264 1 0 0
8862 1 -18.04218441640047 29.208290123380767 5.270567035360888 1 0 0
3627 1 -14.520495388876405 29.208203294822457 5.27057080645077 0 0 0
3564 1 -10.998732558830877 29.2081701473601 5.270573344332475 0 0 0
3566 1 -12.759540312248584 30.452495197691576 6.514720726408476 0 0 0
3567 1 -12.759540312231518 30.452495197582493 4.026420726420864 0 0 0
3498 1 -7.4767595296514715 29.208195060391727 5.270573849416399 0 0 0
3500 1 -9.237641397414368 30.452454555474215 6.51472185140862 0 0 0
3501 1 -9.23764139744522 30.45245455536584 4.026421851387238 0 0 0
3432 1 -3.9545316987351717 29.208258346672775 5.270572178232217 0 0 0
3434 1 -5.715545301759191 30.452451015758353 6.514721424251629 0 0 0
3435 1 -5.715545301765998 30.4524510156291 4.026421424213583 0 0 0
3366 1 -0.4321013841362529 29.20833795535017 5.270568862670292 0 0 0
3368 1 -2.1932524549926247 30.452481556445235 6.5147195831679365 0 0 0
3369 1 -2.1932524550599988 30.452481556393316 4.026419583174484 0 0 0
8826 1 -16.281303575915572 32.94114398025271 6.514717661487846 1 0 0
8831 1 -16.281303575932967 32.94114398032433 4.026417661534496 1 0 0
8863 1 -18.04223483798081 31.696895164304312 5.2705669812626015 1 0 0
8880 1 -18.042280578853163 34.18542697387666 5.270566953083773 1 0 0
3628 1 -14.520391049651106 31.696828668121828 5.270568869997186 0 0 0
3636 1 -14.520321389533084 34.18537753635158 5.2705678967998715 0 0 0
3565 1 -10.998508394577604 31.696756212101526 5.270570145590052 0 0 0
3570 1 -12.75939459739885 32.94107162803972 6.514718828573135 0 0 0
3580 1 -12.75939459735113 32.94107162817927 4.02641882859022 0 0 0
3582 1 -10.998346266432112 34.18529301268667 5.270568537045755 0 0 0
3499 1 -7.476497196402321 31.696700716553217 5.270570405842795 0 0 0
3504 1 -9.237420832716976 32.94098876518565 6.514719396964167 0 0 0
3514 1 -9.23742083267772 32.94098876528627 4.026419396999274 0 0 0
3516 1 -7.476300416689144 34.185201891025606 5.270568669834596 0 0 0
3433 1 -3.954320888728667 31.696678248197326 5.270569569786639 0 0 0
3438 1 -5.7153281729246235 32.94092276910564 6.514719185771694 0 0 0
3448 1 -5.715328172878825 32.940922769195566 4.026419185779386 0 0 0
3450 1 -3.9541560693285103 34.18513489405877 5.270568250435443 0 0 0
3367 1 -0.43200371519614267 31.696695122155607 5.2705679036898605 0 0 0
3372 1 -2.193108335080388 32.94089473057578 6.514718262348548 0 0 0
3382 1 -2.1931083351083367 32.94089473074803 4.026418262367053 0 0 0
3384 1 -0.4319201176496742 34.18511312156817 5.270567413738744 0 0 0
8833 1 -16.281296844254722 35.42965952424495 6.514717291800231 1 0 0
8834 1 -16.28129684421754 35.42965952411419 4.026417291812113 1 0 0
8835 1 -16.281297385060956 37.918135808096515 6.514717104073595 1 0 0
8843 1 -16.281297384956282 37.91813580815098 4.026417104068445 1 0 0
8881 1 -18.04231848142683 36.67391225391559 5.270566936321744 1 0 0
3637 1 -14.520278076990929 36.673876762613006 5.270567407600347 0 0 0
3583 1 -10.9982357903143 36.673795542995244 5.270567727795243 0 0 0
3584 1 -12.759294983704548 35.42959361394086 6.514717875439457 0 0 0
3585 1 -12.75929498364869 35.42959361384475 4.026417875475562 0 0 0
3588 1 -12.759231188845297 37.91808052944755 6.5147173950807975 0 0 0
3604 1 -12.7592311888057 37.91808052955524 4.026417395089544 0 0 0
3517 1 -7.476160888065434 36.67369598587211 5.270567795300409 0 0 0
3518 1 -9.237262959556483 35.42949839168189 6.514718160603152 0 0 0
3519 1 -9.237262959535625 35.42949839152431 4.0264181606127485 0 0 0
3522 1 -9.23715631069031 37.91798960585856 6.514717539864181 0 0 0
3538 1 -9.237156310685476 37.9179896059674 4.026417539861244 0 0 0
3451 1 -3.954033885755465 36.67361180966779 5.270567586883498 0 0 0
3452 1 -5.715166699765228 35.42940642207359 6.514718055461321 0 0 0
3453 1 -5.715166699785606 35.42940642194527 4.026418055425566 0 0 0
3456 1 -5.715053016805104 37.91789380793415 6.514717488758398 0 0 0
3472 1 -5.715053016864885 37.917893808041434 4.02641748879576 0 0 0
3385 1 -0.43185270427876243 36.67356983344633 5.270567167155952 0 0 0
3386 1 -2.192995054088004 35.429348191940655 6.514717591668936 0 0 0
3387 1 -2.1929950540719894 35.42934819174823 4.026417591723012 0 0 0
3390 1 -2.192910755160668 37.91782473692902 6.514717257848971 0 0 0
3406 1 -2.192910755125365 37.917824737052364 4.02641725791957 0 0 0
8845 1 -16.28130194937767 40.40659000995115 6.514717012791481 1 0 0
8846 1 -16.281301949368853 40.406590009909834 4.02641701286646 1 0 0
8904 1 -18.042348187979464 39.162370384999186 5.270566929344312 1 0 0
9247 1 -18.04237048029324 41.650814703102526 5.270566927198163 1 0 0
3648 1 -14.520253740347616 39.16234601484035 5.270567160917308 0 0 0
3949 1 -14.520242337422367 41.650798920477726 5.270567041605764 0 0 0
3606 1 -10.998165185369247 39.16227562933321 5.2705673224560226 0 0 0
3607 1 -12.759193610344916 40.406546458112935 6.514717156944867 0 0 0
3608 1 -12.759193610411792 40.406546458026796 4.02641715693945 0 0 0
3883 1 -10.998123663862126 41.650742065907835 5.270567122940362 0 0 0
3540 1 -7.476067528677276 39.16218264106197 5.270567358863901 0 0 0
3541 1 -9.237088837650308 40.40646790501282 6.514717230480917 0 0 0
3542 1 -9.237088837606935 40.40646790495501 4.02641723054489 0 0 0
3817 1 -7.476009255570011 41.65066275048131 5.270567143616842 0 0 0
3474 1 -3.9539482365408682 39.16209807031271 5.27056725634457 0 0 0
3475 1 -5.714977660753485 40.406380442709136 6.51471720818568 0 0 0
3476 1 -5.714977660765916 40.40638044253671 4.026417208244986 0 0 0
3751 1 -3.9538919030788335 41.650586990202804 5.27056709263467 0 0 0
3408 1 -0.4318015186009927 39.16204891190772 5.270567047531534 0 0 0
3409 1 -2.192851590802694 40.40631260684805 6.514717092761594 0 0 0
3410 1 -2.192851590842418 40.40631260666984 4.026417092748228 0 0 0
3685 1 -0.431764967625341 41.650538948854965 5.270566985704752 0 0 0
9232 1 -16.281308338248852 42.8950336360335 -5.926783028186028 1 0 0
9249 1 -18.04238651892064 44.13925387479818 -7.170933064833437 1 0 1
9284 1 -18.042386518935267 44.13925387470973 -4.68263306491934 1 0 0
3951 1 -14.520239205378964 44.139244466232356 -7.170933007855207 0 0 1
3970 1 -14.520239205345502 44.13924446617072 -4.682633008004271 0 0 0
3885 1 -10.998102290814382 44.139201066353046 -7.170932969722173 0 0 1
3919 1 -12.759174220450971 42.89500113717789 -5.926782957519892 0 0 0
3920 1 -10.998102290775702 44.13920106632189 -4.682632969786764 0 0 0
3819 1 -7.475976290225873 44.13913768648114 -7.170932960783167 0 0 1
3853 1 -9.237049774369556 42.89493778212203 -5.926782919646252 0 0 0
3854 1 -7.4759762901676865 44.139137686461275 -4.682632960920194 0 0 0
3753 1 -3.953857760549742 44.139074822932955 -7.1709329874641625 0 0 1
3787 1 -5.714931333201759 42.89486424553638 -5.926782930606018 0 0 0
3788 1 -3.953857760625067 44.139074822957554 -4.68263298761071 0 0 0
3687 1 -0.4317405616621264 44.13903250033199 -7.1709330411553545 0 0 1
3721 1 -2.192812753174779 42.89480427517669 -5.926782988683933 0 0 0
3722 1 -0.43174056163619984 44.13903250027473 -4.682633041338607 0 0 0
9234 1 -16.281315120348626 45.38347396673856 -5.926783040488677 1 0 0
9241 1 -16.281321435429614 47.87191527703476 -5.926783045212945 1 0 0
9260 1 -18.04239753140409 46.6276931385189 -7.170933059055862 1 0 1
9285 1 -18.042397531391682 46.627693138463215 -4.682633058904977 1 0 0
3957 1 -14.520240924175944 46.62768824244844 -7.17093302868183 0 0 1
3971 1 -14.520240924169116 46.627688242443575 -4.682633028551336 0 0 0
3896 1 -10.998094113929016 46.62765679545887 -7.170933009960497 0 0 1
3921 1 -10.998094113893751 46.62765679540645 -4.682633009801823 0 0 0
3923 1 -12.759166751306992 45.383450970305375 -5.926783004161125 0 0 0
3937 1 -12.759166552754492 47.87189992510843 -5.926783026556201 0 0 0
3830 1 -7.475960631267704 46.62760884780628 -7.170933008967238 0 0 1
3855 1 -7.475960631325799 46.627608847875564 -4.682633008770787 0 0 0
3857 1 -9.237030280635002 45.3834026474439 -5.926782988482407 0 0 0
3871 1 -9.237023506959751 47.8718649325981 -5.926783020247237 0 0 0
3764 1 -3.9538394817454967 46.6275597417423 -7.170933025269252 0 0 1
3789 1 -3.95383948172607 46.62755974176793 -4.6826330251235015 0 0 0
3791 1 -5.714905843955835 45.38334455277577 -5.926782997234356 0 0 0
3805 1 -5.714894485154302 47.871821454336406 -5.926783027610599 0 0 0
3698 1 -0.4317255467897886 46.627525098679584 -7.17093305414808 0 0 1
3723 1 -0.4317255467950906 46.627525098678866 -4.682633053921947 0 0 0
3725 1 -2.192789358129796 45.383295293224684 -5.926783028276616 0 0 0
3739 1 -2.192776999669434 47.871783333181895 -5.926783045090986 0 0 0
9243 1 -16.281326839958684 50.360359782971365 -5.926783047212255 1 0 0
9261 1 -18.042404666570572 49.11613533346757 -7.17093305423977 1 0 1
9280 1 -18.04240893137933 51.60458170540037 -7.170933050312049 1 0 1
9302 1 -18.0424046665679 49.11613533345835 -4.682633054282829 1 0 0
9303 1 -18.042408931334315 51.60458170542299 -4.682633050145327 1 0 0
3958 1 -14.52024511112427 49.116133452746055 -7.170933039344494 0 0 1
3968 1 -14.520250208223034 51.60458169249683 -7.17093304342576 0 0 1
3979 1 -14.520245111123883 49.11613345274876 -4.682633039322943 0 0 0
3980 1 -14.520250208206782 51.60458169250366 -4.682633043358982 0 0 0
3897 1 -10.998093989939958 49.11611187139098 -7.170933030499718 0 0 1
3916 1 -10.99809827836844 51.60456779687313 -7.170933039164687 0 0 1
3938 1 -10.998093989998365 49.1161118713725 -4.682633030557647 0 0 0
3939 1 -10.998098278372241 51.60456779683626 -4.682633039131134 0 0 0
3941 1 -12.759170341034624 50.36035024917107 -5.926783038456587 0 0 0
3831 1 -7.475956093463483 49.11607744326839 -7.170933031984335 0 0 1
3850 1 -7.475958127969177 51.60454441551123 -7.170933041104496 0 0 1
3872 1 -7.475956093515871 49.11607744332459 -4.682633032147231 0 0 0
3873 1 -7.475958127931955 51.604544415508066 -4.682633040942802 0 0 0
3875 1 -9.23702439937702 50.36032625129414 -5.9267830351390725 0 0 0
3765 1 -3.953831876244765 49.116041101147154 -7.170933042870049 0 0 1
3784 1 -3.9538309465657653 51.604518937134216 -7.170933049566987 0 0 1
3806 1 -3.9538318762716105 49.116041101157045 -4.682633042932031 0 0 0
3807 1 -3.9538309465935138 51.60451893710335 -4.682633049387082 0 0 0
3809 1 -5.714892083622679 50.36029538940281 -5.92678304129646 0 0 0
3699 1 -0.4317173418436413 49.11601439610192 -7.170933059340176 0 0 1
3718 1 -0.43171377084449997 51.60449945504367 -7.170933059572718 0 0 1
3740 1 -0.43171734187591 49.116014396141686 -4.682633059518574 0 0 0
3741 1 -0.4317137708338926 51.60449945503208 -4.682633059355829 0 0 0
3743 1 -2.192772044992235 50.360267450050586 -5.926783054462075 0 0 0
9246 1 -16.281331172725814 52.84880835820904 -5.926783044262369 1 0 0
9281 1 -18.042411165884143 54.093032494453325 -7.1709330476595206 1 0 1
9312 1 -18.042411165835915 54.09303249442707 -4.682633047722397 1 0 0
9624 1 -16.281334455303405 55.33726105801236 -5.926783042522022 1 0 0
3969 1 -14.520255262020147 54.09303351560085 -7.170933041015642 0 0 1
3984 1 -14.52025526199192 54.09303351567938 -4.682633041052212 0 0 0
3917 1 -10.99810453328765 54.09302530451325 -7.170933039756393 0 0 1
3947 1 -12.75917591398254 52.8488030279656 -5.926783040765087 0 0 0
3948 1 -10.998104533277237 54.09302530455209 -4.682633039763484 0 0 0
4241 1 -12.759181869139756 55.33725860072303 -5.926783037284136 0 0 0
3851 1 -7.475963549434688 54.093010453965924 -7.170933042251162 0 0 1
3881 1 -9.237029394283937 52.84878759098426 -5.926783041001503 0 0 0
3882 1 -7.475963549417848 54.09301045400335 -4.6826330423296785 0 0 0
4175 1 -9.237036109492278 55.337249490736795 -5.926783038394569 0 0 0
3785 1 -3.953833779274916 54.09299364524675 -7.170933048158762 0 0 1
3815 1 -5.714894850960087 52.848766917828975 -5.92678304625981 0 0 0
3816 1 -3.953833779244239 54.09299364522023 -4.682633048303664 0 0 0
4109 1 -5.714900159953457 55.337236598636835 -5.926783042112904 0 0 0
3719 1 -0.4317131199789096 54.0929802121184 -7.170933054189268 0 0 1
3749 1 -2.192771689108816 52.84874754860876 -5.926783053421156 0 0 0
3750 1 -0.4317131199938264 54.09298021212115 -4.682633054276763 0 0 0
4043 1 -2.1927738904405865 55.33722399612143 -5.926783047135864 0 0 0
9223 1 -16.281308338147014 42.895033636059345 -0.9501830282195425 1 0 0
9224 1 -16.281308338196066 42.89503363591358 -3.4384830282166874 1 0 0
9265 1 -18.042386519006808 44.13925387473816 -2.194333064813756 1 0 0
3961 1 -14.520239205333944 44.13924446624138 -2.1943330078608283 0 0 0
3901 1 -10.99810229077337 44.13920106637413 -2.194332969644619 0 0 0
3902 1 -12.759174220423489 42.895001137237664 -0.9501829575193332 0 0 0
3903 1 -12.759174220423128 42.89500113705978 -3.438482957521162 0 0 0
3835 1 -7.475976290221522 44.139137686444435 -2.194332960717975 0 0 0
3836 1 -9.23704977434682 42.894937782159545 -0.9501829197032648 0 0 0
3837 1 -9.2370497743163 42.894937781977404 -3.4384829196609368 0 0 0
3769 1 -3.9538577605830123 44.139074822900874 -2.1943329874284587 0 0 0
3770 1 -5.71493133317846 42.89486424551464 -0.950182930546582 0 0 0
3771 1 -5.714931333143822 42.89486424536595 -3.438482930654299 0 0 0
3703 1 -0.43174056164596153 44.139032500338736 -2.1943330411759687 0 0 0
3704 1 -2.1928127531170416 42.89480427522519 -0.9501829887660862 0 0 0
3705 1 -2.1928127531387824 42.89480427503685 -3.4384829887319857 0 0 0
9226 1 -16.281315120376625 45.38347396675527 -0.9501830404239748 1 0 0
9233 1 -16.281315120365317 45.38347396683554 -3.438483040487008 1 0 0
9235 1 -16.281321435379958 47.871915276999346 -0.9501830452177878 1 0 0
9236 1 -16.281321435386523 47.87191527695158 -3.4384830451866364 1 0 0
9288 1 -18.042397531379972 46.627693138529054 -2.194333059018937 1 0 0
3972 1 -14.520240924183492 46.62768824242327 -2.194333028678151 0 0 0
3907 1 -12.759166751338203 45.383450970341876 -0.9501830040791345 0 0 0
3922 1 -12.75916675135927 45.38345097038 -3.438483004125593 0 0 0
3924 1 -10.998094113965992 46.627656795391154 -2.1943330098825626 0 0 0
3926 1 -12.759166552750324 47.87189992505978 -0.950183026536223 0 0 0
3927 1 -12.759166552790811 47.87189992500003 -3.438483026581462 0 0 0
3841 1 -9.237030280611767 45.38340264749807 -0.9501829884597635 0 0 0
3856 1 -9.237030280627918 45.38340264758483 -3.4384829884616033 0 0 0
3858 1 -7.475960631314388 46.627608847858376 -2.194333009001818 0 0 0
3860 1 -9.237023506963652 47.87186493260512 -0.9501830202697301 0 0 0
3861 1 -9.237023506934742 47.871864932529746 -3.438483020290856 0 0 0
3775 1 -5.7149058440025655 45.38334455282861 -0.9501829972502083 0 0 0
3790 1 -5.714905843937891 45.383344552929636 -3.4384829972717275 0 0 0
3792 1 -3.953839481696409 46.6275597417579 -2.194333025268618 0 0 0
3794 1 -5.714894485181161 47.87182145433629 -0.9501830276282286 0 0 0
3795 1 -5.71489448518406 47.87182145426896 -3.4384830276907525 0 0 0
3709 1 -2.1927893580802156 45.38329529323657 -0.9501830282414053 0 0 0
3724 1 -2.192789358119006 45.383295293374765 -3.438483028218455 0 0 0
3726 1 -0.4317255468675543 46.62752509868766 -2.194333054045211 0 0 0
3728 1 -2.1927769997212887 47.87178333323706 -0.9501830450419666 0 0 0
3729 1 -2.1927769997200346 47.871783333057714 -3.4384830450826036 0 0 0
9238 1 -16.281326839978828 50.36035978293267 -0.9501830471967017 1 0 0
9242 1 -16.281326839962162 50.36035978299993 -3.4384830472708616 1 0 0
9289 1 -18.042404666583973 49.11613533349217 -2.194333054280868 1 0 0
9306 1 -18.042408931361727 51.60458170541506 -2.1943330501963154 1 0 0
3973 1 -14.520245111139745 49.116133452700495 -2.1943330392538307 0 0 0
3981 1 -14.520250208140947 51.604581692508766 -2.194333043444188 0 0 0
3925 1 -10.99809398994574 49.11611187133571 -2.194333030520464 0 0 0
3931 1 -12.75917034102745 50.36035024918308 -0.9501830384956788 0 0 0
3940 1 -12.759170341008508 50.360350249302265 -3.4384830384898986 0 0 0
3942 1 -10.998098278381667 51.604567796861055 -2.194333039115813 0 0 0
3859 1 -7.4759560934896285 49.11607744332393 -2.194333032000959 0 0 0
3865 1 -9.23702439941766 50.36032625130727 -0.950183035090023 0 0 0
3874 1 -9.237024399427623 50.36032625137627 -3.4384830351808144 0 0 0
3876 1 -7.475958127942867 51.604544415518156 -2.194333041023963 0 0 0
3793 1 -3.9538318762284406 49.11604110113702 -2.194333042794903 0 0 0
3799 1 -5.714892083623395 50.36029538939959 -0.9501830412964513 0 0 0
3808 1 -5.714892083589668 50.36029538955758 -3.438483041310961 0 0 0
3810 1 -3.953830946629216 51.60451893711115 -2.194333049584972 0 0 0
3727 1 -0.43171734187228494 49.116014396163074 -2.194333059317839 0 0 0
3733 1 -2.1927720450236756 50.36026745004058 -0.9501830545310397 0 0 0
3742 1 -2.192772045009709 50.36026745025195 -3.4384830544453884 0 0 0
3744 1 -0.4317137708096886 51.60449945502544 -2.1943330595789403 0 0 0
9244 1 -16.281331172749923 52.84880835820818 -0.9501830441966959 1 0 0
9245 1 -16.2813311726737 52.84880835819865 -3.438483044229854 1 0 0
9307 1 -18.042411165879763 54.0930324944612 -2.1943330476891636 1 0 0
9617 1 -16.281334455343636 55.33726105798209 -0.9501830424955029 1 0 0
9623 1 -16.281334455336847 55.337261058063234 -3.4384830425509647 1 0 0
3982 1 -14.52025526194891 54.09303351564018 -2.1943330409721726 0 0 0
3943 1 -10.998104533336111 54.09302530455212 -2.194333039681924 0 0 0
3944 1 -12.759175913943501 52.848803027957935 -0.950183040728282 0 0 0
3945 1 -12.759175913901691 52.84880302789721 -3.4384830407935074 0 0 0
4227 1 -12.759181869098953 55.3372586007411 -0.9501830373124011 0 0 0
4240 1 -12.759181869166513 55.33725860076722 -3.4384830372870465 0 0 0
3877 1 -7.475963549420014 54.09301045402952 -2.1943330421594336 0 0 0
3878 1 -9.237029394261654 52.84878759104089 -0.9501830409710001 0 0 0
3879 1 -9.237029394289712 52.84878759089952 -3.4384830409936193 0 0 0
4161 1 -9.237036109552541 55.33724949073633 -0.9501830383847751 0 0 0
4174 1 -9.237036109573095 55.337249490784444 -3.438483038408132 0 0 0
3811 1 -3.953833779210686 54.09299364524542 -2.1943330481746544 0 0 0
3812 1 -5.714894850961975 52.848766917792474 -0.9501830461192361 0 0 0
3813 1 -5.71489485091718 52.848766917647836 -3.4384830461634883 0 0 0
4095 1 -5.714900159928144 55.3372365986051 -0.9501830420757135 0 0 0
4108 1 -5.714900159955485 55.33723659870351 -3.438483042128926 0 0 0
3745 1 -0.4317131200202075 54.09298021210514 -2.194333054064673 0 0 0
3746 1 -2.1927716891161806 52.84874754859609 -0.9501830534126285 0 0 0
3747 1 -2.1927716891345352 52.84874754849264 -3.438483053430161 0 0 0
4029 1 -2.1927738904039997 55.33722399614394 -0.9501830471044698 0 0 0
4042 1 -2.1927738903917913 55.33722399626685 -3.4384830471792047 0 0 0
9219 1 -16.281308338234403 42.895033635934496 1.5381169717987684 1 0 0
9253 1 -18.04238651892403 44.13925387471299 2.7822669351841696 1 0 0
9268 1 -18.042386518933252 44.13925387477477 0.2939669350702395 1 0 0
3954 1 -14.520239205323572 44.13924446619177 2.782266992139101 0 0 0
3962 1 -14.52023920536231 44.13924446624212 0.2939669920585731 0 0 0
3889 1 -10.998102290769115 44.13920106631989 2.7822670303663855 0 0 0
3891 1 -12.759174220443702 42.895001137050464 1.5381170424941195 0 0 0
3904 1 -10.998102290802583 44.13920106634412 0.29396703017891374 0 0 0
3823 1 -7.475976290172211 44.139137686466185 2.782267039248117 0 0 0
3825 1 -9.237049774380816 42.89493778197455 1.5381170803504154 0 0 0
3838 1 -7.475976290222421 44.13913768647467 0.29396703911104427 0 0 0
3757 1 -3.953857760615273 44.1390748229579 2.7822670125780435 0 0 0
3759 1 -5.714931333204276 42.89486424537204 1.5381170694417976 0 0 0
3772 1 -3.9538577605390217 44.1390748229012 0.2939670124047653 0 0 0
3691 1 -0.43174056162087704 44.139032500278006 2.7822669588855287 0 0 0
3693 1 -2.1928127531579573 42.89480427498637 1.5381170113485605 0 0 0
3706 1 -0.4317405616646346 44.13903250030942 0.29396695871302203 0 0 0
9225 1 -16.28131512034726 45.383473966831765 1.5381169595236768 1 0 0
9228 1 -16.281321435437988 47.87191527693363 1.538116954781891 1 0 0
9269 1 -18.04239753139646 46.62769313851666 0.29396694105164856 1 0 0
9272 1 -18.04239753139424 46.62769313845624 2.7822669409871756 1 0 0
3963 1 -14.520240924176075 46.62768824243982 0.2939669714135333 0 0 0
3964 1 -14.520240924160895 46.627688242450546 2.7822669713342916 0 0 0
3905 1 -10.998094113913753 46.6276567954526 0.29396699016016603 0 0 0
3906 1 -12.75916675129171 45.38345097041152 1.5381169958339171 0 0 0
3908 1 -10.99809411390377 46.62765679541321 2.782266990106075 0 0 0
3911 1 -12.75916655277214 47.87189992499925 1.5381169734352087 0 0 0
3839 1 -7.475960631264839 46.62760884782177 0.293966991187487 0 0 0
3840 1 -9.237030280642083 45.38340264757671 1.5381170115693088 0 0 0
3842 1 -7.475960631335825 46.62760884786501 2.782266991105746 0 0 0
3845 1 -9.23702350695806 47.87186493246554 1.5381169797695502 0 0 0
3773 1 -3.9538394817402605 46.62755974175095 0.29396697488707885 0 0 0
3774 1 -5.7149058439384435 45.383344552936435 1.5381170027762134 0 0 0
3776 1 -3.953839481722662 46.62755974175232 2.7822669747122015 0 0 0
3779 1 -5.714894485147562 47.87182145417436 1.5381169723988775 0 0 0
3707 1 -0.4317255468030376 46.62752509867811 0.2939669460497154 0 0 0
3708 1 -2.1927893581166185 45.38329529339044 1.5381169717474523 0 0 0
3710 1 -0.4317255467714775 46.62752509868667 2.7822669459007816 0 0 0
3713 1 -2.192776999652638 47.87178333299774 1.5381169548963567 0 0 0
9237 1 -16.281326839981066 50.36035978305566 1.5381169527965386 1 0 0
9273 1 -18.042404666582428 49.11613533345913 2.782266945808411 1 0 0
9292 1 -18.04240466656013 49.11613533347026 0.29396694564160725 1 0 0
9293 1 -18.042408931384603 51.604581705410574 0.2939669497553016 1 0 0
9296 1 -18.042408931365696 51.604581705435365 2.7822669497683084 1 0 0
3965 1 -14.520245111153534 49.116133452735944 2.7822669607961363 0 0 0
3974 1 -14.52024511113263 49.1161334527426 0.2939669606003029 0 0 0
3975 1 -14.520250208229514 51.604581692511545 0.29396695663982597 0 0 0
3976 1 -14.520250208220519 51.604581692498954 2.7822669565702802 0 0 0
3909 1 -10.998093989997201 49.11611187135787 2.782266969562804 0 0 0
3928 1 -10.998093989944769 49.11611187135508 0.293966969416932 0 0 0
3929 1 -10.998098278378496 51.60456779686093 0.2939669609647533 0 0 0
3930 1 -12.759170341042921 50.36035024924928 1.5381169615808292 0 0 0
3932 1 -10.998098278362496 51.60456779682074 2.782266960853714 0 0 0
3843 1 -7.475956093497817 49.11607744332535 2.7822669680180527 0 0 0
3862 1 -7.4759560934556095 49.11607744326515 0.29396696788695065 0 0 0
3863 1 -7.475958127970688 51.604544415513836 0.2939669590289542 0 0 0
3864 1 -9.237024399387979 50.36032625138617 1.538116964899793 0 0 0
3866 1 -7.475958127923541 51.6045444155061 2.7822669589830533 0 0 0
3777 1 -3.9538318762554305 49.11604110115318 2.782266957250238 0 0 0
3796 1 -3.9538318762562783 49.116041101144994 0.293966956978463 0 0 0
3797 1 -3.9538309465829853 51.60451893714409 0.29396695056076144 0 0 0
3798 1 -5.714892083606646 50.360295389537285 1.538116958718831 0 0 0
3800 1 -3.9538309465984804 51.60451893709708 2.7822669504800337 0 0 0
3711 1 -0.4317173418731773 49.11601439615045 2.782266940694713 0 0 0
3730 1 -0.431717341834751 49.1160143960997 0.2939669404569406 0 0 0
3731 1 -0.43171377083115875 51.604499455045506 0.29396694059839895 0 0 0
3732 1 -2.192772045000572 50.36026745021379 1.5381169455273407 0 0 0
3734 1 -0.4317137708332103 51.604499455020935 2.7822669404876494 0 0 0
9240 1 -16.281331172738966 52.84880835816033 1.5381169557552739 1 0 0
9297 1 -18.04241116581392 54.09303249445745 2.7822669523470656 1 0 0
9310 1 -18.042411165888183 54.0930324944597 0.2939669522900674 1 0 0
9616 1 -16.281334455303444 55.33726105805553 1.538116957493404 1 0 0
3977 1 -14.52025526201982 54.09303351568088 2.7822669590277087 0 0 0
3983 1 -14.520255262040422 54.09303351562994 0.293966958983912 0 0 0
3933 1 -10.99810453328773 54.09302530454157 2.7822669603316985 0 0 0
3935 1 -12.759175913990001 52.84880302791693 1.53811695927622 0 0 0
3946 1 -10.998104533281483 54.09302530450754 0.2939669602043476 0 0 0
4226 1 -12.759181869143399 55.33725860074306 1.5381169627417965 0 0 0
3867 1 -7.4759635493820715 54.093010454006404 2.782266957774093 0 0 0
3869 1 -9.237029394280398 52.848787590916075 1.5381169590267825 0 0 0
3880 1 -7.475963549440718 54.09301045397098 0.29396695768318243 0 0 0
4160 1 -9.237036109478101 55.337249490781524 1.538116961630313 0 0 0
3801 1 -3.953833779255679 54.09299364521832 2.782266951836976 0 0 0
3803 1 -5.71489485094944 52.848766917739546 1.5381169537517765 0 0 0
3814 1 -3.9538337792573914 54.09299364525923 0.2939669517459524 0 0 0
4094 1 -5.714900159957544 55.337236598739324 1.5381169578874008 0 0 0
3735 1 -0.43171311999657114 54.092980212127586 2.782266945900849 0 0 0
3737 1 -2.1927716891073548 52.84874754844789 1.5381169465856617 0 0 0
3748 1 -0.43171311997946865 54.09298021211156 0.2939669456690373 0 0 0
4028 1 -2.1927738904396636 55.33722399624593 1.5381169528606389 0 0 0
9217 1 -16.281308338167502 42.89503363595517 6.514716971780757 1 0 0
9218 1 -16.28130833818752 42.89503363600491 4.026416971771955 1 0 0
9256 1 -18.042386518979303 44.139253874760286 5.270566935082339 1 0 0
3955 1 -14.520239205328233 44.13924446622756 5.2705669920050875 0 0 0
3886 1 -12.759174220425615 42.895001137111514 6.514717042466799 0 0 0
3890 1 -12.759174220416892 42.8950011371636 4.026417042461243 0 0 0
3892 1 -10.998102290763454 44.13920106637052 5.2705670302093 0 0 0
3820 1 -9.237049774340225 42.89493778201245 6.514717080290179 0 0 0
3824 1 -9.237049774325824 42.894937782109004 4.026417080344765 0 0 0
3826 1 -7.47597629024349 44.139137686438815 5.270567039091477 0 0 0
3754 1 -5.714931333200554 42.89486424534926 6.514717069411201 0 0 0
3758 1 -5.714931333139567 42.894864245519685 4.026417069360925 0 0 0
3760 1 -3.9538577605741714 44.139074822909656 5.270567012388782 0 0 0
3688 1 -2.192812753107826 42.8948042750692 6.514717011212931 0 0 0
3692 1 -2.192812753132389 42.89480427521268 4.026417011285284 0 0 0
3694 1 -0.43174056162977903 44.13903250034834 5.270566958626336 0 0 0
9220 1 -16.281315120366283 45.38347396687504 6.514716959592086 1 0 0
9221 1 -16.28131512033526 45.383473966720054 4.026416959504275 1 0 0
9222 1 -16.281321435392744 47.871915276922145 6.51471695479073 1 0 0
9227 1 -16.28132143541187 47.871915277034525 4.026416954823886 1 0 0
9257 1 -18.042397531388186 46.62769313852436 5.270566941082767 1 0 0
3956 1 -14.520240924169881 46.62768824243447 5.2705669714244525 0 0 0
3893 1 -10.998094113984045 46.62765679539825 5.270566990220733 0 0 0
3894 1 -12.759166751354988 45.38345097044985 6.514716995911541 0 0 0
3895 1 -12.759166751343109 45.38345097027269 4.0264169958693135 0 0 0
3898 1 -12.759166552753568 47.87189992497258 6.5147169734587145 0 0 0
3910 1 -12.759166552786528 47.871899925109574 4.026416973422302 0 0 0
3827 1 -7.475960631323179 46.62760884785243 5.270566991139345 0 0 0
3828 1 -9.23703028062837 45.38340264762984 6.514717011517483 0 0 0
3829 1 -9.237030280653316 45.38340264746798 4.026417011528671 0 0 0
3832 1 -9.237023506975559 47.871864932467446 6.514716979734636 0 0 0
3844 1 -9.237023506932614 47.87186493264094 4.026416979725197 0 0 0
3761 1 -3.953839481691729 46.62755974175823 5.270566974888606 0 0 0
3762 1 -5.714905844005266 45.38334455299238 6.514717002734786 0 0 0
3763 1 -5.714905843938373 45.38334455279278 4.026417002732105 0 0 0
3766 1 -5.7148944851768 47.871821454168085 6.51471697234925 0 0 0
3778 1 -5.714894485174145 47.87182145441194 4.026416972342402 0 0 0
3695 1 -0.4317255468305037 46.627525098733045 5.270566946123183 0 0 0
3696 1 -2.192789358047137 45.38329529343571 6.514716971751731 0 0 0
3697 1 -2.192789358101594 45.38329529321211 4.026416971770334 0 0 0
3700 1 -2.19277699971552 47.87178333305435 6.514716954948339 0 0 0
3712 1 -2.192776999730991 47.87178333322982 4.026416954924972 0 0 0
9229 1 -16.28132683998742 50.360359783019916 6.514716952798499 1 0 0
9230 1 -16.281326839976565 50.36035978293993 4.026416952740167 1 0 0
9276 1 -18.042404666606274 49.116135333483605 5.270566945635576 1 0 0
9277 1 -18.042408931374368 51.60458170541361 5.270566949847828 1 0 0
3966 1 -14.520245111156397 49.11613345268373 5.270566960620088 0 0 0
3967 1 -14.520250208154996 51.6045816924955 5.270566956618942 0 0 0
3912 1 -10.99809398994897 49.11611187132485 5.2705669693521795 0 0 0
3913 1 -10.998098278381523 51.60456779686344 5.270566960943332 0 0 0
3914 1 -12.759170341039598 50.36035024926193 6.514716961475259 0 0 0
3915 1 -12.759170341029348 50.36035024920781 4.026416961494888 0 0 0
3846 1 -7.4759560934562765 49.11607744329371 5.270566967842822 0 0 0
3847 1 -7.47595812792718 51.604544415511135 5.270566959051635 0 0 0
3848 1 -9.237024399412638 50.3603262514089 6.514716964892349 0 0 0
3849 1 -9.237024399409863 50.36032625124467 4.026416964840844 0 0 0
3780 1 -3.9538318762219853 49.11604110111378 5.270566957024952 0 0 0
3781 1 -3.9538309466214927 51.60451893711865 5.270566950543752 0 0 0
3782 1 -5.714892083590765 50.36029538953189 6.514716958706343 0 0 0
3783 1 -5.714892083559446 50.360295389428686 4.026416958686692 0 0 0
3714 1 -0.43171734187383026 49.116014396154156 5.270566940469513 0 0 0
3715 1 -0.43171377081488055 51.604499455040894 5.2705669405630715 0 0 0
3716 1 -2.1927720450221293 50.36026745020373 6.514716945490259 0 0 0
3717 1 -2.1927720450084145 50.36026745010488 4.026416945537864 0 0 0
9231 1 -16.28133117274497 52.84880835815398 6.5147169557746585 1 0 0
9239 1 -16.281331172686475 52.84880835824864 4.026416955758749 1 0 0
9300 1 -18.04241116586574 54.093032494473974 5.270566952263501 1 0 0
9613 1 -16.281334455330672 55.33726105800681 6.51471695750299 1 0 0
9614 1 -16.28133445532092 55.33726105806768 4.02641695746748 1 0 0
3978 1 -14.520255261949048 54.09303351563851 5.2705669589527675 0 0 0
3918 1 -12.75917591394636 52.84880302789158 6.514716959237828 0 0 0
3934 1 -12.759175913922862 52.848803027917285 4.026416959205344 0 0 0
3936 1 -10.998104533346085 54.09302530456153 5.270566960227792 0 0 0
4220 1 -12.759181869101923 55.337258600765175 6.51471696266319 0 0 0
4221 1 -12.759181869172853 55.337258600730934 4.02641696272369 0 0 0
3852 1 -9.237029394259944 52.84878759098737 6.514716958982097 0 0 0
3868 1 -9.237029394290529 52.84878759097651 4.026416959008089 0 0 0
3870 1 -7.475963549400698 54.09301045403687 5.270566957721399 0 0 0
4154 1 -9.237036109531623 55.33724949078889 6.514716961592589 0 0 0
4155 1 -9.23703610956419 55.33724949074875 4.026416961594253 0 0 0
3786 1 -5.714894850963054 52.848766917686774 6.514716953867383 0 0 0
3802 1 -5.71489485090465 52.84876691776979 4.026416953833244 0 0 0
3804 1 -3.953833779222693 54.09299364523757 5.270566951691789 0 0 0
4088 1 -5.714900159935726 55.33723659870399 6.514716957909583 0 0 0
4089 1 -5.714900159930594 55.33723659866288 4.026416957863663 0 0 0
3720 1 -2.1927716891150566 52.848747548455485 6.51471694656502 0 0 0
3736 1 -2.192771689138684 52.84874754864396 4.026416946554372 0 0 0
3738 1 -0.43171312002697687 54.09298021210928 5.2705669457525035 0 0 0
4022 1 -2.1927738904162513 55.337223996258196 6.514716952881367 0 0 0
4023 1 -2.1927738904083087 55.337223996130135 4.02641695281685 0 0 0
9634 1 -16.281336810272826 57.825717476508785 -5.926783038521781 1 0 0
9652 1 -18.04241204808056 56.58148736888492 -7.1709330432414555 1 0 1
9653 1 -18.042412085256377 59.069945713087485 -7.1709330415168795 1 0 1
9669 1 -18.042412048067703 56.58148736892749 -4.682633043189166 1 0 0
9691 1 -18.042412085208742 59.06994571310927 -4.682633041541889 1 0 0
4286 1 -14.520259752602843 56.581488853200824 -7.170933037825309 0 0 1
4287 1 -14.520263459049895 59.069947295580704 -7.170933035259216 0 0 1
4295 1 -14.520259752612457 56.58148885320078 -4.682633037798292 0 0 0
4305 1 -14.520263459056983 59.06994729554852 -4.682633035256677 0 0 0
4222 1 -10.998111201828348 56.58148463035577 -7.170933036039116 0 0 1
4223 1 -10.99811739045364 59.06994571149606 -7.17093303357043 0 0 1
4239 1 -10.998111201858537 56.58148463038062 -4.682633036079194 0 0 0
4260 1 -12.759187405874163 57.82571685880508 -5.926783036087586 0 0 0
4261 1 -10.998117390429332 59.06994571148213 -4.6826330336402515 0 0 0
4156 1 -7.475970255735592 56.58147603241082 -7.170933037268461 0 0 1
4157 1 -7.475976954054361 59.06994145727947 -7.170933036117757 0 0 1
4173 1 -7.475970255759871 56.58147603247154 -4.68263303725077 0 0 0
4194 1 -9.237043058701312 57.82571218678596 -5.926783034849388 0 0 0
4195 1 -7.475976954039461 59.069941457278254 -4.682633036138713 0 0 0
4090 1 -3.9538383742590777 56.58146576738428 -7.1709330407740035 0 0 1
4091 1 -3.9538434416615544 59.069935873849495 -7.170933041399876 0 0 1
4107 1 -3.9538383742583703 56.5814657674414 -4.6826330407392165 0 0 0
4128 1 -5.714906299104173 57.82570493274495 -5.926783038255133 0 0 0
4129 1 -3.9538434417023236 59.069935873809314 -4.682633041479524 0 0 0
4024 1 -0.43171413823767224 56.58145708773856 -7.170933049493045 0 0 1
4025 1 -0.4317159612470286 59.069930729015915 -7.170933047029029 0 0 1
4041 1 -0.43171413819846505 56.581457087754345 -4.68263304931311 0 0 0
4062 1 -2.192777258172987 57.82569738314981 -5.926783044302333 0 0 0
4063 1 -0.4317159612897142 59.06993072900553 -4.682633047169462 0 0 0
9636 1 -16.28133840226753 60.31417700015284 -5.926783038491419 1 0 0
9666 1 -18.042411650932586 61.55840682490767 -7.170933044096816 1 0 1
9692 1 -18.042411650914442 61.55840682497327 -4.682633044128476 1 0 0
4293 1 -14.52026634095396 61.55840829393616 -7.170933036487342 0 0 1
4306 1 -14.52026634099639 61.55840829399279 -4.68263303657229 0 0 0
4236 1 -10.998122664372282 61.55840832660519 -7.170933034267301 0 0 1
4262 1 -10.998122664305752 61.55840832660611 -4.682633034297069 0 0 0
4264 1 -12.759192125597423 60.314177458200504 -5.926783033602477 0 0 0
4170 1 -7.475982938330357 61.55840690962805 -7.170933036601493 0 0 1
4196 1 -7.475982938397577 61.55840690962968 -4.682633036661813 0 0 0
4198 1 -9.237049399417957 60.31417571935856 -5.92678303415852 0 0 0
4104 1 -3.953848230236409 61.55840448836811 -7.170933040370144 0 0 1
4130 1 -3.9538482301954936 61.558404488338894 -4.682633040330603 0 0 0
4132 1 -5.714912239739996 60.31417232935779 -5.926783037477748 0 0 0
4038 1 -0.43171802499606726 61.55840183199254 -7.170933047721984 0 0 1
4064 1 -0.4317180250417689 61.55840183202105 -4.682633047652972 0 0 0
4066 1 -2.1927809042351143 60.31416835922503 -5.926783043582517 0 0 0
9643 1 -16.281339404659978 62.80263896681707 -5.926783044403618 1 0 0
9645 1 -16.281339973232665 65.29110275042127 -5.92678305629169 1 0 0
9667 1 -18.042411002777143 64.04687002380977 -7.170933053245765 1 0 1
9707 1 -18.042411002831862 64.04687002385009 -4.682633053058787 1 0 0
4294 1 -14.520268460720528 64.04687127345238 -7.170933047665429 0 0 1
4312 1 -14.52026846071852 64.04687127347191 -4.682633047493352 0 0 0
4237 1 -10.998126872083276 64.04687219086705 -7.170933042145548 0 0 1
4276 1 -12.759195896866876 62.80263996571103 -5.926783038274159 0 0 0
4277 1 -10.998126872079117 64.04687219094222 -4.682633041975722 0 0 0
4280 1 -12.759198742713593 65.29110394009842 -5.926783050798274 0 0 0
4171 1 -7.475987892459473 64.04687248228127 -7.170933039216779 0 0 1
4210 1 -9.237054733564841 62.80264002212169 -5.926783036656534 0 0 0
4211 1 -7.475987892514678 64.04687248223807 -4.682633039116354 0 0 0
4214 1 -9.237058946739484 65.29110497712838 -5.926783045220737 0 0 0
4105 1 -3.9538523537959 64.04687205616082 -7.170933041235084 0 0 1
4144 1 -5.714917437938604 62.802639114537 -5.926783037925515 0 0 0
4145 1 -3.9538523537620867 64.0468720562497 -4.682633041145727 0 0 0
4148 1 -5.714921676740031 65.29110552999717 -5.926783043106504 0 0 0
4039 1 -0.4317199986874839 64.04687104812885 -7.170933046790516 0 0 1
4078 1 -2.1927843110895258 62.80263753133563 -5.926783043058619 0 0 0
4079 1 -0.4317199987242861 64.04687104818971 -4.6826330467837405 0 0 0
4082 1 -2.1927872217791093 65.29110542556982 -5.9267830473928695 0 0 0
9648 1 -16.281340238817073 67.77956781729466 -5.926783063596492 1 0 0
9688 1 -18.04241029819025 66.53533471758625 -7.170933063141957 1 0 1
9708 1 -18.04241029827368 66.5353347176171 -4.682633063164404 1 0 0
10039 1 -18.04240963742289 69.02380041981071 -7.170933068855982 1 0 1
10064 1 -18.04240963739741 69.02380041981891 -4.682633068656665 1 0 0
4304 1 -14.52026993307808 66.53533571251339 -7.170933057204902 0 0 1
4313 1 -14.520269933079666 66.53533571252213 -4.682633057217144 0 0 0
4609 1 -14.520270890315718 69.02380116687324 -7.170933062439447 0 0 1
4624 1 -14.520270890334576 69.02380116694142 -4.682633062213202 0 0 0
4258 1 -10.998130045774355 66.53533701772385 -7.170933050715367 0 0 1
4278 1 -10.998130045747244 66.53533701777212 -4.682633050758606 0 0 0
4284 1 -12.75920077345255 67.77956898526774 -5.926783057114321 0 0 0
4543 1 -10.998132311887353 69.02380254788747 -7.1709330568937935 0 0 1
4568 1 -10.99813231189292 69.02380254783994 -4.6826330566748595 0 0 0
4192 1 -7.4759917529291675 66.53533821846761 -7.170933047027906 0 0 1
4212 1 -7.475991752866225 66.53533821848684 -4.682633047037797 0 0 0
4218 1 -9.237062095072401 67.77957044893058 -5.926783051857135 0 0 0
4477 1 -7.475994604991861 69.02380411955545 -7.1709330548084935 0 0 1
4502 1 -7.475994604982425 69.02380411957282 -4.682633054577839 0 0 0
4126 1 -3.9538556724583604 66.53533893332526 -7.170933048142227 0 0 1
4146 1 -3.9538556724263385 66.53533893333973 -4.682633048099325 0 0 0
4152 1 -5.7149249354347145 67.77957174752362 -5.926783050418744 0 0 0
4411 1 -3.953858192762384 69.02380538524056 -7.170933057924966 0 0 1
4436 1 -3.9538581927578313 69.0238053852313 -4.6826330578044955 0 0 0
4060 1 -0.4317217090960697 66.53533893713904 -7.170933054773161 0 0 1
4080 1 -0.43172170908958596 66.53533893718829 -4.682633054696822 0 0 0
4086 1 -2.1927895491592277 67.77957246563204 -5.926783054378549 0 0 0
4345 1 -0.4317230951364856 69.02380594425395 -7.170933060598616 0 0 1
4370 1 -0.431723095074761 69.02380594426756 -4.682633060486697 0 0 0
9625 1 -16.281336810317228 57.82571747643124 -0.9501830385346528 1 0 0
9626 1 -16.28133681031175 57.825717476440985 -3.4384830385477385 1 0 0
9672 1 -18.042412048091748 56.581487368924336 -2.1943330432511767 1 0 0
9673 1 -18.042412085224484 59.06994571313945 -2.1943330415152915 1 0 0
4296 1 -14.52025975263974 56.58148885317738 -2.1943330377785855 0 0 0
4297 1 -14.520263459032577 59.06994729556439 -2.1943330352541217 0 0 0
4242 1 -10.998111201868655 56.581484630401995 -2.1943330360866002 0 0 0
4243 1 -10.998117390431476 59.06994571150729 -2.1943330335950044 0 0 0
4244 1 -12.759187405847236 57.825716858782876 -0.9501830360851369 0 0 0
4245 1 -12.759187405830202 57.825716858828166 -3.4384830360970913 0 0 0
4176 1 -7.4759702557284395 56.58147603245896 -2.194333037278316 0 0 0
4177 1 -7.475976954024288 59.069941457262416 -2.1943330360995157 0 0 0
4178 1 -9.237043058636802 57.82571218673625 -0.9501830348709008 0 0 0
4179 1 -9.237043058672837 57.82571218679544 -3.438483034790325 0 0 0
4110 1 -3.9538383742105023 56.581465767401156 -2.194333040726387 0 0 0
4111 1 -3.9538434417132886 59.06993587387951 -2.19433304143856 0 0 0
4112 1 -5.714906299078035 57.8257049327618 -0.9501830383297986 0 0 0
4113 1 -5.714906299034829 57.825704932757475 -3.4384830383948803 0 0 0
4044 1 -0.43171413821441407 56.58145708777546 -2.1943330494913713 0 0 0
4045 1 -0.4317159612847518 59.06993072898233 -2.1943330470630373 0 0 0
4046 1 -2.192777258214252 57.82569738313591 -0.9501830443059768 0 0 0
4047 1 -2.1927772581888703 57.825697383002954 -3.438483044299626 0 0 0
9628 1 -16.281338402276536 60.31417700015971 -0.9501830384663723 1 0 0
9635 1 -16.281338402198518 60.31417700012097 -3.4384830385123877 1 0 0
9695 1 -18.042411650911504 61.55840682494334 -2.194333044050269 1 0 0
4307 1 -14.520266340959198 61.558408293995804 -2.1943330365073916 0 0 0
4249 1 -12.759192125665631 60.31417745816907 -0.950183033549658 0 0 0
4263 1 -12.759192125661668 60.31417745819085 -3.4384830335932324 0 0 0
4265 1 -10.998122664331783 61.5584083266106 -2.194333034135998 0 0 0
4183 1 -9.237049399381917 60.31417571938298 -0.9501830341872408 0 0 0
4197 1 -9.23704939936565 60.3141757193658 -3.4384830342037547 0 0 0
4199 1 -7.475982938358437 61.558406909563274 -2.194333036570564 0 0 0
4117 1 -5.714912239707104 60.31417232940928 -0.9501830374263233 0 0 0
4131 1 -5.714912239784352 60.314172329374365 -3.438483037423424 0 0 0
4133 1 -3.9538482302130764 61.55840448838925 -2.1943330402915753 0 0 0
4051 1 -2.1927809042363573 60.31416835925018 -0.9501830435834174 0 0 0
4065 1 -2.1927809042484143 60.31416835932941 -3.4384830436107516 0 0 0
4067 1 -0.4317180250529796 61.55840183197562 -2.19433304767085 0 0 0
9637 1 -16.28133940466489 62.80263896690387 -0.9501830444181001 1 0 0
9638 1 -16.281339404702923 62.802638966997186 -3.438483044391901 1 0 0
9640 1 -16.281339973261304 65.2911027504129 -0.9501830562676067 1 0 0
9644 1 -16.281339973304544 65.29110275026738 -3.438483056319113 1 0 0
9696 1 -18.04241100278512 64.04687002382992 -2.194333053257243 1 0 0
4308 1 -14.52026846076622 64.04687127349459 -2.1943330476058924 0 0 0
4266 1 -10.998126872116746 64.04687219090094 -2.1943330421556775 0 0 0
4267 1 -12.75919589683571 62.80263996577507 -0.9501830381551363 0 0 0
4268 1 -12.759195896861849 62.802639965872224 -3.438483038276472 0 0 0
4272 1 -12.759198742685594 65.29110394014435 -0.950183050704852 0 0 0
4279 1 -12.759198742653393 65.29110394003395 -3.4384830507647632 0 0 0
4200 1 -7.475987892502941 64.04687248223155 -2.1943330392088303 0 0 0
4201 1 -9.237054733593471 62.80264002211327 -0.9501830366105817 0 0 0
4202 1 -9.237054733541898 62.80264002217818 -3.4384830366364185 0 0 0
4206 1 -9.237058946722986 65.2911049771242 -0.9501830451834234 0 0 0
4213 1 -9.237058946776454 65.2911049770836 -3.4384830452141557 0 0 0
4134 1 -3.9538523538245713 64.04687205620799 -2.194333041152145 0 0 0
4135 1 -5.714917438018894 62.80263911456915 -0.9501830378430478 0 0 0
4136 1 -5.714917437968716 62.80263911461173 -3.438483037907458 0 0 0
4140 1 -5.714921676827195 65.29110553000955 -0.9501830430682793 0 0 0
4147 1 -5.714921676787775 65.29110553000108 -3.4384830431619173 0 0 0
4068 1 -0.4317199986498586 64.04687104815052 -2.1943330467868254 0 0 0
4069 1 -2.192784311099633 62.80263753132077 -0.9501830430177378 0 0 0
4070 1 -2.192784311087624 62.802637531299744 -3.4384830430364075 0 0 0
4074 1 -2.1927872217892728 65.29110542557983 -0.9501830472837498 0 0 0
4081 1 -2.192787221805566 65.29110542562896 -3.4384830473864847 0 0 0
9646 1 -16.28134023877819 67.7795678172779 -0.9501830635492813 1 0 0
9647 1 -16.28134023882433 67.77956781739061 -3.4384830636707133 1 0 0
9711 1 -18.04241029823888 66.53533471758698 -2.194333063057722 1 0 0
10048 1 -18.042409637484948 69.0238004198361 -2.194333068810236 1 0 0
4314 1 -14.520269933062366 66.53533571252407 -2.194333057125659 0 0 0
4615 1 -14.52027089032857 69.0238011669812 -2.1943330623964967 0 0 0
4281 1 -10.998130045782213 66.53533701775443 -2.1943330507211325 0 0 0
4282 1 -12.759200773474872 67.7795689852846 -0.9501830570558739 0 0 0
4283 1 -12.759200773486532 67.77956898542614 -3.4384830571921254 0 0 0
4552 1 -10.99813231182583 69.02380254780053 -2.1943330568689565 0 0 0
4215 1 -7.4759917529448785 66.53533821850989 -2.194333047011166 0 0 0
4216 1 -9.23706209504914 67.77957044899073 -0.9501830518459521 0 0 0
4217 1 -9.237062095078779 67.77957044909188 -3.4384830519080527 0 0 0
4486 1 -7.4759946050244555 69.02380411956723 -2.194333054771573 0 0 0
4149 1 -3.9538556724661134 66.53533893331563 -2.1943330480832595 0 0 0
4150 1 -5.714924935442492 67.77957174753675 -0.9501830503082207 0 0 0
4151 1 -5.714924935450626 67.77957174761598 -3.438483050486202 0 0 0
4420 1 -3.953858192768762 69.02380538526023 -2.1943330578274383 0 0 0
4083 1 -0.43172170908094043 66.53533893713359 -2.1943330547420117 0 0 0
4084 1 -2.1927895491557585 67.77957246564722 -0.9501830543291886 0 0 0
4085 1 -2.192789549106993 67.77957246566245 -3.438483054403394 0 0 0
4354 1 -0.4317230951517687 69.02380594427211 -2.1943330605040274 0 0 0
9619 1 -16.281336810267316 57.82571747651317 1.5381169614633046 1 0 0
9655 1 -18.04241204808553 56.581487368893335 0.29396695678326534 1 0 0
9658 1 -18.0424120480519 56.5814873689359 2.782266956811601 1 0 0
9659 1 -18.042412085210767 59.06994571309592 2.782266958483558 1 0 0
9676 1 -18.04241208524688 59.06994571308168 0.2939669584592253 1 0 0
4288 1 -14.520259752588347 56.581488853218985 0.2939669621509843 0 0 0
4289 1 -14.520259752601325 56.581488853211816 2.782266962227308 0 0 0
4290 1 -14.520263459059349 59.069947295552375 2.782266964735218 0 0 0
4298 1 -14.520263459058247 59.06994729557575 0.29396696476280626 0 0 0
4225 1 -10.998111201813721 56.58148463035336 0.29396696396395716 0 0 0
4228 1 -10.99811120185954 56.58148463036438 2.7822669639459723 0 0 0
4229 1 -10.998117390447764 59.069945711486284 2.7822669663698743 0 0 0
4231 1 -12.759187405861049 57.82571685881098 1.5381169639126124 0 0 0
4246 1 -10.998117390443884 59.069945711504154 0.29396696645126624 0 0 0
4159 1 -7.475970255752068 56.58147603240532 0.2939669627458333 0 0 0
4162 1 -7.475970255749005 56.58147603249505 2.7822669627217502 0 0 0
4163 1 -7.47597695404314 59.06994145729661 2.7822669639265003 0 0 0
4165 1 -9.237043058696337 57.825712186786795 1.5381169651810578 0 0 0
4180 1 -7.475976954047073 59.06994145730834 0.29396696389704446 0 0 0
4093 1 -3.9538383742659278 56.581465767395244 0.2939669592967377 0 0 0
4096 1 -3.9538383742497616 56.58146576745895 2.7822669591696054 0 0 0
4097 1 -3.953843441704504 59.069935873812845 2.782266958622352 0 0 0
4099 1 -5.714906299111503 57.82570493270104 1.5381169617607555 0 0 0
4114 1 -3.9538434416792057 59.069935873859656 0.2939669585166625 0 0 0
4027 1 -0.43171413824522026 56.58145708774471 0.29396695063529377 0 0 0
4030 1 -0.43171413821474364 56.58145708774706 2.7822669505814304 0 0 0
4031 1 -0.4317159612849246 59.069930728977475 2.782266952964806 0 0 0
4033 1 -2.1927772581902834 57.82569738308162 1.5381169556953662 0 0 0
4048 1 -0.4317159612465255 59.06993072900483 0.2939669528480818 0 0 0
9627 1 -16.28133840226912 60.31417700009461 1.5381169614970691 1 0 0
9677 1 -18.04241165092312 61.55840682489748 0.29396695582825544 1 0 0
9680 1 -18.04241165094549 61.55840682496022 2.7822669559359454 1 0 0
4299 1 -14.520266340946977 61.558408293931436 0.2939669634252036 0 0 0
4300 1 -14.520266341014825 61.5584082940055 2.7822669635247914 0 0 0
4247 1 -10.998122664385853 61.55840832659719 0.2939669656895728 0 0 0
4248 1 -12.759192125610236 60.3141774581318 1.5381169664085963 0 0 0
4250 1 -10.998122664301384 61.558408326610014 2.782266965804735 0 0 0
4181 1 -7.475982938322677 61.558406909629355 0.2939669633949915 0 0 0
4182 1 -9.237049399419572 60.31417571934854 1.5381169658387632 0 0 0
4184 1 -7.475982938401521 61.55840690965199 2.7822669634233184 0 0 0
4115 1 -3.953848230227151 61.55840448836235 0.29396695968167597 0 0 0
4116 1 -5.71491223974301 60.314172329361746 1.53811696255505 0 0 0
4118 1 -3.9538482301803985 61.558404488327014 2.782266959687794 0 0 0
4049 1 -0.43171802498954437 61.55840183200913 0.29396695231612635 0 0 0
4050 1 -2.1927809042113253 60.31416835927916 1.5381169563951345 0 0 0
4052 1 -0.4317180250467704 61.55840183200371 2.782266952285243 0 0 0
9630 1 -16.2813394046716 62.80263896690382 1.5381169556154541 1 0 0
9639 1 -16.281339973235653 65.29110275030543 1.538116943684089 1 0 0
9681 1 -18.042411002853328 64.04687002384675 2.7822669468907475 1 0 0
9699 1 -18.042411002780135 64.04687002379315 0.29396694679000235 1 0 0
4301 1 -14.520268460721605 64.0468712734708 2.7822669524355867 0 0 0
4309 1 -14.520268460725415 64.04687127345336 0.29396695243534826 0 0 0
4251 1 -10.998126872036538 64.04687219093759 2.7822669579510166 0 0 0
4253 1 -12.759195896849985 62.80263996579767 1.538116961770352 0 0 0
4269 1 -10.998126872086758 64.04687219087728 0.29396695792436034 0 0 0
4271 1 -12.759198742710808 65.29110393996437 1.5381169492140327 0 0 0
4185 1 -7.475987892517611 64.04687248223819 2.782266960837571 0 0 0
4187 1 -9.237054733562442 62.80264002219128 1.538116963338087 0 0 0
4203 1 -7.4759878924650645 64.04687248229183 0.2939669608440002 0 0 0
4205 1 -9.237058946730068 65.29110497703088 1.5381169548003588 0 0 0
4119 1 -3.953852353773257 64.04687205624884 2.782266958889542 0 0 0
4121 1 -5.714917437943004 62.80263911455955 1.5381169620927537 0 0 0
4137 1 -3.953852353802293 64.04687205616854 0.2939669587992322 0 0 0
4139 1 -5.714921676743084 65.29110552993772 1.5381169568934605 0 0 0
4053 1 -0.4317199987045073 64.0468710481794 2.78226695325115 0 0 0
4055 1 -2.192784311086094 62.80263753130808 1.5381169569641584 0 0 0
4071 1 -0.4317199986987729 64.04687104812503 0.2939669531741849 0 0 0
4073 1 -2.192787221773632 65.29110542553579 1.5381169526261183 0 0 0
9642 1 -16.28134023880926 67.77956781745243 1.5381169363945721 1 0 0
9700 1 -18.042410298193182 66.53533471759937 0.29396693673109203 1 0 0
9703 1 -18.042410298257288 66.53533471761384 2.782266936996399 1 0 0
10040 1 -18.042409637384775 69.02380041981397 2.782266931240129 1 0 0
10049 1 -18.042409637430122 69.02380041982425 0.2939669312434679 1 0 0
4310 1 -14.520269933091908 66.53533571252667 0.2939669426147965 0 0 0
4311 1 -14.520269933075987 66.53533571251515 2.782266942940395 0 0 0
4610 1 -14.52027089032134 69.02380116694182 2.782266937611856 0 0 0
4616 1 -14.52027089030486 69.02380116688472 0.2939669376454114 0 0 0
4270 1 -10.998130045781098 66.53533701772129 0.2939669491056288 0 0 0
4273 1 -10.998130045746116 66.53533701777467 2.7822669493717287 0 0 0
4275 1 -12.759200773462325 67.77956898542128 1.5381169428863535 0 0 0
4544 1 -10.998132311884682 69.02380254781355 2.782266943166511 0 0 0
4553 1 -10.998132311889394 69.02380254788896 0.2939669432233944 0 0 0
4204 1 -7.475991752930621 66.53533821846423 0.29396695284640517 0 0 0
4207 1 -7.475991752859471 66.53533821848943 2.782266953091151 0 0 0
4209 1 -9.237062095072163 67.77957044905098 1.5381169481186807 0 0 0
4478 1 -7.475994605012045 69.02380411955399 2.7822669453234368 0 0 0
4487 1 -7.475994604993718 69.02380411956368 0.29396694528577955 0 0 0
4138 1 -3.953855672459925 66.53533893332077 0.29396695178903093 0 0 0
4141 1 -3.9538556724086713 66.53533893334615 2.78226695197046 0 0 0
4143 1 -5.714924935454467 67.77957174760985 1.5381169495947464 0 0 0
4412 1 -3.9538581927617176 69.02380538521786 2.782266942155001 0 0 0
4421 1 -3.953858192778281 69.02380538522843 0.29396694212734276 0 0 0
4072 1 -0.43172170909406626 66.5353389371311 0.29396694519176375 0 0 0
4075 1 -0.43172170909984664 66.53533893716975 2.7822669453333484 0 0 0
4077 1 -2.1927895491518106 67.77957246565617 1.5381169456265855 0 0 0
4346 1 -0.431723095092181 69.02380594426933 2.7822669395164854 0 0 0
4355 1 -0.43172309514698637 69.02380594426187 0.2939669394023449 0 0 0
9615 1 -16.281336810309735 57.825717476444275 6.514716961486172 1 0 0
9618 1 -16.28133681028224 57.82571747643756 4.026416961454646 1 0 0
9649 1 -18.04241204807813 56.581487368916875 5.2705669567478255 1 0 0
9662 1 -18.042412085213574 59.069945713113974 5.270566958470427 1 0 0
4285 1 -14.520259752633878 56.58148885317281 5.2705669622121 0 0 0
4291 1 -14.520263459032373 59.06994729556602 5.270566964773988 0 0 0
4219 1 -10.9981112018716 56.581484630394144 5.2705669639086485 0 0 0
4224 1 -12.759187405857872 57.82571685877729 6.514716963925037 0 0 0
4230 1 -12.7591874058276 57.82571685878586 4.026416963918 0 0 0
4232 1 -10.998117390445502 59.069945711506705 5.270566966395506 0 0 0
4153 1 -7.4759702557247785 56.581476032477504 5.270566962721234 0 0 0
4158 1 -9.237043058648464 57.82571218670963 6.514716965120836 0 0 0
4164 1 -9.237043058698404 57.82571218679969 4.026416965204357 0 0 0
4166 1 -7.475976954047663 59.06994145727062 5.270566963875255 0 0 0
4087 1 -3.9538383741891625 56.58146576740588 5.270566959329641 0 0 0
4092 1 -5.71490629906189 57.825704932702905 6.514716961664839 0 0 0
4098 1 -5.714906299031895 57.8257049328024 4.026416961599362 0 0 0
4100 1 -3.9538434417070896 59.06993587388018 5.270566958479308 0 0 0
4021 1 -0.43171413820924454 56.58145708775198 5.270566950601931 0 0 0
4026 1 -2.1927772581919256 57.82569738303461 6.514716955681532 0 0 0
4032 1 -2.192777258178998 57.825697383087174 4.026416955696603 0 0 0
4034 1 -0.43171596127488304 59.06993072896571 5.2705669528165275 0 0 0
9620 1 -16.281338402303103 60.31417700010417 6.514716961527671 1 0 0
9621 1 -16.28133840223067 60.31417700016959 4.0264169614808365 1 0 0
9663 1 -18.042411650946864 61.55840682494093 5.270566955859145 1 0 0
4292 1 -14.520266340995805 61.55840829397861 5.27056696338546 0 0 0
4233 1 -10.998122664313444 61.558408326615435 5.2705669657596665 0 0 0
4234 1 -12.759192125646946 60.31417745811557 6.514716966429356 0 0 0
4235 1 -12.759192125676789 60.3141774582467 4.026416966398676 0 0 0
4167 1 -7.475982938358798 61.558406909557405 5.270566963354269 0 0 0
4168 1 -9.237049399387871 60.314175719345855 6.514716965790255 0 0 0
4169 1 -9.237049399386976 60.314175719401035 4.02641696581357 0 0 0
4101 1 -3.9538482302097746 61.55840448837382 5.270566959705026 0 0 0
4102 1 -5.714912239730883 60.31417232939246 6.514716962548984 0 0 0
4103 1 -5.714912239788493 60.3141723293515 4.026416962593884 0 0 0
4035 1 -0.43171802506569606 61.558401831954775 5.270566952391301 0 0 0
4036 1 -2.192780904227327 60.31416835930215 6.51471695642265 0 0 0
4037 1 -2.1927809042305673 60.314168359242025 4.026416956390482 0 0 0
9622 1 -16.28133940468338 62.80263896699566 6.514716955574304 1 0 0
9629 1 -16.281339404729295 62.802638966910415 4.0264169556011415 1 0 0
9631 1 -16.28133997324314 65.29110275029684 6.514716943735824 1 0 0
9632 1 -16.28133997329827 65.2911027503904 4.026416943658798 1 0 0
9684 1 -18.04241100280269 64.04687002385246 5.2705669468096366 1 0 0
4302 1 -14.52026846077009 64.04687127349571 5.270566952455505 0 0 0
4238 1 -12.759195896826483 62.802639965854794 6.514716961809732 0 0 0
4252 1 -12.75919589686778 62.802639965787286 4.0264169617191055 0 0 0
4254 1 -10.998126872076593 64.0468721909151 5.2705669579120595 0 0 0
4256 1 -12.759198742673588 65.29110394000212 6.51471694925943 0 0 0
4257 1 -12.75919874262987 65.29110394016621 4.026416949225696 0 0 0
4172 1 -9.237054733586664 62.802640022170785 6.514716963393796 0 0 0
4186 1 -9.237054733530544 62.802640022108285 4.0264169633568745 0 0 0
4188 1 -7.475987892495645 64.04687248222885 5.27056696084444 0 0 0
4190 1 -9.23705894671165 65.29110497701993 6.514716954811126 0 0 0
4191 1 -9.237058946741325 65.29110497720524 4.026416954774022 0 0 0
4106 1 -5.714917438026452 62.80263911459361 6.514716962123669 0 0 0
4120 1 -5.714917437958335 62.802639114584345 4.026416962083021 0 0 0
4122 1 -3.9538523538156585 64.04687205620921 5.270566958824844 0 0 0
4124 1 -5.714921676800949 65.29110552995486 6.514716956927906 0 0 0
4125 1 -5.714921676784715 65.29110553007786 4.026416956847604 0 0 0
4040 1 -2.192784311071057 62.802637531294074 6.514716956973546 0 0 0
4054 1 -2.1927843110865397 62.80263753130799 4.026416956966062 0 0 0
4056 1 -0.4317199986266596 64.04687104814809 5.270566953160062 0 0 0
4058 1 -2.1927872217846343 65.29110542556276 6.514716952715499 0 0 0
4059 1 -2.1927872218055566 65.29110542562783 4.02641695261189 0 0 0
9633 1 -16.28134023875653 67.7795678174001 6.514716936455147 1 0 0
9641 1 -16.281340238811207 67.77956781724984 4.026416936356649 1 0 0
9685 1 -18.04241029822016 66.5353347175894 5.270566936780398 1 0 0
10041 1 -18.0424096374747 69.02380041980736 5.270566931323103 1 0 0
4303 1 -14.52026993304802 66.53533571251127 5.270566942708539 0 0 0
4611 1 -14.520270890331826 69.02380116696607 5.270566937782856 0 0 0
4255 1 -10.998130045772765 66.53533701775751 5.270566949125277 0 0 0
4259 1 -12.759200773476937 67.77956898542504 6.514716942955952 0 0 0
4274 1 -12.759200773487413 67.77956898525468 4.02641694281062 0 0 0
4545 1 -10.998132311824644 69.0238025477794 5.27056694326064 0 0 0
4189 1 -7.47599175292702 66.53533821850948 5.270566952857626 0 0 0
4193 1 -9.237062095046433 67.77957044912407 6.514716948169712 0 0 0
4208 1 -9.237062095083052 67.77957044892202 4.026416948062905 0 0 0
4479 1 -7.475994605030437 69.02380411955126 5.270566945322323 0 0 0
4123 1 -3.9538556724519283 66.53533893332808 5.270566951813219 0 0 0
4127 1 -5.714924935432517 67.77957174762307 6.514716949680645 0 0 0
4142 1 -5.714924935457651 67.77957174751947 4.026416949514964 0 0 0
4413 1 -3.953858192770642 69.02380538526732 5.270566942223559 0 0 0
4057 1 -0.4317217090912326 66.5353389371278 5.270566945223841 0 0 0
4061 1 -2.1927895491666844 67.77957246567549 6.514716945688439 0 0 0
4076 1 -2.192789549103538 67.7795724656248 4.026416945584981 0 0 0
4347 1 -0.4317230951589393 69.02380594427555 5.270566939494907 0 0 0
10020 1 -16.28134030672672 70.26803373805659 -5.926783066605453 1 0 0
10029 1 -16.281340257611564 72.75650018535565 -5.9267830688232195 1 0 0
10045 1 -18.04240906534336 71.51226675623845 -7.170933072467514 1 0 1
10065 1 -18.04240906532544 71.51226675626144 -4.682633072545502 1 0 0
4613 1 -14.520271463054131 71.51226728855639 -7.170933063583669 0 0 1
4625 1 -14.520271463089298 71.51226728856382 -4.682633063645886 0 0 0
4549 1 -10.998133838806096 71.51226856370627 -7.170933061666223 0 0 1
4569 1 -10.998133838851366 71.51226856376708 -4.68263306176718 0 0 0
4571 1 -12.759202142333848 70.26803476945828 -5.9267830598730376 0 0 0
4589 1 -12.759203002600838 72.75650103329549 -5.926783064836822 0 0 0
4483 1 -7.475996593200981 71.51227017296758 -7.170933063937499 0 0 1
4503 1 -7.475996593207465 71.51227017303755 -4.682633063954492 0 0 0
4505 1 -9.237064323788495 70.2680363150764 -5.926783059265869 0 0 0
4523 1 -9.237065806908367 72.75650245768713 -5.9267830633589105 0 0 0
4417 1 -3.9538600070254906 71.51227160573295 -7.170933063797134 0 0 1
4437 1 -3.9538600070110372 71.5122716057509 -4.682633063812704 0 0 0
4439 1 -5.714927309041452 70.26803788214075 -5.926783061784844 0 0 0
4457 1 -5.714928941107424 72.75650400744848 -5.926783065027532 0 0 0
4351 1 -0.4317241496699256 71.51227241059985 -7.1709330652812895 0 0 1
4371 1 -0.43172414967966044 71.51227241057909 -4.682633065224807 0 0 0
4373 1 -2.1927913065061087 70.26803897611305 -5.926783062806279 0 0 0
4391 1 -2.1927925635394203 72.75650519046073 -5.926783066034854 0 0 0
10031 1 -16.281340151121288 75.24496692748778 -5.926783070797296 1 0 0
10046 1 -18.042408604408653 74.00073345419338 -7.170933073040847 1 0 1
10086 1 -18.042408604444823 74.00073345422442 -4.68263307286875 1 0 0
4614 1 -14.520271761999748 74.00073381447291 -7.170933068746365 0 0 1
4635 1 -14.520271762017112 74.00073381448401 -4.6826330684894675 0 0 0
4550 1 -10.998134795294769 74.00073489289159 -7.170933065196093 0 0 1
4590 1 -10.998134795315314 74.00073489300907 -4.682633064890001 0 0 0
4593 1 -12.75920348384044 75.24496758211322 -5.92678306668782 0 0 0
4484 1 -7.475997897211208 74.00073635206036 -7.1709330630936 0 0 1
4524 1 -7.4759978972067325 74.00073635208082 -4.682633062880413 0 0 0
4527 1 -9.237066721889205 75.24496878847755 -5.926783063764287 0 0 0
4418 1 -3.9538612389513625 74.00073772620152 -7.170933063495233 0 0 1
4458 1 -3.95386123893226 74.0007377261646 -4.682633063333306 0 0 0
4461 1 -5.714929991825876 75.24497016473946 -5.926783060828152 0 0 0
4352 1 -0.43172491220698117 74.00073857941774 -7.1709330642970315 0 0 1
4392 1 -0.43172491227414156 74.00073857945364 -4.682633064220621 0 0 0
4395 1 -2.1927934100907085 75.24497127189026 -5.926783060455527 0 0 0
10036 1 -16.281340021800357 77.73343379865486 -5.9267830661429945 1 0 0
10061 1 -18.042408253950647 76.48920032565172 -7.170933069912065 1 0 1
10062 1 -18.04240799946277 78.97766724291877 -7.170933061695662 1 0 1
10087 1 -18.04240825396187 76.48920032560355 -4.682633070109674 1 0 0
10100 1 -18.04240799942262 78.97766724290236 -4.682633061553217 1 0 0
4622 1 -14.520271875831062 76.48920055048555 -7.170933068748336 0 0 1
4623 1 -14.520271878203607 78.97766737036461 -7.170933062015557 0 0 1
4636 1 -14.520271875835077 76.48920055051988 -4.682633068947639 0 0 0
4642 1 -14.520271878262156 78.97766737036591 -4.682633061869303 0 0 0
4565 1 -10.998135333581377 76.48920141015077 -7.170933065148536 0 0 1
4566 1 -10.998135585500242 78.97766801938522 -7.170933062594439 0 0 1
4591 1 -10.998135333574995 76.48920141008921 -4.682633065343131 0 0 0
4603 1 -12.759203708829231 77.73343427993734 -5.926783065658251 0 0 0
4604 1 -10.998135585476867 78.97766801935825 -4.682633062318531 0 0 0
4499 1 -7.475998683464584 76.48920263234328 -7.170933061119062 0 0 1
4500 1 -7.4759991024691805 78.97766898116275 -7.170933060396871 0 0 1
4525 1 -7.475998683464482 76.4892026322547 -4.682633061215929 0 0 0
4537 1 -9.23706722750677 77.73343523979378 -5.9267830624035875 0 0 0
4538 1 -7.475999102417597 78.97766898113223 -4.682633060256483 0 0 0
4433 1 -3.9538620161258025 76.48920382755962 -7.170933059286655 0 0 1
4434 1 -3.953862464743997 78.97766995225298 -7.17093305627863 0 0 1
4459 1 -3.9538620160969122 76.48920382751798 -4.682633059359492 0 0 0
4471 1 -5.714930609562925 77.73343637404852 -5.92678305903272 0 0 0
4472 1 -3.9538624647551432 78.97766995228737 -4.682633056100233 0 0 0
4367 1 -0.4317254309554428 76.48920461784357 -7.1709330573138725 0 0 1
4368 1 -0.43172575776363353 78.97767062534001 -7.170933054038509 0 0 1
4393 1 -0.43172543096306093 76.48920461781297 -4.682633057331418 0 0 0
4405 1 -2.1927939388832716 77.73343732477822 -5.92678305595589 0 0 0
4406 1 -0.431725757812649 78.97767062539315 -4.682633053937474 0 0 0
10038 1 -16.28133989361846 80.22190070908165 -5.926783058056661 1 0 0
10084 1 -18.04240782165716 81.46613411792606 -7.1709330555322675 1 0 1
10101 1 -18.042407821598626 81.4661341179787 -4.682633055612982 1 0 0
10420 1 -16.281339777287933 82.71036764025284 -5.926783051435922 1 0 0
4634 1 -14.520271816798349 81.46613417672536 -7.170933054755897 0 0 1
4643 1 -14.520271816752546 81.46613417674247 -4.682633055011173 0 0 0
4588 1 -10.998135655364988 81.46613464015401 -7.170933055034812 0 0 1
4605 1 -10.998135655385747 81.46613464012862 -4.682633055146542 0 0 0
4607 1 -12.759203770578107 80.22190104344037 -5.926783059402912 0 0 0
4909 1 -12.759203735255307 82.71036785835699 -5.926783050054172 0 0 0
4522 1 -7.475999274832859 81.46613535854003 -7.170933056036387 0 0 1
4539 1 -7.475999274812982 81.4661353585775 -4.682633056220739 0 0 0
4541 1 -9.237067452059057 80.22190176806598 -5.926783059131357 0 0 0
4843 1 -9.237067502928808 82.71036837619988 -5.926783051837684 0 0 0
4456 1 -3.9538626804832706 81.46613610618834 -7.170933052978873 0 0 1
4473 1 -3.9538626804292187 81.46613610619427 -4.682633053107891 0 0 0
4475 1 -5.714930924275513 80.2219026501307 -5.926783057423951 0 0 0
4777 1 -5.714931040034089 82.71036902779692 -5.926783050168108 0 0 0
4390 1 -0.4317259441350051 81.46613664201863 -7.170933048384784 0 0 1
4407 1 -0.43172594415475596 81.46613664204936 -4.682633048438807 0 0 0
4409 1 -2.192794238480102 80.22190341262902 -5.926783053453876 0 0 0
4711 1 -2.1927943768876963 82.71036960695511 -5.926783046294606 0 0 0
10013 1 -16.281340306670526 70.2680337380253 -0.9501830665505495 1 0 0
10019 1 -16.28134030669723 70.26803373792904 -3.438483066626438 1 0 0
10021 1 -16.28134025760975 72.75650018531188 -0.9501830688143545 1 0 0
10022 1 -16.28134025758604 72.75650018557391 -3.4384830688887615 1 0 0
10068 1 -18.042409065357308 71.5122667562688 -2.1943330724356027 1 0 0
4626 1 -14.520271463094716 71.51226728859055 -2.1943330635496876 0 0 0
4556 1 -12.759202142308176 70.26803476953503 -0.95018305977379 0 0 0
4570 1 -12.759202142302083 70.2680347692918 -3.438483059898596 0 0 0
4572 1 -10.998133838849904 71.51226856378834 -2.194333061634087 0 0 0
4574 1 -12.759203002620271 72.75650103332418 -0.9501830648062027 0 0 0
4575 1 -12.75920300266167 72.75650103354513 -3.4384830648620364 0 0 0
4490 1 -9.23706432375275 70.26803631504292 -0.950183059212239 0 0 0
4504 1 -9.23706432374543 70.26803631485252 -3.4384830593048408 0 0 0
4506 1 -7.475996593195141 71.51227017303455 -2.194333063871048 0 0 0
4508 1 -9.237065806888221 72.75650245771062 -0.950183063326072 0 0 0
4509 1 -9.237065806928417 72.75650245789774 -3.438483063463018 0 0 0
4424 1 -5.714927309040072 70.26803788215403 -0.95018306168897 0 0 0
4438 1 -5.714927309078089 70.26803788203098 -3.438483061821859 0 0 0
4440 1 -3.953860007042306 71.51227160574786 -2.194333063706371 0 0 0
4442 1 -5.714928941064349 72.75650400745302 -0.9501830649885833 0 0 0
4443 1 -5.714928941035899 72.75650400759369 -3.438483065036714 0 0 0
4358 1 -2.1927913065420856 70.2680389761007 -0.9501830627639879 0 0 0
4372 1 -2.1927913065504474 70.26803897607627 -3.438483062860824 0 0 0
4374 1 -0.4317241497166952 71.51227241058285 -2.194333065273725 0 0 0
4376 1 -2.192792563539316 72.75650519045936 -0.9501830659705329 0 0 0
4377 1 -2.1927925635478354 72.75650519058844 -3.438483066093813 0 0 0
10024 1 -16.281340151143215 75.2449669274614 -0.9501830708005619 1 0 0
10030 1 -16.281340151114133 75.24496692724661 -3.438483070871925 1 0 0
10069 1 -18.042408604459492 74.00073345414779 -2.19433307307491 1 0 0
4627 1 -14.520271761995119 74.00073381446813 -2.1943330687155793 0 0 0
4573 1 -10.998134795293513 74.000734893003 -2.194333065146683 0 0 0
4579 1 -12.759203483841866 75.2449675820726 -0.9501830667033513 0 0 0
4592 1 -12.759203483823901 75.24496758188923 -3.4384830667886823 0 0 0
4507 1 -7.475997897184105 74.00073635207968 -2.19433306307443 0 0 0
4513 1 -9.237066721898039 75.24496878841343 -0.9501830637219947 0 0 0
4526 1 -9.237066721870677 75.24496878832007 -3.4384830638547235 0 0 0
4441 1 -3.9538612388837624 74.00073772619591 -2.1943330634891396 0 0 0
4447 1 -5.714929991832686 75.24497016475418 -0.9501830607988015 0 0 0
4460 1 -5.714929991812509 75.2449701645883 -3.4384830608711647 0 0 0
4375 1 -0.43172491227854476 74.0007385794448 -2.194333064305668 0 0 0
4381 1 -2.192793410070735 75.24497127190786 -0.9501830604353574 0 0 0
4394 1 -2.192793410093556 75.2449712717807 -3.4384830605193284 0 0 0
10032 1 -16.281340021835206 77.7334337986912 -0.9501830660709174 1 0 0
10033 1 -16.281340021764123 77.73343379884675 -3.4384830661164187 1 0 0
10090 1 -18.042408253963075 76.48920032559343 -2.194333069912896 1 0 0
10091 1 -18.042407999410745 78.97766724293733 -2.194333061676995 1 0 0
4637 1 -14.520271875753114 76.48920055050779 -2.1943330687467144 0 0 0
4638 1 -14.520271878258798 78.97766737034974 -2.194333061972084 0 0 0
4594 1 -10.998135333557878 76.48920141014044 -2.1943330651770787 0 0 0
4595 1 -10.998135585508429 78.97766801940301 -2.194333062550063 0 0 0
4596 1 -12.759203708884108 77.73343427997911 -0.9501830655993074 0 0 0
4597 1 -12.759203708811405 77.73343428019184 -3.438483065642661 0 0 0
4528 1 -7.475998683427954 76.48920263227109 -2.194333061105936 0 0 0
4529 1 -7.475999102454988 78.97766898114706 -2.1943330603804267 0 0 0
4530 1 -9.237067227502793 77.73343523974255 -0.95018306229167 0 0 0
4531 1 -9.237067227532076 77.73343523996424 -3.438483062370252 0 0 0
4462 1 -3.953862016132984 76.48920382756975 -2.1943330592579406 0 0 0
4463 1 -3.9538624647923055 78.9776699522876 -2.1943330562500143 0 0 0
4464 1 -5.714930609586441 77.73343637405144 -0.9501830589582624 0 0 0
4465 1 -5.7149306096424075 77.73343637421648 -3.438483059067336 0 0 0
4396 1 -0.4317254309650956 76.48920461779336 -2.1943330572890156 0 0 0
4397 1 -0.4317257577378993 78.9776706253199 -2.1943330539949586 0 0 0
4398 1 -2.1927939388492983 77.73343732477022 -0.9501830559480156 0 0 0
4399 1 -2.192793938860215 77.73343732485296 -3.4384830559568043 0 0 0
10035 1 -16.281339893626477 80.22190070910055 -0.9501830579938296 1 0 0
10037 1 -16.28133989360012 80.22190070891853 -3.4384830580799575 1 0 0
10104 1 -18.042407821560076 81.46613411798698 -2.1943330554683347 1 0 0
10411 1 -16.281339777239836 82.71036764025187 -0.9501830513768355 1 0 0
10412 1 -16.28133977721608 82.71036764043217 -3.438483051418564 1 0 0
4644 1 -14.520271816812553 81.46613417678054 -2.1943330548773314 0 0 0
4601 1 -12.759203770657411 80.22190104342556 -0.9501830593770993 0 0 0
4606 1 -12.759203770656985 80.22190104326654 -3.438483059386402 0 0 0
4608 1 -10.998135655306536 81.46613464005935 -2.1943330549965205 0 0 0
4892 1 -12.759203735227505 82.71036785836337 -0.9501830500141798 0 0 0
4893 1 -12.759203735285512 82.71036785853914 -3.438483050054341 0 0 0
4535 1 -9.237067452016253 80.22190176805944 -0.9501830591217998 0 0 0
4540 1 -9.237067452056145 80.221901767835 -3.438483059137093 0 0 0
4542 1 -7.475999274835653 81.46613535851209 -2.194333056118766 0 0 0
4826 1 -9.23706750290681 82.71036837616045 -0.9501830517990923 0 0 0
4827 1 -9.237067502895814 82.7103683763539 -3.4384830518905978 0 0 0
4469 1 -5.714930924236244 80.22190265015185 -0.9501830574566451 0 0 0
4474 1 -5.714930924213666 80.22190264997504 -3.4384830574616223 0 0 0
4476 1 -3.9538626805010777 81.46613610620021 -2.19433305299334 0 0 0
4760 1 -5.714931040070965 82.71036902781105 -0.9501830501508692 0 0 0
4761 1 -5.714931040044684 82.7103690279016 -3.4384830502603903 0 0 0
4403 1 -2.1927942384071883 80.22190341259893 -0.950183053383832 0 0 0
4408 1 -2.19279423849798 80.22190341251252 -3.4384830533684445 0 0 0
4410 1 -0.4317259440897992 81.46613664202081 -2.194333048383525 0 0 0
4694 1 -2.192794376850298 82.71036960696846 -0.9501830462360962 0 0 0
4695 1 -2.1927943768852765 82.71036960705638 -3.43848304632064 0 0 0
10012 1 -16.281340306717784 70.26803373789184 1.5381169333681846 1 0 0
10015 1 -16.28134025760274 72.75650018553313 1.5381169311937017 1 0 0
10050 1 -18.04240906534949 71.51226675623563 0.2939669273264667 1 0 0
10053 1 -18.04240906529462 71.51226675625696 2.782266927653524 1 0 0
4617 1 -14.520271463053486 71.51226728856739 0.2939669361901612 0 0 0
4618 1 -14.520271463080228 71.512267288567 2.7822669365515784 0 0 0
4554 1 -10.998133838809409 71.51226856370587 0.2939669381112947 0 0 0
4555 1 -12.75920214232776 70.26803476928296 1.538116940097196 0 0 0
4557 1 -10.998133838844563 71.51226856375521 2.782266938458486 0 0 0
4560 1 -12.759203002605974 72.75650103350088 1.5381169351797745 0 0 0
4488 1 -7.475996593200078 71.51227017298109 0.29396693588932493 0 0 0
4489 1 -9.23706432379698 70.26803631490495 1.5381169406907778 0 0 0
4491 1 -7.475996593210158 71.51227017303218 2.7822669362370953 0 0 0
4494 1 -9.237065806899857 72.75650245787178 1.5381169366531682 0 0 0
4422 1 -3.9538600070474432 71.51227160572971 0.29396693607225494 0 0 0
4423 1 -5.71492730906123 70.26803788201103 1.538116938211963 0 0 0
4425 1 -3.9538600070437013 71.5122716057441 2.78226693633907 0 0 0
4428 1 -5.714928941104404 72.75650400759861 1.538116934996395 0 0 0
4356 1 -0.4317241496795006 71.51227241059202 0.29396693464647927 0 0 0
4357 1 -2.1927913065314435 70.26803897604837 1.5381169371868195 0 0 0
4359 1 -0.4317241496736398 71.51227241058501 2.782266934838455 0 0 0
4362 1 -2.192792563554725 72.75650519055421 1.5381169339787646 0 0 0
10023 1 -16.281340151111394 75.24496692730555 1.5381169292096089 1 0 0
10054 1 -18.04240860444863 74.00073345423743 2.782266926994572 1 0 0
10072 1 -18.04240860439721 74.00073345418105 0.293966927138249 1 0 0
4619 1 -14.520271762030914 74.00073381447307 2.7822669313461037 0 0 0
4628 1 -14.520271761989594 74.00073381448284 0.29396693144214125 0 0 0
4558 1 -10.998134795314552 74.0007348929927 2.782266934922975 0 0 0
4576 1 -10.998134795280404 74.00073489289322 0.2939669349909202 0 0 0
4578 1 -12.759203483856085 75.24496758192188 1.538116933324346 0 0 0
4492 1 -7.475997897213518 74.00073635209772 2.782266936986463 0 0 0
4510 1 -7.475997897201396 74.00073635208292 0.2939669370567226 0 0 0
4512 1 -9.237066721886917 75.24496878830477 1.5381169362497906 0 0 0
4426 1 -3.95386123894217 74.00073772615988 2.7822669365720007 0 0 0
4444 1 -3.953861238941815 74.0007377262136 0.29396693660848405 0 0 0
4446 1 -5.714929991805259 75.24497016459708 1.5381169391800453 0 0 0
4360 1 -0.43172491224746323 74.00073857945678 2.7822669357501733 0 0 0
4378 1 -0.43172491221708886 74.00073857942556 0.2939669357476825 0 0 0
4380 1 -2.192793410080779 75.24497127179835 1.5381169395549334 0 0 0
10026 1 -16.281340021809125 77.73343379884733 1.5381169338345988 1 0 0
10073 1 -18.042408253937513 76.48920032563107 0.2939669298818185 1 0 0
10076 1 -18.04240825398324 76.48920032564024 2.7822669300795906 1 0 0
10077 1 -18.042407999430026 78.97766724292416 2.782266938285049 1 0 0
10094 1 -18.042407999466764 78.9776672429165 0.29396693845571104 1 0 0
4629 1 -14.52027187582899 76.48920055049838 0.29396693101504434 0 0 0
4630 1 -14.520271875867827 76.48920055051624 2.7822669312703225 0 0 0
4631 1 -14.520271878282594 78.97766737036073 2.7822669379388323 0 0 0
4639 1 -14.520271878201905 78.9776673703761 0.29396693817446196 0 0 0
4577 1 -10.998135333573716 76.48920141014511 0.29396693461631357 0 0 0
4580 1 -10.99813533360319 76.48920141009559 2.782266934871284 0 0 0
4581 1 -10.998135585495795 78.977668019372 2.7822669375077873 0 0 0
4583 1 -12.75920370883407 77.73343428014563 1.5381169343488752 0 0 0
4598 1 -10.998135585501581 78.97766801938315 0.2939669375910175 0 0 0
4511 1 -7.4759986834538745 76.4892026323435 0.2939669387459788 0 0 0
4514 1 -7.4759986834510155 76.48920263227926 2.7822669389961563 0 0 0
4515 1 -7.4759991023785295 78.97766898113719 2.7822669395680952 0 0 0
4517 1 -9.237067227509408 77.73343523998652 1.5381169376218524 0 0 0
4532 1 -7.4759991024767585 78.97766898116014 0.29396693976477584 0 0 0
4445 1 -3.953862016115816 76.48920382756165 0.29396694057645223 0 0 0
4448 1 -3.9538620160839253 76.48920382751989 2.7822669408013585 0 0 0
4449 1 -3.953862464716154 78.97766995228332 2.7822669437717313 0 0 0
4451 1 -5.714930609541317 77.73343637420939 1.538116940979662 0 0 0
4466 1 -3.953862464731931 78.97766995225012 0.29396694381400496 0 0 0
4379 1 -0.43172543095849314 76.48920461786275 0.29396694258903505 0 0 0
4382 1 -0.4317254309667746 76.48920461782089 2.7822669427296884 0 0 0
4383 1 -0.4317257577994799 78.97767062540844 2.782266945998277 0 0 0
4385 1 -2.1927939388684927 77.7334373248901 1.538116944025779 0 0 0
4400 1 -0.43172575774722965 78.97767062534278 0.29396694599778167 0 0 0
10034 1 -16.281339893634666 80.22190070890983 1.538116941934076 1 0 0
10095 1 -18.042407821669933 81.46613411793396 0.29396694431887144 1 0 0
10098 1 -18.042407821611594 81.46613411796541 2.782266944571998 1 0 0
10407 1 -16.281339777296132 82.71036764039687 1.5381169486050006 1 0 0
4640 1 -14.520271816804415 81.46613417672148 0.2939669450437301 0 0 0
4641 1 -14.520271816739301 81.46613417673531 2.78226694518869 0 0 0
4599 1 -10.998135655356288 81.46613464013109 0.29396694475506646 0 0 0
4600 1 -12.75920377059326 80.22190104325108 1.5381169405615212 0 0 0
4602 1 -10.998135655371637 81.46613464012113 2.7822669450438746 0 0 0
4883 1 -12.759203735254667 82.71036785852932 1.538116949935293 0 0 0
4533 1 -7.4759992748363295 81.46613535852397 0.29396694379116245 0 0 0
4534 1 -9.237067452047242 80.22190176787298 1.5381169408689954 0 0 0
4536 1 -7.475999274807699 81.466135358574 2.7822669439492076 0 0 0
4817 1 -9.237067502936576 82.71036837636213 1.5381169482079822 0 0 0
4467 1 -3.953862680487881 81.46613610616994 0.2939669468724665 0 0 0
4468 1 -5.71493092425548 80.22190264997884 1.5381169425536403 0 0 0
4470 1 -3.9538626804343613 81.46613610619386 2.7822669470357355 0 0 0
4751 1 -5.714931040030552 82.71036902794307 1.538116949840708 0 0 0
4401 1 -0.43172594414323573 81.46613664202984 0.2939669515238414 0 0 0
4402 1 -2.192794238450278 80.22190341254439 1.5381169465455393 0 0 0
4404 1 -0.4317259441531943 81.46613664207267 2.7822669516464407 0 0 0
4685 1 -2.1927943768952574 82.71036960705986 1.538116953725698 0 0 0
10009 1 -16.281340306672128 70.26803373785081 6.514716933472913 1 0 0
10010 1 -16.281340306683656 70.26803373806413 4.026416933375526 1 0 0
10011 1 -16.281340257601354 72.75650018549771 6.514716931188717 1 0 0
10014 1 -16.28134025758784 72.75650018536705 4.026416931118976 1 0 0
10042 1 -18.042409065321735 71.51226675625924 5.270566927368888 1 0 0
4612 1 -14.520271463090603 71.51226728857759 5.2705669362534495 0 0 0
4546 1 -10.998133838839635 71.51226856374558 5.2705669381489555 0 0 0
4547 1 -12.759202142316216 70.2680347693251 6.514716940243763 0 0 0
4548 1 -12.759202142307434 70.26803476945516 4.026416940097244 0 0 0
4551 1 -12.759203002640024 72.75650103350966 6.514716935185675 0 0 0
4559 1 -12.759203002642325 72.75650103334083 4.026416935146239 0 0 0
4480 1 -7.47599659319422 71.51227017301487 5.270566935962416 0 0 0
4481 1 -9.237064323742583 70.26803631486204 6.514716940798621 0 0 0
4482 1 -9.237064323740846 70.2680363149959 4.026416940707837 0 0 0
4485 1 -9.237065806891879 72.7565024579127 6.514716936668302 0 0 0
4493 1 -9.23706580691752 72.75650245771723 4.026416936552479 0 0 0
4414 1 -3.9538600070585637 71.51227160572873 5.270566936156898 0 0 0
4415 1 -5.714927309048268 70.26803788201352 6.514716938332755 0 0 0
4416 1 -5.71492730909167 70.26803788212436 4.026416938193031 0 0 0
4419 1 -5.7149289410610375 72.75650400759184 6.514716935014769 0 0 0
4427 1 -5.714928941043601 72.75650400745157 4.026416934953722 0 0 0
4348 1 -0.4317241497123955 71.51227241057032 5.270566934633168 0 0 0
4349 1 -2.1927913065251166 70.26803897602815 6.514716937236814 0 0 0
4350 1 -2.1927913065648115 70.26803897613446 4.026416937145203 0 0 0
4353 1 -2.1927925635333296 72.75650519053968 6.514716933990213 0 0 0
4361 1 -2.1927925635482386 72.75650519048304 4.0264169339176155 0 0 0
10016 1 -16.28134015115721 75.24496692727928 6.514716929196374 1 0 0
10017 1 -16.281340151154875 75.24496692745501 4.026416929141417 1 0 0
10057 1 -18.042408604473454 74.00073345417381 5.27056692705772 1 0 0
4620 1 -14.52027176201531 74.00073381446232 5.27056693143805 0 0 0
4561 1 -10.998134795307235 74.00073489299369 5.270566935033189 0 0 0
4563 1 -12.75920348387122 75.24496758186345 6.514716933294846 0 0 0
4564 1 -12.759203483832415 75.24496758208946 4.026416933211425 0 0 0
4495 1 -7.475997897201965 74.00073635209678 5.27056693704143 0 0 0
4497 1 -9.237066721925286 75.244968788253 6.514716936237011 0 0 0
4498 1 -9.237066721907127 75.24496878851987 4.026416936137032 0 0 0
4429 1 -3.953861238896644 74.00073772619227 5.270566936607661 0 0 0
4431 1 -5.71492999183809 75.24497016461628 6.514716939180603 0 0 0
4432 1 -5.714929991828686 75.24497016475081 4.026416939132221 0 0 0
4363 1 -0.43172491224981496 74.00073857943771 5.270566935749354 0 0 0
4365 1 -2.1927934100708177 75.24497127179198 6.514716939538677 0 0 0
4366 1 -2.1927934100876127 75.24497127185695 4.026416939489854 0 0 0
10018 1 -16.281340021851666 77.73343379887312 6.514716933958373 1 0 0
10025 1 -16.28134002180281 77.73343379866498 4.026416933881466 1 0 0
10058 1 -18.042408253998925 76.48920032564382 5.270566929893608 1 0 0
10080 1 -18.042407999418195 78.97766724295072 5.270566938455964 1 0 0
4621 1 -14.520271875778615 76.48920055049805 5.2705669310467895 0 0 0
4632 1 -14.520271878274336 78.97766737033427 5.270566938208955 0 0 0
4562 1 -10.998135333582178 76.48920141014777 5.270566934612464 0 0 0
4567 1 -12.759203708890531 77.7334342801908 6.514716934403128 0 0 0
4582 1 -12.759203708844026 77.73343427997673 4.026416934344654 0 0 0
4584 1 -10.998135585522473 78.97766801942315 5.270566937641955 0 0 0
4496 1 -7.475998683445698 76.48920263228968 5.270566938680568 0 0 0
4501 1 -9.237067227498825 77.73343523996532 6.514716937687179 0 0 0
4516 1 -9.237067227538207 77.73343523979742 4.0264169376292065 0 0 0
4518 1 -7.475999102419933 78.97766898117013 5.270566939771256 0 0 0
4430 1 -3.9538620161102274 76.48920382755698 5.2705669405829205 0 0 0
4435 1 -5.714930609565635 77.73343637419919 6.5147169410321855 0 0 0
4450 1 -5.71493060960278 77.73343637408406 4.026416940919704 0 0 0
4452 1 -3.953862464764196 78.97766995229212 5.2705669438561875 0 0 0
4364 1 -0.43172543097700455 76.489204617787 5.270566942615633 0 0 0
4369 1 -2.192793938844747 77.73343732486536 6.514716944089763 0 0 0
4384 1 -2.1927939388206217 77.7334373247669 4.026416944049789 0 0 0
4386 1 -0.4317257577447124 78.97767062533835 5.270566946081079 0 0 0
10027 1 -16.28133989362055 80.22190070891185 6.514716942005287 1 0 0
10028 1 -16.28133989358544 80.22190070910358 4.026416941923305 1 0 0
10081 1 -18.042407821574344 81.46613411795552 5.270566944368298 1 0 0
10405 1 -16.281339777234002 82.71036764040025 6.514716948574678 1 0 0
10406 1 -16.28133977721974 82.71036764022811 4.02641694857345 1 0 0
4633 1 -14.520271816778743 81.46613417676075 5.270566944937723 0 0 0
4585 1 -10.998135655318286 81.4661346400349 5.2705669448163235 0 0 0
4586 1 -12.759203770670508 80.22190104323035 6.514716940638292 0 0 0
4587 1 -12.759203770658498 80.22190104345057 4.0264169406208135 0 0 0
4880 1 -12.759203735237147 82.71036785854557 6.514716949992987 0 0 0
4882 1 -12.759203735244508 82.7103678583348 4.026416949921491 0 0 0
4519 1 -7.4759992748283635 81.46613535851776 5.270566943723237 0 0 0
4520 1 -9.237067452003329 80.22190176788415 6.5147169408857595 0 0 0
4521 1 -9.237067452034808 80.22190176802827 4.026416940868068 0 0 0
4814 1 -9.237067502902038 82.7103683763345 6.514716948194295 0 0 0
4816 1 -9.237067502891493 82.71036837618303 4.0264169481137 0 0 0
4453 1 -3.9538626804989474 81.46613610620189 5.27056694688589 0 0 0
4454 1 -5.714930924229192 80.22190264999873 6.5147169425527816 0 0 0
4455 1 -5.714930924199343 80.22190265013616 4.026416942538928 0 0 0
4748 1 -5.714931040062486 82.71036902796007 6.51471694983636 0 0 0
4750 1 -5.714931040048729 82.71036902776757 4.0264169497382465 0 0 0
4387 1 -0.431725944083792 81.46613664201654 5.27056695154908 0 0 0
4388 1 -2.192794238401297 80.22190341251167 6.5147169466122055 0 0 0
4389 1 -2.192794238484881 80.2219034126391 4.0264169466212305 0 0 0
4682 1 -2.192794376825934 82.71036960707805 6.51471695377247 0 0 0
4684 1 -2.192794376898841 82.71036960696546 4.02641695367783 0 0 0
10422 1 -16.281339680130635 85.19883473899557 -5.926783050913968 1 0 0
10441 1 -18.042407705232534 83.95460082965946 -7.170933051526135 1 0 1
10450 1 -18.042407637088957 86.44306699073427 -7.170933050375462 1 0 1
10472 1 -18.04240770521213 83.95460082967197 -4.682633051326642 1 0 0
10473 1 -18.042407637098254 86.44306699071485 -4.682633050411622 1 0 0
4945 1 -14.520271728324131 83.95460084471185 -7.170933049379361 0 0 1
4949 1 -14.520271632775744 86.4430669791742 -7.170933046886543 0 0 1
4960 1 -14.520271728332338 83.95460084469401 -4.6826330491979915 0 0 0
4961 1 -14.520271632791342 86.44306697907378 -4.68263304700239 0 0 0
4879 1 -10.998135618401587 83.95460115693687 -7.170933048501988 0 0 1
4888 1 -10.998135523759634 86.44306717475382 -7.170933041920915 0 0 1
4910 1 -10.998135618440982 83.954601156897 -4.682633048277238 0 0 0
4911 1 -10.998135523778435 86.44306717475128 -4.6826330419746665 0 0 0
4913 1 -12.759203649421474 85.19883486800617 -5.9267830468524245 0 0 0
4813 1 -7.475999295847621 83.95460166599847 -7.170933046919784 0 0 1
4822 1 -7.475999228531148 86.4430675142837 -7.170933038695839 0 0 1
4844 1 -7.47599929581026 83.9546016659806 -4.682633046775996 0 0 0
4845 1 -7.475999228567074 86.44306751431084 -4.682633038795323 0 0 0
4847 1 -9.237067450901042 85.19883521757852 -5.926783043379074 0 0 0
4747 1 -3.95386274854321 83.9546022106669 -7.170933044319403 0 0 1
4756 1 -3.9538627225729073 86.44306788975557 -7.1709330374022855 0 0 1
4778 1 -3.9538627484925435 83.95460221071029 -4.682633044191756 0 0 0
4779 1 -3.9538627226301006 86.44306788977835 -4.682633037421735 0 0 0
4781 1 -5.714931031764789 85.19883567323498 -5.9267830407189495 0 0 0
4681 1 -0.4317260312392423 83.95460261422551 -7.170933041439375 0 0 1
4690 1 -0.4317260554651448 86.44306818108629 -7.170933037954656 0 0 1
4712 1 -0.43172603122661424 83.95460261418486 -4.682633041319894 0 0 0
4713 1 -0.43172605545481857 86.44306818108213 -4.682633038026693 0 0 0
4715 1 -2.192794411569834 85.198836090868 -5.926783038915606 0 0 0
10431 1 -16.281339605419188 87.6873027859697 -5.926783045426282 1 0 0
10451 1 -18.042407600606847 88.93153091288528 -7.17093303947264 1 0 1
10492 1 -18.04240760063804 88.93153091280963 -4.682633039321485 1 0 0
10433 1 -16.281339551834357 90.17577540502954 -5.926783032210759 1 0 0
4950 1 -14.520271543818277 88.93153088839227 -7.1709330413142345 0 0 1
4969 1 -14.520271543806212 88.93153088838062 -4.682633041088868 0 0 0
4889 1 -10.998135407920545 88.93153099707577 -7.170933038260854 0 0 1
4929 1 -12.759203544646304 87.68730285315709 -5.926783043097403 0 0 0
4930 1 -10.99813540796024 88.93153099702742 -4.6826330381199694 0 0 0
4933 1 -12.75920343900358 90.17577542978354 -5.926783034480843 0 0 0
4823 1 -7.475999118914084 88.93153120692138 -7.170933034458918 0 0 1
4863 1 -9.23706734578584 87.6873030716429 -5.926783038690854 0 0 0
4864 1 -7.475999118996835 88.93153120694244 -4.682633034271953 0 0 0
4867 1 -9.237067223902823 90.17577555121099 -5.9267830331916365 0 0 0
4757 1 -3.9538626523801508 88.9315314502908 -7.170933035487934 0 0 1
4797 1 -5.714930957119945 87.68730337015312 -5.926783035740277 0 0 0
4798 1 -3.9538626523979032 88.93153145024722 -4.6826330353777825 0 0 0
4801 1 -5.714930852834868 90.17577573344177 -5.92678303344174 0 0 0
4691 1 -0.4317260430597609 88.9315316517069 -7.170933038630149 0 0 1
4731 1 -2.1927943862451262 87.68730365672421 -5.926783036635681 0 0 0
4732 1 -0.43172604307309703 88.93153165173989 -4.682633038596119 0 0 0
4735 1 -2.1927943314747287 90.17577591838534 -5.926783036333063 0 0 0
10438 1 -16.281339509599636 92.664269096595 -5.926783023896577 1 0 0
10468 1 -18.042407585028553 91.41998484531396 -7.170933023922428 1 0 1
10493 1 -18.042407585033484 91.4199848452136 -4.682633024039276 1 0 0
4958 1 -14.520271467817594 91.41998481153807 -7.170933027483944 0 0 1
4970 1 -14.52027146778188 91.41998481155035 -4.682633027525191 0 0 0
4906 1 -10.998135291758535 91.41998486197241 -7.1709330301225975 0 0 1
4931 1 -10.998135291722626 91.41998486200019 -4.682633030261489 0 0 0
4941 1 -12.759203347750738 92.66426909373165 -5.926783025838083 0 0 0
4840 1 -7.475998999973193 91.41998497783139 -7.170933029987565 0 0 1
4865 1 -7.475999000000329 91.41998497779811 -4.682633030115244 0 0 0
4875 1 -9.237067105368405 92.66426914982728 -5.926783026667933 0 0 0
4774 1 -3.9538625646429346 91.41998512321526 -7.170933032527818 0 0 1
4799 1 -3.95386256466764 91.41998512318516 -4.682633032637735 0 0 0
4809 1 -5.714930746598189 92.66426924722687 -5.926783029057103 0 0 0
4708 1 -0.43172601255869214 91.41998525750151 -7.170933037148486 0 0 1
4733 1 -0.4317260125301755 91.41998525751778 -4.682633037200266 0 0 0
4743 1 -2.192794268088072 92.66426936025702 -5.926783032715909 0 0 0
10440 1 -16.28133947996877 95.15285525931748 -5.926783019827024 1 0 0
10469 1 -18.042407578682806 93.90839536350293 -7.170933019955448 1 0 1
10504 1 -18.04240757867365 93.90839536349432 -4.682633019909315 1 0 0
10820 1 -18.04240757700118 96.39660582345486 -7.170933018674883 1 0 1
10835 1 -18.04240757700073 96.39660582350584 -4.682633018749989 1 0 0
4959 1 -14.52027140457011 93.90839532642052 -7.170933021619556 0 0 1
4974 1 -14.5202714045577 93.90839532636566 -4.682633021590154 0 0 0
5162 1 -14.520271355524528 96.39660578355287 -7.170933019228312 0 0 1
5171 1 -14.520271355502066 96.3966057836164 -4.682633019284295 0 0 0
4907 1 -10.998135190880047 93.90839533601589 -7.170933021894057 0 0 1
4942 1 -10.998135190819113 93.90839533607911 -4.6826330217831815 0 0 0
4944 1 -12.759203269632195 95.15285523842748 -5.926783020318312 0 0 0
5120 1 -10.998135105408243 96.39660576749999 -7.170933019651615 0 0 1
5135 1 -10.998135105389034 96.396605767565 -4.682633019704121 0 0 0
4841 1 -7.475998886767314 93.90839538722791 -7.170933025003587 0 0 1
4876 1 -7.475998886706999 93.90839538720978 -4.682633024958391 0 0 0
4878 1 -9.237067002430898 95.15285525035148 -5.9267830213387045 0 0 0
5078 1 -7.475998792304893 96.39660577823962 -7.170933019822825 0 0 1
5093 1 -7.475998792303763 96.39660577821296 -4.682633019883761 0 0 0
4775 1 -3.953862477652269 93.90839546542652 -7.1709330270835485 0 0 1
4810 1 -3.95386247760675 93.90839546546977 -4.682633027090385 0 0 0
4812 1 -5.714930648667389 95.15285529190494 -5.926783022535141 0 0 0
5036 1 -3.9538624021020463 96.39660581207842 -7.170933022676029 0 0 1
5051 1 -3.9538624020974082 96.39660581215334 -4.682633022707209 0 0 0
4709 1 -0.43172597591643214 93.90839554887417 -7.170933029149347 0 0 1
4744 1 -0.4317259759148409 93.90839554887025 -4.682633029045199 0 0 0
4746 1 -2.192794207158515 95.15285535382323 -5.926783026005611 0 0 0
4994 1 -0.4317259424914588 96.39660586059581 -7.170933024208327 0 0 1
5009 1 -0.43172594254320895 96.39660586064794 -4.682633024261145 0 0 0
10414 1 -16.281339680082187 85.19883473906297 -0.9501830508299565 1 0 0
10421 1 -16.28133968015204 85.19883473887461 -3.4384830509995252 1 0 0
10453 1 -18.042407705153103 83.95460082966939 -2.1943330515124937 1 0 0
10476 1 -18.042407637087507 86.44306699073555 -2.194333050314666 1 0 0
4951 1 -14.520271728403786 83.95460084471188 -2.1943330493678928 0 0 0
4962 1 -14.520271632762787 86.44306697908533 -2.1943330468233313 0 0 0
4891 1 -10.99813561845869 83.95460115691397 -2.194333048432689 0 0 0
4897 1 -12.759203649479433 85.19883486805453 -0.950183046841172 0 0 0
4912 1 -12.759203649455117 85.19883486778697 -3.4384830468976575 0 0 0
4914 1 -10.998135523748115 86.44306717474508 -2.1943330418454816 0 0 0
4825 1 -7.475999295815312 83.9546016659472 -2.194333046912579 0 0 0
4831 1 -9.237067450918888 85.19883521756222 -0.9501830433456152 0 0 0
4846 1 -9.2370674509024 85.19883521738606 -3.4384830434071807 0 0 0
4848 1 -7.475999228546607 86.44306751431905 -2.1943330386984727 0 0 0
4759 1 -3.953862748570168 83.95460221068231 -2.1943330442933373 0 0 0
4765 1 -5.71493103179274 85.19883567322158 -0.9501830407041818 0 0 0
4780 1 -5.714931031755287 85.19883567311278 -3.4384830407939697 0 0 0
4782 1 -3.953862722577909 86.44306788974771 -2.1943330372720955 0 0 0
4693 1 -0.4317260312127362 83.95460261422168 -2.1943330414740227 0 0 0
4699 1 -2.1927944115894746 85.19883609089457 -0.9501830388875507 0 0 0
4714 1 -2.1927944115737135 85.19883609079903 -3.4384830389522776 0 0 0
4716 1 -0.43172605545802417 86.44306818109514 -2.1943330379393866 0 0 0
10423 1 -16.281339605425917 87.68730278604389 -0.9501830453423055 1 0 0
10424 1 -16.281339605392848 87.687302786123 -3.4384830455038626 1 0 0
10477 1 -18.042407600583974 88.93153091284807 -2.1943330394822564 1 0 0
10426 1 -16.281339551931424 90.17577540501992 -0.9501830322309702 1 0 0
10432 1 -16.281339551846166 90.17577540493978 -3.4384830322416575 1 0 0
4963 1 -14.520271543820419 88.93153088839318 -2.1943330412181914 0 0 0
4915 1 -10.998135407966473 88.93153099697392 -2.19433303827846 0 0 0
4916 1 -12.759203544666123 87.68730285315581 -0.950183043076524 0 0 0
4917 1 -12.759203544662304 87.68730285327618 -3.438483043102563 0 0 0
4921 1 -12.759203438971333 90.17577542973125 -0.9501830345072612 0 0 0
4932 1 -12.75920343901723 90.17577542963214 -3.4384830345126653 0 0 0
4849 1 -7.475999118898107 88.93153120699998 -2.1943330344967675 0 0 0
4850 1 -9.23706734577304 87.68730307157014 -0.9501830386326231 0 0 0
4851 1 -9.2370673457288 87.68730307175473 -3.438483038639051 0 0 0
4855 1 -9.237067223855998 90.17577555129301 -0.9501830331903137 0 0 0
4866 1 -9.237067223865594 90.17577555113863 -3.43848303323404 0 0 0
4783 1 -3.953862652401823 88.93153145025077 -2.1943330355272828 0 0 0
4784 1 -5.7149309570907425 87.68730337014628 -0.9501830356402364 0 0 0
4785 1 -5.714930957041633 87.68730337027809 -3.4384830356939013 0 0 0
4789 1 -5.714930852848701 90.17577573339317 -0.9501830334635358 0 0 0
4800 1 -5.714930852858117 90.1757757333392 -3.438483033413492 0 0 0
4717 1 -0.4317260430430256 88.93153165174854 -2.19433303866556 0 0 0
4718 1 -2.1927943862159736 87.68730365665465 -0.9501830365467754 0 0 0
4719 1 -2.1927943862456543 87.68730365681371 -3.4384830366078547 0 0 0
4723 1 -2.1927943315200684 90.17577591838399 -0.9501830363544268 0 0 0
4734 1 -2.1927943315073835 90.17577591836182 -3.4384830364277983 0 0 0
10434 1 -16.281339509618128 92.66426909658253 -0.9501830239391713 1 0 0
10435 1 -16.281339509573456 92.66426909666131 -3.4384830239176325 1 0 0
10496 1 -18.04240758508478 91.41998484524002 -2.194333023967836 1 0 0
4971 1 -14.520271467824285 91.41998481151701 -2.1943330274378376 0 0 0
4934 1 -10.998135291709385 91.41998486199255 -2.19433303017034 0 0 0
4936 1 -12.75920334772983 92.66426909371711 -0.950183025822541 0 0 0
4937 1 -12.75920334778941 92.66426909376986 -3.4384830258507644 0 0 0
4868 1 -7.475998999950004 91.41998497780433 -2.1943330300223214 0 0 0
4870 1 -9.237067105296507 92.66426914990194 -0.950183026634089 0 0 0
4871 1 -9.237067105358143 92.66426914993114 -3.4384830266657045 0 0 0
4802 1 -3.9538625646681247 91.41998512318534 -2.194333032577554 0 0 0
4804 1 -5.714930746615163 92.66426924724081 -0.9501830291198275 0 0 0
4805 1 -5.71493074658779 92.66426924733406 -3.4384830290780792 0 0 0
4736 1 -0.43172601253010673 91.41998525752112 -2.1943330371836463 0 0 0
4738 1 -2.192794268128811 92.66426936024273 -0.9501830326753135 0 0 0
4739 1 -2.192794268118997 92.66426936026053 -3.4384830327311775 0 0 0
10437 1 -16.28133947997902 95.1528552593005 -0.9501830198200241 1 0 0
10439 1 -16.281339480022552 95.15285525923069 -3.438483019855524 1 0 0
10497 1 -18.042407578671906 93.90839536348177 -2.1943330199171283 1 0 0
10836 1 -18.042407576961192 96.39660582350027 -2.1943330186545023 1 0 0
4972 1 -14.52027140454949 93.90839532635037 -2.1943330217095847 0 0 0
5172 1 -14.520271355511024 96.39660578361179 -2.194333019237959 0 0 0
4935 1 -10.998135190843865 93.90839533605933 -2.1943330218626906 0 0 0
4940 1 -12.75920326958776 95.15285523838585 -0.9501830203499906 0 0 0
4943 1 -12.759203269707967 95.1528552383638 -3.4384830203727472 0 0 0
5136 1 -10.998135105422419 96.39660576749196 -2.194333019541853 0 0 0
4869 1 -7.475998886740818 93.90839538723819 -2.194333024972769 0 0 0
4874 1 -9.237067002451004 95.15285525035065 -0.9501830213739034 0 0 0
4877 1 -9.237067002486945 95.15285525035586 -3.438483021385864 0 0 0
5094 1 -7.475998792299956 96.39660577827209 -2.194333019849408 0 0 0
4803 1 -3.953862477645497 93.90839546541935 -2.1943330270913592 0 0 0
4808 1 -5.714930648607549 95.15285529195437 -0.9501830225505967 0 0 0
4811 1 -5.71493064857707 95.15285529191496 -3.4384830225939873 0 0 0
5052 1 -3.9538624020419593 96.39660581216889 -2.1943330226808118 0 0 0
4737 1 -0.4317259759186511 93.9083955488441 -2.194333029059842 0 0 0
4742 1 -2.1927942071540123 95.1528553537337 -0.9501830259330356 0 0 0
4745 1 -2.1927942071690225 95.15285535370285 -3.4384830260033628 0 0 0
5010 1 -0.4317259425603673 96.39660586063968 -2.19433302415736 0 0 0
10413 1 -16.28133968011454 85.19883473884593 1.5381169491101587 1 0 0
10443 1 -18.04240770521117 83.95460082965994 2.7822669485644216 1 0 0
10456 1 -18.042407705212995 83.95460082968745 0.2939669486482528 1 0 0
10457 1 -18.04240763706156 86.44306699074382 0.29396694951144003 1 0 0
10460 1 -18.04240763709011 86.44306699071134 2.78226694972529 1 0 0
4946 1 -14.520271728301218 83.95460084467588 2.7822669506078688 0 0 0
4952 1 -14.520271728337761 83.95460084471452 0.29396695078816576 0 0 0
4953 1 -14.520271632776852 86.44306697915377 0.2939669529836332 0 0 0
4954 1 -14.520271632779187 86.44306697906715 2.7822669531630115 0 0 0
4881 1 -10.99813561844205 83.95460115689116 2.7822669515969327 0 0 0
4894 1 -10.99813561841016 83.9546011569333 0.2939669517028187 0 0 0
4895 1 -10.998135523762027 86.44306717474869 0.29396695794410016 0 0 0
4896 1 -12.75920364941339 85.19883486784407 1.538116953172922 0 0 0
4898 1 -10.998135523793003 86.44306717477222 2.782266958193922 0 0 0
4815 1 -7.475999295829162 83.95460166596777 2.782266953074298 0 0 0
4828 1 -7.475999295868776 83.95460166599148 0.29396695322604655 0 0 0
4829 1 -7.475999228554715 86.44306751427051 0.2939669611836862 0 0 0
4830 1 -9.237067450914289 85.19883521742076 1.5381169566411035 0 0 0
4832 1 -7.4759992285653185 86.44306751430751 2.7822669613445243 0 0 0
4749 1 -3.953862748487428 83.95460221071133 2.7822669556988893 0 0 0
4762 1 -3.953862748534764 83.95460221066452 0.2939669557688379 0 0 0
4763 1 -3.9538627225564933 86.44306788975162 0.293966962511716 0 0 0
4764 1 -5.714931031768023 85.19883567310875 1.538116959268434 0 0 0
4766 1 -3.9538627226342946 86.44306788978156 2.782266962673883 0 0 0
4683 1 -0.43172603124872494 83.95460261417772 2.782266958610062 0 0 0
4696 1 -0.4317260312408331 83.95460261423298 0.2939669586336586 0 0 0
4697 1 -0.43172605542857334 86.44306818108251 0.29396696200135153 0 0 0
4698 1 -2.192794411564446 85.19883609080755 1.538116961094141 0 0 0
4700 1 -0.43172605545159964 86.44306818105738 2.7822669620666294 0 0 0
10416 1 -16.281339605406217 87.68730278611355 1.5381169545873996 1 0 0
10461 1 -18.0424076006326 88.93153091281712 2.7822669605921764 1 0 0
10480 1 -18.042407600619335 88.93153091289969 0.29396696061531524 1 0 0
10425 1 -16.28133955182962 90.17577540493072 1.5381169677615973 1 0 0
4955 1 -14.520271543827656 88.93153088838962 2.782266958791822 0 0 0
4964 1 -14.520271543808665 88.93153088839787 0.2939669588215551 0 0 0
4899 1 -10.998135407978092 88.93153099703795 2.782266961726318 0 0 0
4901 1 -12.759203544659494 87.68730285330878 1.5381169569206137 0 0 0
4918 1 -10.998135407913235 88.93153099707774 0.2939669618190278 0 0 0
4920 1 -12.75920343899343 90.17577542965503 1.5381169654893725 0 0 0
4833 1 -7.475999118978915 88.93153120694838 2.782266965581821 0 0 0
4835 1 -9.237067345781247 87.68730307177862 1.5381169613103762 0 0 0
4852 1 -7.475999118896951 88.93153120691797 0.29396696561974994 0 0 0
4854 1 -9.237067223909879 90.17577555108791 1.5381169667974077 0 0 0
4767 1 -3.953862652382034 88.93153145024054 2.7822669645427522 0 0 0
4769 1 -5.714930957113206 87.6873033702445 1.5381169642746138 0 0 0
4786 1 -3.9538626523848817 88.93153145028822 0.29396696459973654 0 0 0
4788 1 -5.714930852830605 90.17577573335824 1.5381169665215235 0 0 0
4701 1 -0.43172604308319856 88.93153165173193 2.7822669613751185 0 0 0
4703 1 -2.1927943862363617 87.6873036567796 1.5381169633653287 0 0 0
4720 1 -0.4317260430629586 88.93153165169737 0.293966961413798 0 0 0
4722 1 -2.1927943314906884 90.1757759183169 1.5381169636789962 0 0 0
10428 1 -16.281339509610603 92.66426909663149 1.5381169760962035 1 0 0
10481 1 -18.042407585044877 91.41998484530346 0.29396697599502447 1 0 0
10484 1 -18.042407585037356 91.41998484522072 2.7822669760470937 1 0 0
4965 1 -14.520271467808065 91.41998481152012 0.2939669723987078 0 0 0
4966 1 -14.5202714677716 91.41998481154431 2.7822669725533076 0 0 0
4919 1 -10.998135291743267 91.41998486197566 0.2939669697425608 0 0 0
4922 1 -10.998135291725978 91.41998486200545 2.7822669698530156 0 0 0
4925 1 -12.75920334775631 92.66426909379737 1.5381169741588454 0 0 0
4853 1 -7.475998999967937 91.41998497782845 0.2939669699221883 0 0 0
4856 1 -7.475998999979253 91.41998497780901 2.7822669699694096 0 0 0
4859 1 -9.23706710536104 92.66426914991693 1.5381169733497333 0 0 0
4787 1 -3.953862564634023 91.419985123211 0.2939669673598561 0 0 0
4790 1 -3.9538625646607706 91.41998512318406 2.7822669674081446 0 0 0
4793 1 -5.714930746569651 92.66426924730591 1.5381169709089844 0 0 0
4721 1 -0.4317260125793339 91.41998525749649 0.2939669627989605 0 0 0
4724 1 -0.43172601255446463 91.41998525750473 2.782266962844985 0 0 0
4727 1 -2.192794268098024 92.66426936029843 1.5381169672793913 0 0 0
10436 1 -16.281339479978815 95.15285525924595 1.53811698019037 1 0 0
10485 1 -18.042407578684777 93.90839536347222 2.782266980061236 1 0 0
10500 1 -18.042407578692455 93.90839536350884 0.29396698014090694 1 0 0
10823 1 -18.042407577017315 96.39660582346075 0.2939669812914576 1 0 0
10824 1 -18.04240757701831 96.39660582351766 2.78226698130083 1 0 0
4967 1 -14.520271404569499 93.90839532633343 2.782266978348224 0 0 0
4973 1 -14.52027140459368 93.90839532640908 0.2939669784781793 0 0 0
5164 1 -14.520271355519787 96.39660578355587 0.29396698073945027 0 0 0
5165 1 -14.520271355489854 96.39660578360919 2.782266980784141 0 0 0
4923 1 -10.998135190825284 93.90839533608205 2.782266978144217 0 0 0
4938 1 -10.998135190881117 93.908395336036 0.29396697817637246 0 0 0
4939 1 -12.759203269644509 95.15285523833506 1.5381169796851188 0 0 0
5123 1 -10.998135105407579 96.3966057675099 0.2939669803295569 0 0 0
5124 1 -10.998135105369604 96.39660576755756 2.782266980377421 0 0 0
4857 1 -7.475998886695136 93.90839538720152 2.7822669749612934 0 0 0
4872 1 -7.475998886760895 93.90839538724687 0.2939669750224747 0 0 0
4873 1 -9.23706700240718 95.15285525028577 1.5381169786457132 0 0 0
5081 1 -7.475998792310421 96.39660577823888 0.29396698014317735 0 0 0
5082 1 -7.475998792321541 96.39660577821911 2.782266980178828 0 0 0
4791 1 -3.953862477602782 93.90839546548477 2.78226697287563 0 0 0
4806 1 -3.9538624776393414 93.90839546543828 0.2939669729710269 0 0 0
4807 1 -5.714930648677816 95.15285529186924 1.5381169774533616 0 0 0
5039 1 -3.953862402094917 96.3966058120817 0.2939669773064545 0 0 0
5040 1 -3.953862402101371 96.39660581215401 2.7822669773390447 0 0 0
4725 1 -0.4317259758914725 93.90839554886558 2.7822669709389873 0 0 0
4740 1 -0.4317259758986119 93.90839554887897 0.293966970881313 0 0 0
4741 1 -2.192794207149838 95.15285535377525 1.538116974017938 0 0 0
4997 1 -0.4317259424802163 96.39660586060484 0.29396697580901254 0 0 0
4998 1 -0.4317259425256384 96.39660586065014 2.782266975753854 0 0 0
10408 1 -16.281339680075092 85.19883473889567 6.514716949167812 1 0 0
10409 1 -16.281339680149532 85.19883473897315 4.026416949015466 1 0 0
10446 1 -18.04240770514484 83.95460082965586 5.270566948589411 1 0 0
10447 1 -18.04240763707621 86.44306699071204 5.270566949556921 1 0 0
4947 1 -14.52027172837977 83.95460084469903 5.270566950781691 0 0 0
4948 1 -14.520271632776613 86.44306697907332 5.270566953010475 0 0 0
4884 1 -10.998135618450547 83.95460115692377 5.270566951724562 0 0 0
4885 1 -10.998135523757059 86.44306717476097 5.27056695799552 0 0 0
4886 1 -12.759203649481254 85.19883486789362 6.514716953155958 0 0 0
4887 1 -12.759203649433848 85.19883486796796 4.02641695312334 0 0 0
4818 1 -7.4759992958092845 83.95460166596402 5.270566953247389 0 0 0
4819 1 -7.475999228512048 86.44306751433973 5.270566961189912 0 0 0
4820 1 -9.237067450887913 85.19883521743427 6.514716956635546 0 0 0
4821 1 -9.237067450890146 85.19883521755816 4.026416956606999 0 0 0
4752 1 -3.953862748571594 83.95460221068785 5.270566955811346 0 0 0
4753 1 -3.953862722599324 86.44306788974788 5.2705669626224445 0 0 0
4754 1 -5.714931031781855 85.19883567310512 6.514716959290108 0 0 0
4755 1 -5.714931031766604 85.19883567322049 4.026416959195327 0 0 0
4686 1 -0.43172603123029135 83.95460261420689 5.27056695855689 0 0 0
4687 1 -0.4317260554860045 86.44306818107682 5.27056696198504 0 0 0
4688 1 -2.1927944116132037 85.19883609082274 6.514716961096621 0 0 0
4689 1 -2.1927944116070477 85.198836090873 4.02641696103207 0 0 0
10410 1 -16.28133960541696 87.68730278616772 6.5147169546432755 1 0 0
10415 1 -16.281339605408856 87.68730278598014 4.026416954479501 1 0 0
10464 1 -18.042407600583342 88.93153091285154 5.270566960635612 1 0 0
10417 1 -16.281339551918464 90.17577540493514 6.5147169677651435 1 0 0
10418 1 -16.28133955186453 90.17577540504374 4.026416967753782 1 0 0
4956 1 -14.520271543838023 88.9315308884198 5.270566958893862 0 0 0
4890 1 -12.75920354467693 87.68730285331297 6.5147169568961125 0 0 0
4900 1 -12.759203544681544 87.68730285317113 4.026416956872594 0 0 0
4902 1 -10.998135407994692 88.93153099698974 5.270566961851536 0 0 0
4904 1 -12.759203438990806 90.1757754296333 6.514716965505685 0 0 0
4905 1 -12.759203439020835 90.1757754297609 4.026416965512119 0 0 0
4824 1 -9.237067345774246 87.68730307171516 6.514716961356448 0 0 0
4834 1 -9.237067345737055 87.68730307164086 4.02641696135798 0 0 0
4836 1 -7.475999118887786 88.93153120702044 5.270566965610022 0 0 0
4838 1 -9.237067223873794 90.17577555116199 6.514716966812161 0 0 0
4839 1 -9.237067223870223 90.17577555124187 4.026416966757303 0 0 0
4758 1 -5.714930957083508 87.68730337027318 6.514716964355866 0 0 0
4768 1 -5.71493095703346 87.68730337018313 4.026416964290068 0 0 0
4770 1 -3.953862652380105 88.93153145026176 5.270566964540248 0 0 0
4772 1 -5.714930852842938 90.1757757332964 6.5147169665592575 0 0 0
4773 1 -5.714930852831771 90.17577573342223 4.026416966582219 0 0 0
4692 1 -2.192794386241352 87.68730365673633 6.514716963445562 0 0 0
4702 1 -2.1927943862343793 87.6873036567476 4.026416963398559 0 0 0
4704 1 -0.4317260430345926 88.93153165175421 5.270566961384367 0 0 0
4706 1 -2.1927943315232445 90.17577591834356 6.514716963632713 0 0 0
4707 1 -2.192794331492559 90.17577591842908 4.026416963582515 0 0 0
10419 1 -16.28133950958293 92.66426909664851 6.514716976080066 1 0 0
10427 1 -16.281339509559164 92.6642690965757 4.0264169760782655 1 0 0
10465 1 -18.042407585083847 91.41998484525237 5.270566975945074 1 0 0
4957 1 -14.520271467815334 91.41998481152626 5.270566972444596 0 0 0
4903 1 -10.9981352917261 91.41998486198251 5.270566969709167 0 0 0
4908 1 -12.759203347743854 92.66426909381624 6.5147169741841795 0 0 0
4924 1 -12.759203347791926 92.66426909368566 4.02641697413938 0 0 0
4837 1 -7.475998999941869 91.41998497779477 5.270566969861937 0 0 0
4842 1 -9.237067105311626 92.66426914995215 6.514716973349675 0 0 0
4858 1 -9.237067105366739 92.66426914983235 4.026416973325002 0 0 0
4771 1 -3.9538625646792087 91.41998512318307 5.270566967361576 0 0 0
4776 1 -5.714930746621575 92.66426924728475 6.51471697090374 0 0 0
4792 1 -5.71493074657409 92.66426924726423 4.026416970911277 0 0 0
4705 1 -0.43172601253435555 91.419985257532 5.270566962776273 0 0 0
4710 1 -2.1927942681503074 92.66426936026937 6.514716967337498 0 0 0
4726 1 -2.1927942681176793 92.66426936021796 4.026416967272564 0 0 0
10429 1 -16.281339479971862 95.15285525921384 6.514716980146822 1 0 0
10430 1 -16.28133948001586 95.15285525929117 4.02641698015014 1 0 0
10488 1 -18.042407578674258 93.90839536348028 5.270566980139713 1 0 0
10819 1 -18.042407576973396 96.39660582347894 5.270566981296294 1 0 0
4968 1 -14.52027140454226 93.90839532635943 5.270566978363471 0 0 0
5161 1 -14.520271355491493 96.39660578357781 5.270566980687923 0 0 0
4926 1 -10.998135190843026 93.90839533606902 5.270566978217015 0 0 0
4927 1 -12.759203269571818 95.15285523831459 6.514716979637532 0 0 0
4928 1 -12.75920326970883 95.15285523842213 4.026416979631804 0 0 0
5119 1 -10.998135105402653 96.39660576748011 5.270566980384316 0 0 0
4860 1 -7.4759988867460025 93.90839538721987 5.27056697510068 0 0 0
4861 1 -9.237067002418737 95.15285525026513 6.514716978630326 0 0 0
4862 1 -9.23706700246634 95.1528552503972 4.026416978638197 0 0 0
5077 1 -7.475998792301101 96.39660577826746 5.2705669800894634 0 0 0
4794 1 -3.9538624776592406 93.90839546541994 5.270566972943841 0 0 0
4795 1 -5.714930648629659 95.15285529189518 6.5147169774456515 0 0 0
4796 1 -5.714930648596515 95.15285529194817 4.026416977400808 0 0 0
5035 1 -3.953862402064509 96.39660581214984 5.270566977241156 0 0 0
4728 1 -0.43172597591555134 93.90839554885186 5.270566970962978 0 0 0
4729 1 -2.192794207176526 95.152855353684 6.514716974024572 0 0 0
4730 1 -2.192794207153709 95.15285535372432 4.026416973997883 0 0 0
4993 1 -0.43172594255216046 96.39660586063286 5.270566975828729 0 0 0
10813 1 -16.281339453987332 97.6418867005694 -5.9267830169184 1 0 0
10815 1 -16.281339432433 100.13213280307147 -5.926783015098105 1 0 0
10821 1 -18.04240757349972 98.88365578666777 -7.170933015185346 1 0 1
10850 1 -18.042407573471962 98.88365578671181 -4.682633015149054 1 0 0
5163 1 -14.520271313624017 98.88365574809652 -7.1709330166891565 0 0 1
5179 1 -14.520271313620096 98.88365574811392 -4.68263301668261 0 0 0
5121 1 -10.998135038321776 98.88365571632879 -7.170933017422389 0 0 1
5149 1 -12.759203206829905 97.64188666808087 -5.92678301744197 0 0 0
5150 1 -10.998135038355075 98.8836557163231 -4.68263301745002 0 0 0
5153 1 -12.759203157025953 100.13213276399883 -5.926783015523936 0 0 0
5079 1 -7.4759987213228305 98.88365569999664 -7.1709330188108265 0 0 1
5107 1 -9.237066920498615 97.64188665279028 -5.926783018301269 0 0 0
5108 1 -7.475998721326064 98.88365569995659 -4.682633018808313 0 0 0
5111 1 -9.237066858333742 100.13213273303717 -5.92678301673952 0 0 0
5037 1 -3.9538623454896786 98.88365570656401 -7.170933018318104 0 0 1
5065 1 -5.7149305701973585 97.6418866598596 -5.926783020536407 0 0 0
5066 1 -3.953862345521772 98.88365570651807 -4.682633018320714 0 0 0
5069 1 -5.714930515601036 100.13213271836071 -5.9267830172101075 0 0 0
4995 1 -0.4317259170695886 98.88365573176156 -7.170933018505453 0 0 1
5023 1 -2.192794157282125 97.64188668862406 -5.9267830208752965 0 0 0
5024 1 -0.4317259170182243 98.88365573174138 -4.682633018514163 0 0 0
5027 1 -2.1927941228410264 100.13213272558426 -5.926783017666482 0 0 0
10818 1 -16.2813394082454 102.62518013965881 -5.926783012730242 1 0 0
10832 1 -18.042407565104252 101.36561316329154 -7.170933012448637 1 0 1
10833 1 -18.042407548434998 103.8491109842041 -7.170933012611892 1 0 1
10851 1 -18.042407565116047 101.36561316334397 -4.682633012462315 1 0 0
10860 1 -18.042407548433186 103.84911098418509 -4.682633012598952 1 0 0
5169 1 -14.520271279773421 101.36561312747901 -7.170933013759624 0 0 1
5170 1 -14.520271250167244 103.84911095497431 -7.170933014936418 0 0 1
5180 1 -14.520271279844037 101.36561312746723 -4.682633013811921 0 0 0
5184 1 -14.520271250188724 103.84911095496975 -4.682633014968894 0 0 0
5132 1 -10.998134990140617 101.36561308666684 -7.17093301553936 0 0 1
5133 1 -10.998134956110528 103.84911091020926 -7.170933017425181 0 0 1
5151 1 -10.998134990182685 101.36561308660141 -4.682633015560173 0 0 0
5159 1 -12.759203120004011 102.62518009988803 -5.92678301538016 0 0 0
5160 1 -10.998134956119904 103.84911091019843 -4.682633017441762 0 0 0
5090 1 -7.475998671045877 101.36561305422488 -7.170933016072346 0 0 1
5091 1 -7.475998641301593 103.84911086274326 -7.170933018144029 0 0 1
5109 1 -7.475998671017557 101.36561305425919 -4.682633016105569 0 0 0
5117 1 -9.237066816744537 102.6251800596943 -5.926783016310208 0 0 0
5118 1 -7.475998641326154 103.84911086272923 -4.682633018133826 0 0 0
5048 1 -3.953862309103383 101.36561304253904 -7.1709330166943195 0 0 1
5049 1 -3.9538622924462277 103.84911083247225 -7.170933016472672 0 0 1
5067 1 -3.9538623091834166 101.36561304252267 -4.6826330166834635 0 0 0
5075 1 -5.714930481986712 102.62518003297765 -5.926783017505475 0 0 0
5076 1 -3.9538622924443634 103.84911083252115 -4.682633016500807 0 0 0
5006 1 -0.4317259045509779 101.36561305089624 -7.170933015345426 0 0 1
5007 1 -0.43172590748551654 103.84911082627494 -7.170933013737881 0 0 1
5025 1 -0.4317259045058907 101.36561305083687 -4.682633015345751 0 0 0
5033 1 -2.1927941065014087 102.6251800263895 -5.926783014889285 0 0 0
5034 1 -0.43172590747122747 103.84911082626594 -4.682633013750585 0 0 0
10807 1 -16.281339454052887 97.6418867005746 -0.9501830168986939 1 0 0
10808 1 -16.281339454098998 97.64188670060996 -3.4384830169046525 1 0 0
10810 1 -16.28133943242261 100.13213280303997 -0.950183015095145 1 0 0
10814 1 -16.281339432382257 100.13213280298862 -3.438483015061074 1 0 0
10837 1 -18.042407573503805 98.88365578670793 -2.194333015254675 1 0 0
5173 1 -14.520271313621585 98.88365574809791 -2.194333016634367 0 0 0
5137 1 -10.998135038395171 98.88365571634576 -2.1943330174869136 0 0 0
5138 1 -12.759203206846168 97.64188666803085 -0.9501830174966299 0 0 0
5139 1 -12.759203206827152 97.64188666810033 -3.4384830174792294 0 0 0
5143 1 -12.759203157047047 100.13213276401797 -0.9501830155449899 0 0 0
5152 1 -12.75920315699016 100.13213276395061 -3.4384830155632202 0 0 0
5095 1 -7.475998721317792 98.88365569996627 -2.194333018845383 0 0 0
5096 1 -9.237066920492909 97.64188665284482 -0.9501830182897598 0 0 0
5097 1 -9.237066920484974 97.64188665284875 -3.4384830182965307 0 0 0
5101 1 -9.2370668583036 100.1321327330639 -0.9501830167151115 0 0 0
5110 1 -9.237066858317279 100.13213273303609 -3.438483016728677 0 0 0
5053 1 -3.9538623454727966 98.88365570654481 -2.1943330183351946 0 0 0
5054 1 -5.714930570178538 97.64188665985499 -0.9501830205762896 0 0 0
5055 1 -5.714930570197584 97.64188665990038 -3.4384830205725647 0 0 0
5059 1 -5.714930515621894 100.13213271833337 -0.9501830172144105 0 0 0
5068 1 -5.714930515571503 100.1321327182173 -3.438483017196468 0 0 0
5011 1 -0.431725917072222 98.8836557317753 -2.1943330185778547 0 0 0
5012 1 -2.1927941573101153 97.64188668863285 -0.9501830208973002 0 0 0
5013 1 -2.1927941572984513 97.64188668862144 -3.438483020920907 0 0 0
5017 1 -2.1927941229338095 100.13213272555582 -0.9501830176858206 0 0 0
5026 1 -2.192794122855901 100.13213272558123 -3.4384830176989727 0 0 0
10816 1 -16.281339408224333 102.62518013970244 -0.9501830126703371 1 0 0
10817 1 -16.281339408223403 102.62518013975148 -3.438483012659444 1 0 0
10854 1 -18.04240756514027 101.36561316332853 -2.194333012457492 1 0 0
10855 1 -18.04240754843521 103.84911098419822 -2.194333012634889 1 0 0
5181 1 -14.520271279802486 101.3656131274792 -2.1943330138575208 0 0 0
5182 1 -14.520271250201553 103.84911095499164 -2.194333014949551 0 0 0
5154 1 -10.99813499014398 101.36561308667785 -2.194333015529302 0 0 0
5155 1 -10.998134956106789 103.84911091013429 -2.1943330174899485 0 0 0
5156 1 -12.759203120043386 102.62518009988717 -0.9501830153551384 0 0 0
5157 1 -12.759203119989698 102.62518009995146 -3.4384830153165375 0 0 0
5112 1 -7.475998671055812 101.36561305428057 -2.1943330160469006 0 0 0
5113 1 -7.4759986413382284 103.84911086276124 -2.1943330181915663 0 0 0
5114 1 -9.237066816815606 102.62518005965894 -0.9501830162894699 0 0 0
5115 1 -9.237066816854378 102.62518005972893 -3.438483016270563 0 0 0
5070 1 -3.9538623091804577 101.3656130424977 -2.1943330167184296 0 0 0
5071 1 -3.953862292465686 103.84911083246794 -2.194333016483757 0 0 0
5072 1 -5.714930481955599 102.62518003295003 -0.9501830174369216 0 0 0
5073 1 -5.714930481915537 102.62518003299583 -3.4384830173865564 0 0 0
5028 1 -0.43172590455079457 101.36561305089212 -2.1943330153919214 0 0 0
5029 1 -0.43172590742034245 103.84911082630389 -2.1943330137858563 0 0 0
5030 1 -2.1927941064807737 102.62518002638384 -0.9501830148668281 0 0 0
5031 1 -2.192794106437823 102.62518002635431 -3.4384830148221353 0 0 0
10803 1 -16.281339453988675 97.64188670061135 1.5381169831128942 1 0 0
10809 1 -16.281339432448643 100.13213280304424 1.5381169848572294 1 0 0
10825 1 -18.042407573484688 98.8836557867043 2.782266984787512 1 0 0
10840 1 -18.04240757351833 98.88365578669058 0.2939669848078967 1 0 0
5166 1 -14.520271313607884 98.88365574812673 2.7822669832616547 0 0 0
5174 1 -14.520271313628491 98.8836557481117 0.2939669833458428 0 0 0
5125 1 -10.998135038352677 98.88365571630861 2.7822669825194897 0 0 0
5127 1 -12.759203206815602 97.64188666813062 1.5381169825919152 0 0 0
5140 1 -10.998135038316207 98.88365571634492 0.2939669826242588 0 0 0
5142 1 -12.759203156997415 100.13213276399145 1.538116984454228 0 0 0
5083 1 -7.475998721332421 98.88365569994556 2.782266981178258 0 0 0
5085 1 -9.23706692047847 97.64188665284902 1.5381169817049056 0 0 0
5098 1 -7.475998721318157 98.88365570000644 0.2939669812221575 0 0 0
5100 1 -9.237066858327166 100.13213273300006 1.5381169832935853 0 0 0
5041 1 -3.9538623455142528 98.88365570652371 2.7822669816689736 0 0 0
5043 1 -5.714930570208867 97.64188665989415 1.5381169794739633 0 0 0
5056 1 -3.9538623455020274 98.88365570656298 0.2939669817166382 0 0 0
5058 1 -5.714930515607404 100.13213271833426 1.5381169827922756 0 0 0
4999 1 -0.4317259170522576 98.88365573175908 2.7822669814264787 0 0 0
5001 1 -2.1927941572927927 97.6418866886296 1.5381169791296911 0 0 0
5014 1 -0.431725917075299 98.88365573177937 0.29396698150374484 0 0 0
5016 1 -2.1927941228609873 100.13213272556287 1.5381169823097958 0 0 0
10812 1 -16.281339408232537 102.62518013966714 1.538116987311381 1 0 0
10841 1 -18.042407565120204 101.36561316330223 0.2939669875741563 1 0 0
10844 1 -18.042407565102277 101.36561316334142 2.782266987544164 1 0 0
10845 1 -18.042407548442373 103.84911098418566 2.7822669873914276 1 0 0
10858 1 -18.042407548420723 103.8491109841927 0.2939669873999601 1 0 0
5175 1 -14.520271279788838 101.36561312746112 0.29396698619714323 0 0 0
5176 1 -14.520271279839765 101.36561312746731 2.78226698620785 0 0 0
5177 1 -14.520271250177 103.84911095500468 2.7822669850194797 0 0 0
5183 1 -14.520271250169081 103.84911095498995 0.29396698508615854 0 0 0
5141 1 -10.998134990133588 101.36561308667598 0.29396698446426545 0 0 0
5144 1 -10.998134990183893 101.36561308663232 2.782266984454548 0 0 0
5145 1 -10.998134956116376 103.8491109102089 2.782266982558357 0 0 0
5147 1 -12.7592031200233 102.62518009991678 1.5381169846282914 0 0 0
5158 1 -10.998134956135159 103.84911091021482 0.293966982609322 0 0 0
5099 1 -7.475998671038405 101.3656130542174 0.29396698390382286 0 0 0
5102 1 -7.475998671001661 101.36561305426426 2.782266983917805 0 0 0
5103 1 -7.475998641344098 103.84911086272196 2.7822669818308103 0 0 0
5105 1 -9.23706681675675 102.62518005968701 1.538116983708497 0 0 0
5116 1 -7.475998641313475 103.84911086273465 0.2939669818705183 0 0 0
5057 1 -3.9538623091134046 101.36561304254121 0.2939669832936158 0 0 0
5060 1 -3.9538623091752183 101.3656130425197 2.782266983322923 0 0 0
5061 1 -3.9538622924447693 103.84911083251245 2.7822669834649 0 0 0
5063 1 -5.714930481978089 102.62518003298212 1.5381169825231813 0 0 0
5074 1 -3.953862292441829 103.8491108324749 0.2939669835588399 0 0 0
5015 1 -0.4317259045530048 101.36561305087533 0.2939669846427057 0 0 0
5018 1 -0.4317259045248898 101.365613050858 2.782266984661898 0 0 0
5019 1 -0.43172590745914946 103.84911082626807 2.7822669862365568 0 0 0
5021 1 -2.1927941064864522 102.62518002640742 1.5381169850998109 0 0 0
5032 1 -0.43172590745694617 103.84911082628295 0.2939669862580906 0 0 0
10801 1 -16.281339454030288 97.64188670058981 6.514716983070236 1 0 0
10802 1 -16.281339454071833 97.64188670055827 4.026416983061891 1 0 0
10804 1 -16.28133943240388 100.13213280298697 6.514716984914149 1 0 0
10805 1 -16.281339432385394 100.13213280298432 4.026416984930464 1 0 0
10828 1 -18.042407573491467 98.88365578669439 5.270566984792085 1 0 0
5167 1 -14.520271313616758 98.88365574811887 5.2705669833621505 0 0 0
5122 1 -12.759203206845278 97.64188666807597 6.51471698246642 0 0 0
5126 1 -12.759203206850362 97.64188666803865 4.026416982508656 0 0 0
5128 1 -10.998135038394711 98.88365571634546 5.270566982540146 0 0 0
5130 1 -12.759203157040085 100.13213276398706 6.51471698446195 0 0 0
5131 1 -12.75920315696949 100.13213276397114 4.026416984432997 0 0 0
5080 1 -9.237066920487466 97.64188665289102 6.514716981734363 0 0 0
5084 1 -9.237066920491902 97.64188665280088 4.026416981703835 0 0 0
5086 1 -7.47599872132109 98.88365569995817 5.270566981208672 0 0 0
5088 1 -9.237066858312868 100.13213273302742 6.514716983256933 0 0 0
5089 1 -9.237066858329289 100.13213273305917 4.0264169832735215 0 0 0
5038 1 -5.714930570176748 97.6418866598939 6.514716979395306 0 0 0
5042 1 -5.714930570186333 97.64188665986742 4.026416979433741 0 0 0
5044 1 -3.953862345458139 98.88365570653772 5.270566981706023 0 0 0
5046 1 -5.714930515623249 100.13213271832852 6.51471698280161 0 0 0
5047 1 -5.714930515570166 100.13213271822573 4.0264169828272385 0 0 0
4996 1 -2.19279415732824 97.64188668863581 6.514716979106613 0 0 0
5000 1 -2.192794157291651 97.64188668857871 4.026416979073189 0 0 0
5002 1 -0.4317259170922021 98.88365573177882 5.270566981438324 0 0 0
5004 1 -2.1927941229063133 100.13213272555457 6.514716982356669 0 0 0
5005 1 -2.1927941228493646 100.13213272560205 4.02641698230205 0 0 0
10806 1 -16.281339408228423 102.62518013972617 6.5147169872947766 1 0 0
10811 1 -16.281339408206517 102.62518013974203 4.026416987338661 1 0 0
10829 1 -18.042407565107883 101.36561316331004 5.270566987516642 1 0 0
10848 1 -18.042407548459057 103.84911098421017 5.270566987414191 1 0 0
5168 1 -14.520271279805563 101.36561312747884 5.270566986144632 0 0 0
5178 1 -14.520271250189671 103.8491109550159 5.270566985064573 0 0 0
5129 1 -10.998134990147141 101.3656130866945 5.270566984459832 0 0 0
5134 1 -12.759203120030433 102.62518009993055 6.514716984634598 0 0 0
5146 1 -12.759203120005317 102.62518009995067 4.026416984672987 0 0 0
5148 1 -10.998134956098834 103.84911091012869 5.270566982540619 0 0 0
5087 1 -7.475998671056672 101.36561305428127 5.270566983961881 0 0 0
5092 1 -9.237066816808293 102.62518005968093 6.514716983722811 0 0 0
5104 1 -9.23706681684404 102.6251800597197 4.026416983721656 0 0 0
5106 1 -7.47599864134507 103.84911086277035 5.270566981819138 0 0 0
5045 1 -3.9538623091619716 101.36561304248619 5.270566983288441 0 0 0
5050 1 -5.714930481948758 102.62518003298432 6.51471698255703 0 0 0
5062 1 -5.714930481916364 102.62518003298813 4.0264169826075875 0 0 0
5064 1 -3.9538622924750815 103.84911083247243 5.2705669835162885 0 0 0
5003 1 -0.43172590457054516 101.36561305092161 5.2705669846269165 0 0 0
5008 1 -2.1927941065015495 102.62518002641846 6.514716985157089 0 0 0
5020 1 -2.1927941064511294 102.62518002636318 4.026416985160174 0 0 0
5022 1 -0.43172590742932637 103.84911082630164 5.270566986251184 0 0 0
5344 1 2.095416834613763 -103.00987559659232 -4.029985411273921 0 0 0
5345 1 2.0954168346621795 -103.00987559651641 -6.518285411277314 0 0 0
5391 1 1.3793168399189868 -100.96882160227622 -5.274135406875864 0 0 0
5289 1 6.4002497511931775 -103.0098749159301 -4.029985402302561 0 0 0
5303 1 6.400249751184106 -103.00987491583729 -6.51828540225601 0 0 0
5343 1 4.247833303097678 -103.0098751768443 -5.274135406850229 0 0 0
5349 1 3.5317333747603397 -100.96882113035332 -4.029985403056269 0 0 0
5359 1 3.5317333746848605 -100.96882113037486 -6.518285403043775 0 0 0
5360 1 5.684149900678626 -100.96882080792714 -5.274135400295047 0 0 0
5304 1 8.552666205177347 -103.00987485002574 -5.274135400064274 0 0 0
5306 1 7.836566433601246 -100.96882067792575 -4.029985397948994 0 0 0
5307 1 7.8365664335633225 -100.9688206779008 -6.518285397923313 0 0 0
5247 1 12.857499230236899 -103.00987529952305 -5.274135400108945 0 0 0
5248 1 10.705082690806957 -103.00987498376308 -4.029985398021084 0 0 0
5249 1 10.70508269080749 -103.00987498375781 -6.518285398068217 0 0 0
5253 1 12.141399581053195 -100.9688210310706 -4.0299853998688135 0 0 0
5263 1 12.14139958097565 -100.96882103104419 -6.518285399952835 0 0 0
5305 1 9.988982989274572 -100.96882075535677 -5.274135397527438 0 0 0
5204 1 15.009915837259125 -103.0098757615068 -4.029985403177121 0 0 0
5214 1 15.009915837295583 -103.00987576142187 -6.518285403216978 0 0 0
5264 1 14.293816219246445 -100.96882146923343 -5.274135404701042 0 0 0
5189 1 19.314749281626455 -103.00987688187769 -4.029985414817672 0 0 0
5190 1 19.314749281539093 -103.00987688176671 -6.518285414856241 0 0 0
5215 1 17.162332522544933 -103.00987630976505 -5.274135410835408 0 0 0
5216 1 18.598649640248553 -100.96882261231589 -5.274135412998114 0 0 0
5217 1 16.44623290694142 -100.96882201937015 -4.0299854093752066 0 0 0
5218 1 16.446232906893687 -100.96882201942721 -6.518285409435185 0 0 0
5395 1 0.6631249168040919 -98.93500015844904 -4.029985402652443 0 0 0
5401 1 0.6631249168103389 -98.93500015842788 -6.518285402728466 0 0 0
5402 1 2.815541465531133 -98.9349996333878 -5.274135400660662 0 0 0
5404 1 2.0993445636991583 -96.90271570604642 -4.029985399207923 0 0 0
5405 1 2.0993445636620343 -96.90271570602076 -6.518285399068039 0 0 0
5362 1 4.967958013330239 -98.9349992515053 -4.029985398595227 0 0 0
5363 1 4.967958013284958 -98.93499925158562 -6.518285398571291 0 0 0
5367 1 6.404177662916607 -96.9027149976753 -4.029985396029245 0 0 0
5369 1 6.404177663044317 -96.90271499762781 -6.518285396017403 0 0 0
5403 1 4.251761105378697 -96.90271525970118 -5.274135396623464 0 0 0
5311 1 9.27279116077456 -98.93499907589505 -4.029985397935446 0 0 0
5317 1 9.272791160813764 -98.9349990758059 -6.518285397946633 0 0 0
5361 1 7.120374574089655 -98.93499905670394 -5.274135396735658 0 0 0
5370 1 8.556594250372479 -96.90271495557867 -5.274135396269268 0 0 0
5318 1 11.42520778220498 -98.93499930456242 -5.27413539871352 0 0 0
5319 1 12.86142754504329 -96.9027155230275 -5.274135396182765 0 0 0
5320 1 10.709010875163388 -96.90271513791451 -4.029985393844022 0 0 0
5321 1 10.709010875086273 -96.9027151379359 -6.518285393778745 0 0 0
5265 1 15.73004114818511 -98.93500026057438 -5.274135403814341 0 0 0
5266 1 13.577624445382192 -98.93499971665436 -4.029985402740138 0 0 0
5267 1 13.577624445362556 -98.93499971672217 -6.518285402725201 0 0 0
5271 1 15.013844258527023 -96.90271606208354 -4.029985396350432 0 0 0
5273 1 15.01384425860498 -96.90271606201607 -6.518285396348716 0 0 0
5221 1 17.88245788877809 -98.9350008707931 -4.029985406664267 0 0 0
5224 1 17.88245788887247 -98.9350008706782 -6.518285406748498 0 0 0
5225 1 19.318677788975638 -96.90271733467142 -4.029985407920283 0 0 0
5226 1 19.318677788883395 -96.90271733479067 -6.518285407803986 0 0 0
5274 1 17.166261009033718 -96.90271669180754 -5.274135400200292 0 0 0
5331 1 2.0954168345769113 -103.00987559662693 -1.5416854112367788 0 0 0
5380 1 1.3793168398786635 -100.96882160227175 -0.29753540673841294 0 0 0
5392 1 1.3793168398325744 -100.96882160222019 -2.78583540687065 0 0 0
5288 1 6.400249751268326 -103.00987491590351 -1.5416854022221862 0 0 0
5329 1 4.247833303123565 -103.00987517682512 -0.29753540683521384 0 0 0
5346 1 4.247833303119453 -103.0098751768664 -2.7858354068387916 0 0 0
5347 1 5.684149900651728 -100.9688208079405 -2.7858354002006958 0 0 0
5348 1 3.531733374809695 -100.96882113026736 -1.5416854030335743 0 0 0
5350 1 5.684149900667241 -100.96882080794978 -0.29753540016551866 0 0 0
5287 1 8.55266620517494 -103.00987484991421 -2.7858354000128442 0 0 0
5290 1 8.55266620514217 -103.00987485003368 -0.2975354001648379 0 0 0
5293 1 7.8365664336078655 -100.96882067796689 -1.5416853980096161 0 0 0
5233 1 12.857499230261404 -103.00987529955802 -0.29753540008298224 0 0 0
5235 1 10.705082690790807 -103.00987498375764 -1.541685398106591 0 0 0
5250 1 12.857499230201832 -103.0098752995003 -2.7858354000975 0 0 0
5252 1 12.141399581013674 -100.96882103103867 -1.5416854000533673 0 0 0
5291 1 9.988982989299283 -100.96882075538714 -0.29753539751003666 0 0 0
5308 1 9.988982989234216 -100.9688207553293 -2.7858353975379573 0 0 0
5203 1 15.00991583731698 -103.00987576151923 -1.5416854032538387 0 0 0
5251 1 14.29381621922409 -100.96882146916985 -2.7858354046397538 0 0 0
5254 1 14.29381621926883 -100.96882146919015 -0.2975354046461398 0 0 0
5188 1 19.314749281510302 -103.00987688184541 -1.5416854147733223 0 0 0
5202 1 17.16233252254278 -103.0098763096946 -2.7858354107676737 0 0 0
5205 1 17.1623325225704 -103.00987630973464 -0.29753541084325624 0 0 0
5206 1 18.598649640262767 -100.96882261233242 -0.297535412830713 0 0 0
5208 1 16.446232906896736 -100.96882201939704 -1.5416854095302812 0 0 0
5219 1 18.598649640163757 -100.9688226122463 -2.7858354130056453 0 0 0
5393 1 2.815541465529165 -98.93499963340989 -2.7858354006178345 0 0 0
5394 1 0.6631249168305732 -98.93500015843675 -1.5416854027796372 0 0 0
5396 1 2.815541465581615 -98.93499963335677 -0.2975354005931917 0 0 0
5399 1 2.09934456363312 -96.90271570609868 -1.541685399119246 0 0 0
5353 1 4.96795801326128 -98.93499925155017 -1.5416853985768475 0 0 0
5366 1 6.40417766301195 -96.90271499765561 -1.541685396037628 0 0 0
5397 1 4.251761105403669 -96.90271525970898 -0.2975353965954398 0 0 0
5406 1 4.251761105419894 -96.9027152596394 -2.7858353966868976 0 0 0
5310 1 9.272791160814634 -98.93499907584804 -1.5416853979839613 0 0 0
5351 1 7.120374574143616 -98.93499905669829 -0.2975353967072702 0 0 0
5364 1 7.120374574134732 -98.93499905666016 -2.7858353967634537 0 0 0
5365 1 8.556594250337866 -96.90271495561296 -2.785835396134674 0 0 0
5368 1 8.556594250383785 -96.90271495557162 -0.297535396194663 0 0 0
5309 1 11.425207782243966 -98.93499930459312 -2.7858353985883566 0 0 0
5312 1 11.425207782187208 -98.93499930450243 -0.2975353986162704 0 0 0
5313 1 12.86142754503831 -96.9027155229764 -0.29753539610127683 0 0 0
5315 1 10.709010875125928 -96.90271513797458 -1.5416853937268367 0 0 0
5322 1 12.861427545061542 -96.90271552298277 -2.7858353961900666 0 0 0
5255 1 15.730041148140398 -98.93500026054598 -0.2975354038265189 0 0 0
5257 1 13.577624445340186 -98.93499971673519 -1.5416854027565683 0 0 0
5268 1 15.730041148213026 -98.9350002605152 -2.7858354038348065 0 0 0
5270 1 15.013844258570028 -96.90271606197805 -1.5416853963525003 0 0 0
5220 1 17.8824578888379 -98.93500087068686 -1.541685406770956 0 0 0
5223 1 19.31867778889229 -96.9027173347624 -1.5416854078362645 0 0 0
5269 1 17.16626100903867 -96.90271669187956 -2.7858354001634913 0 0 0
5272 1 17.16626100900609 -96.90271669180812 -0.29753540027729075 0 0 0
5325 1 2.0954168346090167 -103.00987559662244 3.4349145887074304 0 0 0
5330 1 2.0954168346712354 -103.00987559649151 0.9466145887054536 0 0 0
5381 1 1.3793168399347764 -100.96882160224007 2.1907645931140003 0 0 0
5278 1 6.400249751200505 -103.00987491593362 3.43491459768691 0 0 0
5279 1 6.400249751176533 -103.009874915857 0.9466145977693361 0 0 0
5332 1 4.2478333031269875 -103.0098751768501 2.190764593137431 0 0 0
5333 1 5.684149900676901 -100.96882080795358 2.190764599717636 0 0 0
5334 1 3.5317333747865365 -100.96882113034746 3.4349145969344526 0 0 0
5335 1 3.5317333746619752 -100.96882113038899 0.9466145970096324 0 0 0
5277 1 8.552666205173809 -103.00987485002189 2.19076459993055 0 0 0
5283 1 7.836566433559355 -100.96882067796068 3.4349146020473413 0 0 0
5292 1 7.836566433588374 -100.968820677876 0.9466146020372926 0 0 0
5229 1 10.705082690774438 -103.00987498376102 3.434914601998521 0 0 0
5234 1 10.705082690824273 -103.00987498373348 0.9466146019286767 0 0 0
5236 1 12.857499230237504 -103.00987529952167 2.190764599906605 0 0 0
5238 1 12.141399581083023 -100.96882103102512 3.434914600112626 0 0 0
5239 1 12.141399580958721 -100.9688210310774 0.9466146000790708 0 0 0
5294 1 9.98898298929805 -100.96882075532969 2.1907646024491787 0 0 0
5194 1 15.009915837292159 -103.00987576149586 3.434914596806619 0 0 0
5195 1 15.009915837272723 -103.00987576143508 0.9466145968145419 0 0 0
5237 1 14.293816219251699 -100.96882146923959 2.190764595359639 0 0 0
5186 1 19.314749281609686 -103.0098768818794 3.434914585178115 0 0 0
5187 1 19.31474928156034 -103.00987688172914 0.9466145851347679 0 0 0
5193 1 17.162332522545146 -103.00987630976331 2.1907645891733116 0 0 0
5199 1 16.446232906904083 -100.96882201941818 3.434914590658945 0 0 0
5207 1 16.44623290691838 -100.96882201938661 0.9466145905645553 0 0 0
5209 1 18.598649640249445 -100.96882261229719 2.190764586959661 0 0 0
5382 1 2.815541465512902 -98.93499963341232 2.1907645993853273 0 0 0
5383 1 0.6631249168133707 -98.93500015843146 3.4349145973043416 0 0 0
5384 1 0.6631249168022647 -98.93500015844943 0.9466145973094392 0 0 0
5388 1 2.0993445636649164 -96.90271570606188 3.4349146008514078 0 0 0
5398 1 2.0993445636796197 -96.90271570600558 0.9466146008861925 0 0 0
5339 1 4.967958013308501 -98.9349992515475 3.4349146014572596 0 0 0
5352 1 4.967958013313768 -98.93499925155831 0.9466146013524415 0 0 0
5356 1 6.404177662965567 -96.90271499760632 3.4349146039245135 0 0 0
5357 1 6.404177663013749 -96.90271499768807 0.9466146040425609 0 0 0
5400 1 4.251761105396388 -96.9027152596565 2.190764603344039 0 0 0
5296 1 9.272791160818194 -98.9349990758442 3.434914602011146 0 0 0
5297 1 9.272791160754258 -98.93499907587399 0.9466146021015726 0 0 0
5354 1 7.120374574118239 -98.93499905667035 2.1907646031928345 0 0 0
5355 1 8.556594250373953 -96.90271495561464 2.190764603811759 0 0 0
5295 1 11.425207782184607 -98.93499930457664 2.1907646013549233 0 0 0
5301 1 10.709010875125676 -96.90271513800829 3.4349146062143836 0 0 0
5314 1 10.709010875139787 -96.90271513786857 0.946614606173335 0 0 0
5316 1 12.861427545070871 -96.9027155229938 2.1907646037133817 0 0 0
5243 1 13.577624445360033 -98.93499971673825 3.4349145972902297 0 0 0
5256 1 13.577624445419922 -98.9349997166559 0.9466145972081617 0 0 0
5258 1 15.730041148228924 -98.93500026055747 2.190764596083713 0 0 0
5260 1 15.013844258595993 -96.90271606199693 3.434914603613582 0 0 0
5261 1 15.013844258544488 -96.90271606209642 0.94661460367001 0 0 0
5210 1 17.882457888806716 -98.93500087074372 3.434914593321474 0 0 0
5211 1 17.88245788883226 -98.93500087076517 0.9466145932724095 0 0 0
5213 1 19.318677788882603 -96.90271733476517 3.434914592120941 0 0 0
5222 1 19.318677788948108 -96.90271733471872 0.9466145921713836 0 0 0
5259 1 17.166261009013922 -96.9027166918568 2.1907645999217893 0 0 0
5324 1 2.0954168345616395 -103.00987559665576 5.923214588736669 0 0 0
5374 1 1.3793168398396398 -100.96882160225695 4.679064593131918 0 0 0
5375 1 1.3793168399022167 -100.96882160226203 7.167364593232582 0 0 0
5276 1 6.400249751241541 -103.00987491590351 5.9232145977946935 0 0 0
5323 1 4.247833303092875 -103.00987517689454 4.6790645931696035 0 0 0
5326 1 4.247833303122588 -103.00987517682465 7.167364593161963 0 0 0
5327 1 5.684149900661095 -100.96882080797164 7.167364599879327 0 0 0
5328 1 3.5317333748049724 -100.9688211303064 5.923214596975833 0 0 0
5336 1 5.684149900658884 -100.96882080789409 4.6790645997781315 0 0 0
5275 1 8.552666205125686 -103.00987485004634 7.167364599872613 0 0 0
5280 1 8.552666205165355 -103.00987484991288 4.679064599948601 0 0 0
5282 1 7.836566433606926 -100.96882067792455 5.923214601978594 0 0 0
5227 1 12.857499230202768 -103.00987529949356 4.679064599913242 0 0 0
5228 1 10.70508269080395 -103.00987498374917 5.92321460190219 0 0 0
5230 1 12.85749923027356 -103.00987529955277 7.167364599882911 0 0 0
5232 1 12.141399580978211 -100.96882103106462 5.923214599978722 0 0 0
5281 1 9.988982989202668 -100.9688207553399 4.679064602506611 0 0 0
5284 1 9.988982989289815 -100.96882075538218 7.167364602427503 0 0 0
5192 1 15.009915837321381 -103.00987576154405 5.923214596754323 0 0 0
5231 1 14.293816219268054 -100.96882146920242 7.167364595414184 0 0 0
5240 1 14.293816219232063 -100.96882146916228 4.679064595288702 0 0 0
5185 1 19.314749281518008 -103.00987688183854 5.923214585208592 0 0 0
5191 1 17.16233252257127 -103.00987630977703 7.167364589176277 0 0 0
5196 1 17.162332522551154 -103.0098763097166 4.679064589196909 0 0 0
5197 1 18.598649640168812 -100.9688226122573 4.679064587073661 0 0 0
5198 1 16.44623290692849 -100.96882201936806 5.923214590470011 0 0 0
5200 1 18.598649640279696 -100.96882261233014 7.167364587123942 0 0 0
5376 1 2.815541465533205 -98.93499963339133 7.167364599431018 0 0 0
5377 1 0.663124916812773 -98.93500015844268 5.923214597264696 0 0 0
5385 1 2.8155414655584936 -98.93499963336318 4.679064599352129 0 0 0
5387 1 2.0993445636381893 -96.90271570604008 5.923214600837054 0 0 0
5338 1 4.967958013290611 -98.93499925152472 5.923214601368849 0 0 0
5342 1 6.404177662974691 -96.9027149977038 5.923214603989498 0 0 0
5386 1 4.251761105380056 -96.90271525968384 4.6790646033673 0 0 0
5389 1 4.251761105408795 -96.90271525967589 7.167364603322852 0 0 0
5286 1 9.272791160781239 -98.93499907590304 5.923214602056616 0 0 0
5337 1 7.120374574107348 -98.9349990566816 4.679064603277397 0 0 0
5340 1 7.120374574173032 -98.93499905666748 7.167364603212535 0 0 0
5341 1 8.556594250363354 -96.90271495562482 7.167364603867717 0 0 0
5358 1 8.556594250375095 -96.90271495556432 4.679064603758227 0 0 0
5285 1 11.425207782174544 -98.93499930453123 7.1673646014457 0 0 0
5298 1 11.4252077822973 -98.93499930457433 4.679064601310438 0 0 0
5299 1 12.861427545065956 -96.90271552301536 4.679064603906334 0 0 0
5300 1 10.709010875189389 -96.90271513792065 5.923214606227661 0 0 0
5302 1 12.86142754506532 -96.90271552293893 7.167364603783105 0 0 0
5241 1 15.730041148177168 -98.93500026055132 4.679064596241274 0 0 0
5242 1 13.57762444540227 -98.93499971668315 5.923214597199181 0 0 0
5244 1 15.730041148157687 -98.93500026051898 7.16736459612508 0 0 0
5246 1 15.013844258506193 -96.9027160620691 5.923214603672158 0 0 0
5201 1 17.88245788875828 -98.93500087076 5.92321459326675 0 0 0
5212 1 19.318677788923818 -96.9027173346694 5.923214592128435 0 0 0
5245 1 17.16626100896831 -96.90271669184884 7.167364599825681 0 0 0
5262 1 17.16626100903026 -96.90271669183625 4.679064599714763 0 0 0
5681 1 1.383143957076248 -94.86951837336736 -5.274135397421149 0 0 0
5685 1 0.6669436233411767 -92.83631130077679 -4.029985394884069 0 0 0
5701 1 0.666943623250735 -92.83631130075499 -6.518285394845497 0 0 0
5702 1 2.819360114317335 -92.83631069463418 -5.274135391782401 0 0 0
5595 1 3.5355604757548362 -94.86951785449655 -4.029985394611535 0 0 0
5611 1 3.5355604756578187 -94.86951785445586 -6.518285394745808 0 0 0
5612 1 5.687977010153658 -94.86951751947893 -5.274135393927512 0 0 0
5614 1 4.971776616522206 -92.83631027538499 -4.0299853897538265 0 0 0
5615 1 4.971776616459284 -92.83631027547868 -6.518285389614086 0 0 0
5518 1 7.840393577665757 -94.86951741158073 -4.0299853915090535 0 0 0
5519 1 7.840393577622916 -94.8695174118413 -6.518285391396397 0 0 0
5523 1 9.276609730717619 -92.83631017289719 -4.029985388177156 0 0 0
5539 1 9.276609730797615 -92.83631017286227 -6.518285388253753 0 0 0
5613 1 7.124193149979547 -92.83631009309076 -5.274135388374368 0 0 0
5451 1 12.14522685039329 -94.86951790169674 -4.0299853911082675 0 0 0
5466 1 12.145226850351527 -94.86951790165331 -6.518285391109855 0 0 0
5517 1 9.99281018859317 -94.86951754529333 -5.274135389920816 0 0 0
5540 1 11.429026371727248 -92.8363105009563 -5.2741353905768245 0 0 0
5467 1 14.297643561971254 -94.86951844172796 -5.274135393293587 0 0 0
5468 1 15.733859832753826 -92.83631173491969 -5.274135396188813 0 0 0
5469 1 13.581443073432588 -92.83631104567631 -4.029985393580906 0 0 0
5470 1 13.581443073365596 -92.83631104575682 -6.518285393477134 0 0 0
5426 1 18.602477115399275 -94.86951978904452 -5.274135402868056 0 0 0
5427 1 16.45006032253543 -94.86951909747056 -4.029985396933051 0 0 0
5428 1 16.45006032243068 -94.8695190975533 -6.518285396922701 0 0 0
5431 1 17.886276638615865 -92.83631248596328 -4.029985398880119 0 0 0
5434 1 17.886276638663894 -92.8363124858898 -6.518285398854638 0 0 0
5704 1 2.1031597510028086 -90.80308829657157 -4.029985389302928 0 0 0
5705 1 2.103159750976372 -90.8030882965384 -6.518285389219103 0 0 0
5619 1 6.407992708796944 -90.80308750631937 -4.029985385819708 0 0 0
5635 1 6.407992708798437 -90.80308750617793 -6.518285385869059 0 0 0
5703 1 4.255576214955469 -90.80308777548608 -5.274135385599076 0 0 0
5636 1 8.560409252040014 -90.80308752025422 -5.274135386932348 0 0 0
5541 1 12.865242542721564 -90.80308836684279 -5.274135392000028 0 0 0
5542 1 10.712825860881994 -90.80308781917486 -4.029985388786472 0 0 0
5543 1 10.712825860892128 -90.80308781921259 -6.5182853887286605 0 0 0
5474 1 15.017659295380831 -90.8030890963342 -4.029985394500633 0 0 0
5484 1 15.017659295534663 -90.80308909604013 -6.5182853945034775 0 0 0
5435 1 19.322492964073366 -90.80309073189144 -4.0299853949832976 0 0 0
5436 1 19.322492963953106 -90.80309073192056 -6.518285394957372 0 0 0
5485 1 17.170076107898 -90.80308991948374 -5.274135394696763 0 0 0
5765 1 1.3869594298880554 -88.76986899562465 -5.274135386725272 0 0 0
5769 1 0.6707591352410684 -86.73664958524995 -4.029985384469372 0 0 0
5779 1 0.6707591352836337 -86.7366495852964 -6.518285384537178 0 0 0
5780 1 2.823175512140897 -86.73664879537749 -5.274135381767523 0 0 0
5709 1 3.5393758527391137 -88.76986835419312 -4.029985382709204 0 0 0
5723 1 3.5393758527161956 -88.76986835411321 -6.518285382756346 0 0 0
5724 1 5.691792298083626 -88.7698679774213 -5.274135382458634 0 0 0
5726 1 4.975591905471954 -86.736648287618 -4.029985381150755 0 0 0
5727 1 4.975591905462339 -86.73664828765774 -6.518285381160734 0 0 0
5638 1 7.84420879493543 -88.76986791291347 -4.029985383256907 0 0 0
5639 1 7.844208794847337 -88.76986791296736 -6.518285383286106 0 0 0
5643 1 9.28042486591453 -86.73664832658136 -4.029985383964098 0 0 0
5653 1 9.280424865936837 -86.73664832655955 -6.518285384012778 0 0 0
5725 1 7.128008347586033 -86.7366481241039 -5.274135381406778 0 0 0
5547 1 12.149042016488567 -88.76986872055667 -4.029985390088835 0 0 0
5561 1 12.149042016528119 -88.76986872046209 -6.5182853900968185 0 0 0
5637 1 9.996625364099252 -88.76986816984065 -5.274135385256056 0 0 0
5654 1 11.432841480537691 -86.73664887389562 -5.274135386619422 0 0 0
5562 1 14.301458754656615 -88.76986949606597 -5.274135390486406 0 0 0
5563 1 15.737675010319908 -86.73665070352426 -5.274135384334529 0 0 0
5564 1 13.585258197306276 -86.73664970001461 -4.029985386452176 0 0 0
5565 1 13.585258197336895 -86.73664970000561 -6.518285386463692 0 0 0
5486 1 18.60629244455455 -88.76987132727706 -5.274135388515108 0 0 0
5487 1 16.453875570930578 -88.76987040342708 -4.029985389704132 0 0 0
5488 1 16.45387557089516 -88.76987040349562 -6.518285389745296 0 0 0
5491 1 17.89009189988032 -86.73665175756207 -4.029985381453269 0 0 0
5494 1 17.890091899913024 -86.73665175751735 -6.518285381453776 0 0 0
5782 1 2.106975196519934 -84.70342932257546 -4.029985383542259 0 0 0
5783 1 2.106975196501722 -84.70342932261127 -6.518285383549569 0 0 0
5801 1 1.3907749109503607 -82.67020985007642 -5.274135383706302 0 0 0
5731 1 6.411807909147859 -84.70342836558231 -4.029985381044056 0 0 0
5737 1 6.411807909241198 -84.70342836555803 -6.518285380967272 0 0 0
5781 1 4.25939153011092 -84.70342865465962 -5.274135383078133 0 0 0
5787 1 3.5431911766478494 -82.67020898417272 -4.029985380869788 0 0 0
5789 1 3.5431911766520745 -82.67020898420253 -6.518285380802316 0 0 0
5790 1 5.695607481438474 -82.67020853603144 -5.2741353752777504 0 0 0
5738 1 8.564224368353113 -84.70342849256969 -5.274135380039881 0 0 0
5740 1 7.848023871026542 -82.67020856311615 -4.029985369754587 0 0 0
5741 1 7.84802387098031 -82.67020856313641 -6.518285369705407 0 0 0
5655 1 12.869057621093937 -84.70342990303236 -5.274135377350338 0 0 0
5656 1 10.71664093545191 -84.70342902747414 -4.029985379036024 0 0 0
5657 1 10.71664093543473 -84.70342902755745 -6.518285379105954 0 0 0
5661 1 12.152857022691459 -82.67020998831288 -4.02998536280966 0 0 0
5663 1 12.152857022651652 -82.67020998826118 -6.518285362795232 0 0 0
5739 1 10.000440377188138 -82.67020906724156 -5.274135366187844 0 0 0
5569 1 15.021474425342664 -84.70343101518769 -4.029985374020458 0 0 0
5575 1 15.021474425432144 -84.70343101520393 -6.518285374002216 0 0 0
5664 1 14.30527380859513 -82.67021121631932 -5.274135360780013 0 0 0
5495 1 19.326308303313326 -84.70343337463571 -4.0299853700790536 0 0 0
5496 1 19.326308303280733 -84.70343337463301 -6.518285369994545 0 0 0
5576 1 17.173891329415294 -84.70343221929106 -5.274135373259599 0 0 0
5577 1 18.6101077300757 -82.67021395343386 -5.274135362221457 0 0 0
5578 1 16.457690721899596 -82.67021259309638 -4.029985362264675 0 0 0
5579 1 16.457690721990787 -82.67021259313766 -6.518285362306262 0 0 0
5669 1 1.3831439570445656 -94.86951837337298 -0.2975353974918015 0 0 0
5682 1 1.3831439570552433 -94.86951837335049 -2.785835397549229 0 0 0
5683 1 2.8193601143266833 -92.83631069463422 -2.785835391752443 0 0 0
5684 1 0.6669436232829122 -92.8363113007734 -1.5416853948832285 0 0 0
5686 1 2.81936011428327 -92.83631069457185 -0.2975353918146681 0 0 0
5593 1 5.687977010061564 -94.86951751949536 -2.7858353937991756 0 0 0
5594 1 3.5355604756836376 -94.86951785450114 -1.5416853947238278 0 0 0
5596 1 5.687977010219921 -94.86951751954058 -0.29753539387204003 0 0 0
5599 1 4.971776616537124 -92.83631027547949 -1.5416853896692202 0 0 0
5505 1 7.840393577662878 -94.86951741169298 -1.5416853914382407 0 0 0
5522 1 9.276609730798453 -92.83631017283261 -1.5416853883829709 0 0 0
5597 1 7.124193149960076 -92.8363100930501 -0.29753538841553584 0 0 0
5616 1 7.124193149960556 -92.83631009300625 -2.785835388546999 0 0 0
5450 1 12.14522685037968 -94.86951790167207 -1.5416853911365853 0 0 0
5503 1 9.992810188603194 -94.86951754532343 -0.29753538984705635 0 0 0
5520 1 9.992810188603672 -94.86951754526885 -2.785835390033999 0 0 0
5521 1 11.429026371704524 -92.83631050099358 -2.785835390475159 0 0 0
5524 1 11.429026371704436 -92.83631050094483 -0.2975353905859866 0 0 0
5449 1 14.297643561886174 -94.86951844181665 -2.785835393179162 0 0 0
5452 1 14.297643561941925 -94.86951844172752 -0.297535393302572 0 0 0
5453 1 15.733859832771575 -92.83631173491655 -0.2975353962156305 0 0 0
5455 1 13.581443073342463 -92.83631104577809 -1.5416853935111923 0 0 0
5471 1 15.733859832784896 -92.83631173490633 -2.7858353963069034 0 0 0
5418 1 18.60247711557941 -94.86951978902674 -0.29753540290532526 0 0 0
5420 1 16.450060322440883 -94.8695190975817 -1.5416853969071926 0 0 0
5429 1 18.6024771154392 -94.86951978907244 -2.785835403030998 0 0 0
5430 1 17.88627663867959 -92.83631248588611 -1.5416853987980894 0 0 0
5689 1 2.103159750957982 -90.80308829653542 -1.5416853891967617 0 0 0
5618 1 6.407992708853631 -90.80308750618237 -1.5416853858331314 0 0 0
5687 1 4.255576214952948 -90.80308777541639 -0.29753538561865955 0 0 0
5706 1 4.255576215058254 -90.80308777546811 -2.7858353856698224 0 0 0
5617 1 8.560409251954507 -90.80308752024277 -2.7858353869084107 0 0 0
5620 1 8.560409251999502 -90.80308752015424 -0.2975353869854486 0 0 0
5525 1 12.865242542679672 -90.803088366852 -0.29753539191863787 0 0 0
5527 1 10.712825860781003 -90.80308781926743 -1.5416853886923236 0 0 0
5544 1 12.86524254271537 -90.80308836673612 -2.7858353921013665 0 0 0
5473 1 15.01765929551589 -90.80308909618786 -1.5416853945517308 0 0 0
5433 1 19.322492963953433 -90.8030907319669 -1.5416853948938574 0 0 0
5472 1 17.170076107859096 -90.80308991949934 -2.7858353945445615 0 0 0
5475 1 17.170076107946898 -90.8030899194797 -0.2975353947003241 0 0 0
5752 1 1.3869594298587935 -88.76986899562188 -0.2975353867456615 0 0 0
5766 1 1.386959429852688 -88.7698689956119 -2.7858353867727526 0 0 0
5767 1 2.8231755122021203 -86.73664879540787 -2.785835381736369 0 0 0
5768 1 0.6707591352013221 -86.7366495851941 -1.5416853844632339 0 0 0
5770 1 2.823175512167823 -86.73664879534564 -0.29753538169271304 0 0 0
5707 1 5.691792298017372 -88.76986797747296 -2.7858353823862134 0 0 0
5708 1 3.539375852799146 -88.76986835416582 -1.5416853827103296 0 0 0
5710 1 5.691792298108939 -88.76986797742929 -0.2975353824557445 0 0 0
5713 1 4.975591905464426 -86.73664828773997 -1.5416853810619902 0 0 0
5623 1 7.844208794843526 -88.76986791294678 -1.541685383284278 0 0 0
5642 1 9.280424865930897 -86.73664832651264 -1.541685383963613 0 0 0
5711 1 7.128008347629311 -86.73664812418217 -0.2975353814516401 0 0 0
5728 1 7.128008347668845 -86.73664812407091 -2.7858353814838064 0 0 0
5546 1 12.149042016553324 -88.76986872047155 -1.5416853900781384 0 0 0
5621 1 9.996625364041941 -88.76986816982624 -0.2975353851634878 0 0 0
5640 1 9.99662536406384 -88.76986816973267 -2.7858353852390145 0 0 0
5641 1 11.43284148053814 -86.73664887390787 -2.785835386520901 0 0 0
5644 1 11.432841480544903 -86.73664887392654 -0.2975353866711365 0 0 0
5545 1 14.301458754573142 -88.76986949603892 -2.7858353904267914 0 0 0
5548 1 14.301458754654698 -88.76986949614715 -0.29753539043043115 0 0 0
5549 1 15.737675010402945 -86.7366507035576 -0.297535384445975 0 0 0
5551 1 13.585258197284414 -86.73664970004964 -1.5416853864283027 0 0 0
5566 1 15.737675010381391 -86.73665070352531 -2.7858353844675454 0 0 0
5476 1 18.60629244451792 -88.76987132720807 -0.29753538855091344 0 0 0
5478 1 16.45387557082533 -88.76987040355036 -1.5416853897341882 0 0 0
5489 1 18.606292444518285 -88.76987132719023 -2.785835388671476 0 0 0
5490 1 17.890091899925718 -86.73665175755063 -1.5416853814350169 0 0 0
5773 1 2.1069751965176 -84.70342932260687 -1.5416853835048479 0 0 0
5798 1 1.3907749109519145 -82.67020985006394 -0.29753538372299854 0 0 0
5802 1 1.3907749108757168 -82.6702098500624 -2.785835383779593 0 0 0
5730 1 6.411807909202391 -84.70342836553965 -1.5416853810774136 0 0 0
5771 1 4.25939153015778 -84.70342865461913 -0.2975353831730764 0 0 0
5784 1 4.259391530185278 -84.70342865463242 -2.785835383102397 0 0 0
5785 1 5.695607481468101 -82.67020853595182 -2.785835375229294 0 0 0
5786 1 3.543191176587511 -82.67020898421602 -1.5416853808356556 0 0 0
5788 1 5.6956074813968955 -82.6702085360238 -0.29753537531089624 0 0 0
5729 1 8.564224368452775 -84.70342849258026 -2.7858353800375752 0 0 0
5732 1 8.564224368340122 -84.70342849263645 -0.29753538016536174 0 0 0
5735 1 7.8480238710506605 -82.67020856313303 -1.541685369704264 0 0 0
5645 1 12.869057621099723 -84.70342990305276 -0.29753537741588726 0 0 0
5647 1 10.716640935451908 -84.70342902752445 -1.5416853790925436 0 0 0
5658 1 12.869057621092594 -84.70342990304064 -2.7858353773915927 0 0 0
5660 1 12.152857022721973 -82.67020998827293 -1.5416853627772742 0 0 0
5733 1 10.000440377210708 -82.67020906724923 -0.29753536625595334 0 0 0
5742 1 10.00044037715539 -82.67020906735127 -2.785835366165495 0 0 0
5568 1 15.021474425396216 -84.70343101516491 -1.5416853740032226 0 0 0
5659 1 14.305273808544847 -82.67021121626959 -2.7858353608599393 0 0 0
5662 1 14.305273808607575 -82.67021121626435 -0.29753536087138727 0 0 0
5493 1 19.32630830327614 -84.70343337459794 -1.5416853700414757 0 0 0
5567 1 17.173891329423125 -84.70343221933724 -2.7858353732560093 0 0 0
5570 1 17.173891329423537 -84.70343221927882 -0.2975353733546351 0 0 0
5571 1 18.610107730037804 -82.67021395344837 -0.29753536224489296 0 0 0
5573 1 16.4576907219391 -82.67021259306688 -1.541685362285205 0 0 0
5580 1 18.610107730021994 -82.67021395340957 -2.785835362218636 0 0 0
5670 1 1.383143957091215 -94.86951837335629 2.1907646025453955 0 0 0
5671 1 2.819360114295454 -92.83631069468547 2.190764608248924 0 0 0
5672 1 0.6669436233761311 -92.83631130077235 3.4349146050746957 0 0 0
5673 1 0.6669436232488799 -92.8363113007591 0.946614605183631 0 0 0
5583 1 5.687977010086979 -94.86951751951545 2.190764606118862 0 0 0
5584 1 3.5355604757673 -94.8695178544241 3.434914605341043 0 0 0
5585 1 3.535560475616615 -94.86951785448825 0.9466146053142206 0 0 0
5589 1 4.971776616457891 -92.83631027539353 3.434914610306984 0 0 0
5598 1 4.971776616507485 -92.83631027541962 0.946614610340027 0 0 0
5499 1 7.840393577623948 -94.86951741163391 3.4349146085490108 0 0 0
5504 1 7.840393577668626 -94.86951741175211 0.9466146085148002 0 0 0
5508 1 9.27660973078636 -92.83631017283096 3.434914611769372 0 0 0
5509 1 9.27660973074197 -92.83631017293774 0.9466146117899633 0 0 0
5600 1 7.124193150006808 -92.8363100930271 2.190764611540196 0 0 0
5440 1 12.145226850463489 -94.8695179015987 3.4349146087960793 0 0 0
5441 1 12.145226850290852 -94.86951790174592 0.9466146089440848 0 0 0
5506 1 9.992810188649166 -94.86951754525516 2.1907646099857194 0 0 0
5507 1 11.429026371695882 -92.83631050099471 2.1907646095325375 0 0 0
5439 1 14.297643561941127 -94.8695184417496 2.190764606807864 0 0 0
5445 1 13.581443073380276 -92.83631104576807 3.4349146064474514 0 0 0
5454 1 13.581443073416073 -92.83631104565457 0.9466146064561021 0 0 0
5456 1 15.733859832772776 -92.83631173486003 2.190764603675913 0 0 0
5415 1 16.450060322464967 -94.86951909755288 3.4349146031176265 0 0 0
5419 1 16.450060322505678 -94.86951909745913 0.9466146030179335 0 0 0
5421 1 18.602477115454324 -94.86951978904216 2.1907645970336977 0 0 0
5422 1 17.88627663870238 -92.8363124858719 3.434914601104364 0 0 0
5423 1 17.88627663861369 -92.83631248600828 0.9466146012230269 0 0 0
5677 1 2.10315975097043 -90.80308829660467 3.434914610768082 0 0 0
5688 1 2.1031597510004576 -90.80308829650258 0.9466146107480161 0 0 0
5602 1 6.4079927088577096 -90.80308750624437 3.434914614103158 0 0 0
5603 1 6.407992708773569 -90.80308750622558 0.9466146141739633 0 0 0
5690 1 4.255576215005391 -90.80308777543547 2.190764614340217 0 0 0
5601 1 8.560409252020994 -90.80308752029853 2.190764613171849 0 0 0
5513 1 10.712825860824148 -90.80308781925864 3.4349146112981583 0 0 0
5526 1 10.712825860945967 -90.80308781912744 0.9466146112224153 0 0 0
5528 1 12.865242542755942 -90.80308836679521 2.1907646079250966 0 0 0
5458 1 15.017659295439952 -90.80308909625636 3.4349146054243005 0 0 0
5459 1 15.017659295466785 -90.80308909614469 0.9466146055692165 0 0 0
5425 1 19.32249296401215 -90.8030907319764 3.4349146050605723 0 0 0
5432 1 19.32249296401301 -90.80309073185985 0.9466146049833306 0 0 0
5457 1 17.170076107856183 -90.8030899195276 2.1907646054080687 0 0 0
5753 1 1.386959429889754 -88.76986899559327 2.190764613211494 0 0 0
5754 1 2.8231755121176727 -86.73664879537766 2.1907646182699563 0 0 0
5755 1 0.6707591352331176 -86.7366495852342 3.43491461551556 0 0 0
5756 1 0.6707591352791628 -86.73664958531083 0.9466146155295452 0 0 0
5691 1 5.691792298076446 -88.76986797744499 2.19076461760991 0 0 0
5692 1 3.539375852733091 -88.76986835417323 3.4349146172537783 0 0 0
5693 1 3.539375852693346 -88.76986835414182 0.9466146172355195 0 0 0
5697 1 4.9755919054384465 -86.73664828767004 3.4349146188859825 0 0 0
5712 1 4.975591905494451 -86.73664828762914 0.9466146187918152 0 0 0
5607 1 7.844208794910607 -88.76986791298924 3.434914616761136 0 0 0
5622 1 7.844208794899619 -88.76986791290628 0.9466146166706673 0 0 0
5626 1 9.280424865930447 -86.73664832654295 3.4349146159849773 0 0 0
5627 1 9.280424865907893 -86.73664832661247 0.9466146160474254 0 0 0
5714 1 7.128008347603063 -86.73664812410873 2.19076461855186 0 0 0
5530 1 12.149042016532313 -88.76986872048198 3.4349146098933714 0 0 0
5531 1 12.149042016478962 -88.76986872052545 0.9466146098911442 0 0 0
5624 1 9.996625364126738 -88.76986816979735 2.190764614658404 0 0 0
5625 1 11.43284148052069 -86.73664887391989 2.1907646134477874 0 0 0
5529 1 14.301458754632653 -88.76986949613092 2.190764609632551 0 0 0
5535 1 13.58525819727278 -86.73664970008151 3.4349146136075066 0 0 0
5550 1 13.585258197377344 -86.73664969998335 0.9466146134821393 0 0 0
5552 1 15.737675010340435 -86.73665070353215 2.1907646156442513 0 0 0
5463 1 16.45387557087848 -88.76987040351288 3.434914610282301 0 0 0
5477 1 16.45387557095082 -88.76987040343825 0.9466146102598527 0 0 0
5479 1 18.606292444557567 -88.76987132725483 2.190764611374592 0 0 0
5480 1 17.890091899931264 -86.73665175751641 3.434914618472935 0 0 0
5481 1 17.89009189988613 -86.73665175755633 0.946614618588989 0 0 0
5760 1 2.106975196478433 -84.703429322587 3.434914616450272 0 0 0
5772 1 2.106975196519049 -84.70342932258748 0.9466146164877245 0 0 0
5799 1 1.3907749109525593 -82.67020985009128 2.1907646162919994 0 0 0
5716 1 6.411807909154414 -84.7034283655852 3.4349146189616118 0 0 0
5717 1 6.411807909213944 -84.70342836559081 0.9466146190277178 0 0 0
5774 1 4.259391530087201 -84.70342865466287 2.190764616908682 0 0 0
5775 1 5.695607481450865 -82.67020853604359 2.190764624751068 0 0 0
5776 1 3.543191176663468 -82.67020898418053 3.4349146191248083 0 0 0
5777 1 3.5431911766427624 -82.67020898420752 0.9466146192077872 0 0 0
5715 1 8.5642243683468 -84.70342849259025 2.190764619988661 0 0 0
5721 1 7.848023871059698 -82.67020856314562 3.4349146302181146 0 0 0
5734 1 7.848023870991027 -82.67020856313066 0.9466146302936863 0 0 0
5631 1 10.716640935413103 -84.70342902751712 3.4349146209336925 0 0 0
5646 1 10.716640935449876 -84.70342902754454 0.9466146209484975 0 0 0
5648 1 12.869057621078555 -84.7034299030467 2.1907646226422814 0 0 0
5650 1 12.152857022695352 -82.67020998833226 3.4349146371846446 0 0 0
5651 1 12.15285702266515 -82.67020998827498 0.946614637213927 0 0 0
5736 1 10.000440377201999 -82.67020906727663 2.1907646337911726 0 0 0
5554 1 15.021474425348691 -84.70343101517172 3.43491462598594 0 0 0
5555 1 15.021474425417955 -84.70343101523174 0.9466146259932651 0 0 0
5649 1 14.305273808590691 -82.67021121628423 2.190764639211434 0 0 0
5483 1 19.326308303310395 -84.70343337465401 3.4349146299159417 0 0 0
5492 1 19.326308303281305 -84.70343337460113 0.9466146300495417 0 0 0
5553 1 17.17389132941767 -84.70343221930968 2.1907646267698455 0 0 0
5559 1 16.45769072191996 -82.6702125930845 3.434914637752029 0 0 0
5572 1 16.457690721986104 -82.67021259313587 0.9466146376684509 0 0 0
5574 1 18.61010773007633 -82.67021395345706 2.190764637814719 0 0 0
5665 1 1.383143957016857 -94.86951837339096 4.679064602493045 0 0 0
5666 1 1.3831439570789057 -94.86951837333712 7.167364602492999 0 0 0
5667 1 2.819360114246899 -92.83631069461693 7.167364608254428 0 0 0
5668 1 0.6669436232706594 -92.83631130081251 5.9232146051717285 0 0 0
5674 1 2.819360114339142 -92.8363106945507 4.679064608217265 0 0 0
5581 1 5.687977010171117 -94.86951751957412 7.167364606214491 0 0 0
5582 1 3.5355604756423644 -94.86951785451085 5.923214605354321 0 0 0
5586 1 5.687977010084932 -94.86951751944326 4.679064606128863 0 0 0
5588 1 4.971776616560944 -92.83631027539703 5.923214610294118 0 0 0
5498 1 7.8403935777225175 -94.86951741162436 5.923214608478451 0 0 0
5502 1 9.276609730739152 -92.83631017290516 5.92321461166758 0 0 0
5587 1 7.124193149915671 -92.83631009307123 4.679064611550825 0 0 0
5590 1 7.1241931499937055 -92.83631009301708 7.167364611494649 0 0 0
5438 1 12.145226850309056 -94.86951790175964 5.92321460894393 0 0 0
5497 1 9.992810188579044 -94.86951754531934 4.679064610066608 0 0 0
5500 1 9.992810188627734 -94.86951754527381 7.167364610033207 0 0 0
5501 1 11.429026371670728 -92.83631050100068 7.167364609530769 0 0 0
5510 1 11.429026371749963 -92.83631050094274 4.6790646094155415 0 0 0
5437 1 14.297643561919251 -94.86951844178195 7.167364606837587 0 0 0
5442 1 14.297643561936367 -94.86951844174502 4.679064606727763 0 0 0
5443 1 15.733859832767793 -92.83631173494484 4.679064603812968 0 0 0
5444 1 13.581443073434356 -92.83631104569831 5.923214606484974 0 0 0
5446 1 15.733859832789912 -92.83631173484999 7.167364603669568 0 0 0
5413 1 18.602477115429398 -94.86951978908996 4.6790645970950235 0 0 0
5414 1 16.450060322528728 -94.86951909747947 5.923214603041065 0 0 0
5416 1 18.602477115610803 -94.86951978900318 7.167364596964149 0 0 0
5417 1 17.886276638606965 -92.83631248597399 5.923214601231038 0 0 0
5676 1 2.103159750963744 -90.803088296508 5.923214610720328 0 0 0
5592 1 6.40799270882713 -90.803087506258 5.923214614244337 0 0 0
5675 1 4.255576215036551 -90.80308777545865 4.679064614390022 0 0 0
5678 1 4.255576214990378 -90.80308777536888 7.167364614326196 0 0 0
5591 1 8.560409251954926 -90.80308752020849 7.16736461310119 0 0 0
5604 1 8.560409251999701 -90.80308752023811 4.679064613016476 0 0 0
5511 1 12.865242542672155 -90.8030883667901 4.67906460801617 0 0 0
5512 1 10.712825860847746 -90.80308781919133 5.923214611247717 0 0 0
5514 1 12.86524254273712 -90.8030883668245 7.167364607959226 0 0 0
5448 1 15.017659295450668 -90.8030890962804 5.923214605515312 0 0 0
5424 1 19.322492964029497 -90.80309073187217 5.923214605036499 0 0 0
5447 1 17.170076107907143 -90.80308991947656 7.167364605399979 0 0 0
5460 1 17.170076107904084 -90.80308991945836 4.6790646053291125 0 0 0
5746 1 1.3869594298370893 -88.7698689956549 4.679064613240159 0 0 0
5747 1 1.3869594298656323 -88.76986899559323 7.167364613243499 0 0 0
5748 1 2.8231755121388002 -86.73664879535721 7.167364618323148 0 0 0
5749 1 0.6707591351578079 -86.73664958521265 5.923214615542865 0 0 0
5757 1 2.8231755122227526 -86.73664879539925 4.679064618218166 0 0 0
5679 1 5.69179229808873 -88.76986797746765 7.167364617612082 0 0 0
5680 1 3.53937585273633 -88.7698683542035 5.923214617303019 0 0 0
5694 1 5.691792298012362 -88.76986797744583 4.679064617543795 0 0 0
5696 1 4.975591905483159 -86.73664828771187 5.923214618919759 0 0 0
5606 1 7.844208794886712 -88.76986791290773 5.9232146167128175 0 0 0
5610 1 9.280424865875702 -86.73664832657016 5.923214616057694 0 0 0
5695 1 7.128008347635959 -86.73664812410698 4.6790646185655085 0 0 0
5698 1 7.1280083476497085 -86.73664812418552 7.167364618499693 0 0 0
5516 1 12.149042016498155 -88.76986872052657 5.923214609947456 0 0 0
5605 1 9.996625364062975 -88.76986816979858 4.679064614836527 0 0 0
5608 1 9.99662536406203 -88.76986816977877 7.167364614766026 0 0 0
5609 1 11.432841480520882 -86.73664887393251 7.167364613385531 0 0 0
5628 1 11.432841480546653 -86.73664887389542 4.679064613412808 0 0 0
5515 1 14.301458754625015 -88.76986949617876 7.167364609662178 0 0 0
5532 1 14.301458754581386 -88.76986949600672 4.679064609480335 0 0 0
5533 1 15.737675010351587 -86.73665070356284 4.679064615585417 0 0 0
5534 1 13.585258197314579 -86.73664969998003 5.923214613501299 0 0 0
5536 1 15.737675010422887 -86.73665070354933 7.167364615452148 0 0 0
5461 1 18.606292444524072 -88.76987132719198 4.679064611405719 0 0 0
5462 1 16.45387557089093 -88.76987040348669 5.923214610261133 0 0 0
5464 1 18.606292444543005 -88.769871327153 7.167364611384885 0 0 0
5465 1 17.89009189990681 -86.73665175759741 5.923214618608953 0 0 0
5759 1 2.1069751964938503 -84.70342932258968 5.92321461650736 0 0 0
5794 1 1.390774910867021 -82.67020985003279 4.679064616248439 0 0 0
5795 1 1.3907749109300622 -82.6702098500837 7.167364616231357 0 0 0
5700 1 6.411807909172945 -84.70342836560025 5.92321461891489 0 0 0
5758 1 4.259391530177177 -84.70342865463367 4.679064616911342 0 0 0
5761 1 4.259391530130175 -84.70342865460773 7.167364616804668 0 0 0
5762 1 5.695607481423278 -82.67020853602072 7.167364624690658 0 0 0
5763 1 3.543191176598866 -82.67020898422501 5.923214619175967 0 0 0
5778 1 5.695607481510229 -82.67020853601514 4.679064624748814 0 0 0
5699 1 8.564224368352692 -84.70342849264252 7.16736461988243 0 0 0
5718 1 8.564224368418296 -84.70342849256647 4.679064619902623 0 0 0
5720 1 7.848023871089522 -82.67020856313577 5.923214630302953 0 0 0
5629 1 12.869057621081861 -84.70342990305744 4.6790646226153605 0 0 0
5630 1 10.716640935444094 -84.70342902749941 5.9232146209081575 0 0 0
5632 1 12.86905762106093 -84.70342990302869 7.167364622512095 0 0 0
5634 1 12.152857022720845 -82.67020998825873 5.923214637233237 0 0 0
5719 1 10.00044037718535 -82.67020906730117 4.679064633837184 0 0 0
5722 1 10.000440377208047 -82.6702090672668 7.1673646337566765 0 0 0
5538 1 15.021474425379605 -84.7034310151874 5.923214625952214 0 0 0
5633 1 14.305273808600482 -82.67021121624846 7.16736463910395 0 0 0
5652 1 14.305273808555006 -82.670211216304 4.679064639118532 0 0 0
5482 1 19.326308303319486 -84.7034333745859 5.923214629975152 0 0 0
5537 1 17.1738913294542 -84.70343221932096 7.167364626660742 0 0 0
5556 1 17.173891329407805 -84.70343221934753 4.6790646267089295 0 0 0
5557 1 18.610107730036557 -82.6702139534159 4.679064637769733 0 0 0
5558 1 16.45769072194747 -82.67021259310592 5.923214637692989 0 0 0
5560 1 18.610107730035903 -82.67021395348551 7.167364637787797 0 0 0
6039 1 0.6745746572669429 -80.6369904101679 -4.02998537936836 0 0 0
6055 1 0.6745746572863122 -80.63699041022875 -6.518285379262126 0 0 0
6056 1 2.826990851331137 -80.63698930110046 -5.27413537138331 0 0 0
5962 1 4.97940707266525 -80.6369886501214 -4.029985363491697 0 0 0
5963 1 4.979407072675773 -80.63698865019875 -6.518285363596262 0 0 0
5877 1 9.284239809962155 -80.63698899243695 -4.029985350190665 0 0 0
5893 1 9.284239810002042 -80.63698899249529 -6.518285350150818 0 0 0
5961 1 7.131823376580847 -80.6369885412827 -5.274135355793539 0 0 0
5894 1 11.43665640097928 -80.63698994967922 -5.274135347070843 0 0 0
5834 1 15.741490073945158 -80.6369928692827 -5.274135347594683 0 0 0
5835 1 13.589073159785485 -80.63699129751015 -4.029985346024624 0 0 0
5836 1 13.589073159831376 -80.6369912975147 -6.5182853461271755 0 0 0
5809 1 17.89390711358669 -80.6369944685382 -4.029985351429781 0 0 0
5812 1 17.893907113546774 -80.63699446855296 -6.518285351369482 0 0 0
6058 1 2.110790557031263 -78.60376961662772 -4.029985362250201 0 0 0
6059 1 2.1107905571201013 -78.60376961663289 -6.51828536222983 0 0 0
6131 1 1.394590303438503 -76.5705499470196 -5.274135356343246 0 0 0
5967 1 6.415622891678839 -78.60376842197168 -4.029985340340437 0 0 0
5983 1 6.415622891674025 -78.60376842197344 -6.5182853402808 0 0 0
6057 1 4.263206683951357 -78.60376871271012 -5.274135351119655 0 0 0
6063 1 3.5470063241762224 -76.57054873152408 -4.029985339117455 0 0 0
6079 1 3.54700632418852 -76.5705487315566 -6.518285338971913 0 0 0
6080 1 5.699422418437265 -76.57054820310489 -5.274135319783757 0 0 0
5984 1 8.568039235668339 -78.60376878574144 -5.2741353314421895 0 0 0
5986 1 7.85183865566414 -76.57054843551538 -4.029985306753869 0 0 0
5987 1 7.851838655647331 -76.57054843553867 -6.518285306832428 0 0 0
5895 1 12.872872478663027 -78.60377123298437 -5.274135325107302 0 0 0
5896 1 10.720455758978323 -78.60376976230238 -4.029985325939597 0 0 0
5897 1 10.720455759026876 -78.60376976217927 -6.518285325991334 0 0 0
5901 1 12.156671757429766 -76.5705509948091 -4.029985299362055 0 0 0
5916 1 12.156671757332633 -76.57055099486773 -6.518285299209318 0 0 0
5985 1 10.004255092150588 -76.57054940338315 -5.274135299610854 0 0 0
5840 1 15.02528938785145 -78.60377301640166 -4.02998532986911 0 0 0
5850 1 15.025289387837647 -78.60377301646984 -6.518285329800044 0 0 0
5917 1 14.309088650664222 -76.57055300615924 -5.27413530618436 0 0 0
5813 1 19.33012363414779 -78.60377662529854 -4.029985347052294 0 0 0
5814 1 19.330123634253805 -78.6037766252582 -6.51828534706831 0 0 0
5851 1 17.177706455274585 -78.60377489147538 -5.274135337807066 0 0 0
5852 1 18.61392298554063 -76.57055728223402 -5.274135332762203 0 0 0
5853 1 16.461505744648708 -76.57055519388284 -4.029985318115732 0 0 0
5854 1 16.461505744715584 -76.57055519371353 -6.518285318185044 0 0 0
6135 1 0.6783901061950881 -74.53733031551633 -4.029985346777226 0 0 0
6149 1 0.6783901061651795 -74.53733031552875 -6.5182853467306385 0 0 0
6150 1 2.8308060063444582 -74.537328716673 -5.274135319589018 0 0 0
6152 1 2.1146057410869137 -72.50410868869228 -4.029985291103089 0 0 0
6153 1 2.1146057410218337 -72.50410868867823 -6.518285291244577 0 0 0
6082 1 4.9832219671189915 -74.53732788310349 -4.029985293530339 0 0 0
6083 1 4.983221967178922 -74.53732788299868 -6.5182852935114015 0 0 0
6087 1 6.419437503222809 -72.5041072489394 -4.029985232330467 0 0 0
6097 1 6.419437503203984 -72.50410724900067 -6.518285232185244 0 0 0
6151 1 4.267021548228622 -72.504107466687 -5.2741352568329924 0 0 0
5991 1 9.28805440398026 -74.53732885051473 -4.0299852660878335 0 0 0
6005 1 9.288054403879276 -74.5373288505553 -6.518285265953621 0 0 0
6081 1 7.135638075983514 -74.53732792622702 -5.274135273779228 0 0 0
6098 1 8.571853694742543 -72.50410807607845 -5.274135220556018 0 0 0
6006 1 11.440470995314337 -74.53733054734694 -5.27413526682597 0 0 0
6007 1 12.876687003416482 -72.50411236571283 -5.274135237033401 0 0 0
6008 1 10.724270187642874 -72.5041098551259 -4.029985223604562 0 0 0
6009 1 10.724270187756716 -72.50410985493305 -6.51828522370831 0 0 0
5918 1 15.745304970052826 -74.53733534115405 -5.274135291896064 0 0 0
5919 1 13.59288785739108 -74.53733280476507 -4.029985275110734 0 0 0
5920 1 13.592887857466096 -74.53733280460771 -6.518285275125016 0 0 0
5924 1 15.029104123286887 -72.50411529061832 -4.029985262280821 0 0 0
5932 1 15.02910412324225 -72.50411529076948 -6.518285262071697 0 0 0
5857 1 17.89772227462579 -74.53733783995504 -4.0299853137616095 0 0 0
5860 1 17.89772227455663 -74.53733784006273 -6.518285313616309 0 0 0
5861 1 19.333939011933985 -72.50412091181367 -4.029985331537004 0 0 0
5862 1 19.33393901202436 -72.50412091160538 -6.5182853317421605 0 0 0
5933 1 17.18152148963822 -72.50411826434569 -5.274135293880664 0 0 0
6185 1 1.3984055409736564 -70.47088866961597 -5.274135257839828 0 0 0
6157 1 3.550821172495764 -70.47088696137499 -4.029985209348869 0 0 0
6163 1 3.5508211723926535 -70.4708869614318 -6.518285209325385 0 0 0
6164 1 5.70323694471049 -70.47088639187335 -5.274135176261597 0 0 0
6100 1 7.855652969084607 -70.47088705178552 -4.029985159450727 0 0 0
6101 1 7.855652969185949 -70.47088705165815 -6.5182851595230265 0 0 0
6013 1 12.160486076791562 -70.47089164170852 -4.029985187399098 0 0 0
6019 1 12.160486076631463 -70.47089164190152 -6.518285187271934 0 0 0
6099 1 10.00806933330702 -70.47088887737083 -5.274135164472675 0 0 0
6020 1 14.312903190939382 -70.4708949953177 -5.274135227338799 0 0 0
5934 1 18.617738253783248 -70.47090174330438 -5.274135334362109 0 0 0
5935 1 16.465320616765755 -70.47089850934249 -4.029985276927652 0 0 0
5936 1 16.46532061691579 -70.47089850920824 -6.518285277020418 0 0 0
6037 1 2.8269908513175475 -80.63698930101252 -2.785835371378641 0 0 0
6038 1 0.6745746572857967 -80.63699041017999 -1.5416853792381353 0 0 0
6040 1 2.8269908512740876 -80.63698930102977 -0.2975353714757649 0 0 0
5949 1 4.979407072610307 -80.63698865014139 -1.5416853636021057 0 0 0
5876 1 9.284239809938255 -80.63698899249141 -1.5416853500292877 0 0 0
5947 1 7.13182337661657 -80.6369885412475 -0.29753535573167267 0 0 0
5964 1 7.131823376514416 -80.6369885412706 -2.7858353557276407 0 0 0
5875 1 11.436656400975995 -80.63698994966883 -2.7858353471106327 0 0 0
5878 1 11.436656401001141 -80.6369899497053 -0.297535347048521 0 0 0
5821 1 15.741490073940337 -80.6369928692529 -0.29753534757278366 0 0 0
5823 1 13.58907315977446 -80.63699129745413 -1.5416853460857634 0 0 0
5837 1 15.741490073839229 -80.63699286929375 -2.785835347520619 0 0 0
5808 1 17.89390711357954 -80.63699446857846 -1.5416853513497286 0 0 0
6043 1 2.1107905570796626 -78.60376961664821 -1.5416853621939173 0 0 0
6118 1 1.3945903034589335 -76.57054994698818 -0.29753535633067374 0 0 0
6132 1 1.3945903033702292 -76.57054994701633 -2.7858353563232865 0 0 0
5966 1 6.415622891676017 -78.60376842201799 -1.5416853402853616 0 0 0
6041 1 4.2632066839567075 -78.60376871274343 -0.29753535120244917 0 0 0
6060 1 4.263206683907622 -78.6037687127482 -2.78583535120997 0 0 0
6061 1 5.699422418456195 -76.57054820305999 -2.7858353199683723 0 0 0
6062 1 3.547006324142135 -76.57054873154806 -1.5416853389952532 0 0 0
6064 1 5.699422418507834 -76.57054820311667 -0.2975353199091157 0 0 0
5965 1 8.568039235648666 -78.60376878574222 -2.7858353315043796 0 0 0
5968 1 8.568039235581917 -78.60376878573382 -0.297535331491929 0 0 0
5971 1 7.851838655698604 -76.57054843543649 -1.54168530680489 0 0 0
5879 1 12.872872478716983 -78.60377123308129 -0.2975353251604488 0 0 0
5881 1 10.720455759029566 -78.60376976224865 -1.5416853259190286 0 0 0
5898 1 12.872872478670137 -78.60377123307309 -2.785835325098921 0 0 0
5900 1 12.15667175735001 -76.5705509949144 -1.5416852992314487 0 0 0
5969 1 10.004255092112677 -76.57054940338817 -0.2975352997058555 0 0 0
5988 1 10.004255092037225 -76.57054940350211 -2.7858352995139803 0 0 0
5839 1 15.025289387798214 -78.60377301651336 -1.5416853298270916 0 0 0
5899 1 14.309088650726217 -76.57055300613332 -2.785835306321503 0 0 0
5902 1 14.309088650631347 -76.5705530061592 -0.29753530630063574 0 0 0
5811 1 19.330123634202327 -78.6037766252489 -1.5416853470669722 0 0 0
5838 1 17.177706455300132 -78.60377489145664 -2.7858353379419287 0 0 0
5841 1 17.17770645521838 -78.60377489148978 -0.29753533789477427 0 0 0
5842 1 18.6139229854998 -76.57055728222574 -0.29753533282447636 0 0 0
5844 1 16.46150574468529 -76.57055519373213 -1.5416853182049002 0 0 0
5855 1 18.61392298543329 -76.57055728225548 -2.7858353326490497 0 0 0
6133 1 2.830806006395064 -74.53732871665513 -2.785835319695668 0 0 0
6134 1 0.6783901061508376 -74.53733031555704 -1.5416853467850287 0 0 0
6136 1 2.8308060063574376 -74.53732871669976 -0.29753531965766256 0 0 0
6139 1 2.114605741066244 -72.50410868866459 -1.5416852912915797 0 0 0
6067 1 4.983221967196776 -74.5373278830177 -1.5416852935805696 0 0 0
6086 1 6.419437503144255 -72.50410724902466 -1.5416852322161032 0 0 0
6137 1 4.267021548254088 -72.50410746666158 -0.2975352568516127 0 0 0
6154 1 4.267021548247448 -72.50410746675223 -2.785835256750253 0 0 0
5990 1 9.28805440388011 -74.53732885054512 -1.5416852659582319 0 0 0
6065 1 7.135638075989065 -74.5373279262286 -0.2975352739413141 0 0 0
6084 1 7.135638075921891 -74.53732792638588 -2.7858352737463905 0 0 0
6085 1 8.571853694845693 -72.50410807606124 -2.7858352206193393 0 0 0
6088 1 8.571853694715868 -72.50410807610643 -0.29753522054068804 0 0 0
5989 1 11.440470995312953 -74.53733054724779 -2.785835267012436 0 0 0
5992 1 11.440470995263887 -74.53733054730105 -0.2975352668288949 0 0 0
5993 1 12.876687003391702 -72.50411236569447 -0.29753523694311307 0 0 0
5995 1 10.724270187707113 -72.50410985494511 -1.5416852236920453 0 0 0
6010 1 12.876687003345323 -72.50411236577152 -2.7858352368022703 0 0 0
5903 1 15.745304970072693 -74.53733534118682 -0.2975352919583085 0 0 0
5905 1 13.592887857413164 -74.53733280464853 -1.541685275164179 0 0 0
5921 1 15.745304970004128 -74.53733534125908 -2.785835291767019 0 0 0
5923 1 15.02910412324706 -72.50411529072692 -1.5416852620901322 0 0 0
5856 1 17.897722274533717 -74.5373378400866 -1.5416853136113287 0 0 0
5859 1 19.333939012010813 -72.50412091163264 -1.5416853317251398 0 0 0
5922 1 17.181521489793557 -72.5041182642142 -2.7858352941274487 0 0 0
5925 1 17.18152148960162 -72.50411826436039 -0.2975352939152765 0 0 0
6178 1 1.3984055409982397 -70.47088866963743 -0.2975352579190351 0 0 0
6186 1 1.3984055410023684 -70.4708886696873 -2.7858352579049535 0 0 0
6155 1 5.703236944697978 -70.47088639175428 -2.7858351763968017 0 0 0
6156 1 3.5508211724594916 -70.47088696138326 -1.541685209327535 0 0 0
6158 1 5.703236944646787 -70.4708863918575 -0.2975351763032375 0 0 0
6091 1 7.855652969152027 -70.47088705161899 -1.5416851594895997 0 0 0
6012 1 12.160486076664103 -70.47089164184935 -1.54168518726524 0 0 0
6089 1 10.00806933332953 -70.4708888772955 -0.2975351644969012 0 0 0
6102 1 10.008069333283045 -70.47088887746446 -2.7858351644062833 0 0 0
6011 1 14.312903191041475 -70.47089499514787 -2.785835227559301 0 0 0
6014 1 14.312903190992344 -70.47089499538065 -0.2975352273933159 0 0 0
5926 1 18.617738253766582 -70.4709017432479 -0.2975353344566259 0 0 0
5928 1 16.46532061686845 -70.47089850915249 -1.5416852770314167 0 0 0
5937 1 18.617738253699045 -70.47090174342512 -2.78583533421076 0 0 0
6027 1 2.8269908513649273 -80.63698930107209 2.190764628630261 0 0 0
6028 1 0.6745746572623912 -80.63699041015346 3.4349146206944905 0 0 0
6029 1 0.6745746572698134 -80.63699041024648 0.9466146206833511 0 0 0
5943 1 4.979407072689085 -80.63698865016705 3.434914636445548 0 0 0
5948 1 4.979407072633965 -80.63698865022174 0.9466146364679465 0 0 0
5866 1 9.284239809978837 -80.63698899245537 3.4349146498863896 0 0 0
5867 1 9.284239810012268 -80.63698899247579 0.9466146497799219 0 0 0
5950 1 7.131823376536444 -80.63698854132544 2.1907646442245166 0 0 0
5865 1 11.436656401043212 -80.63698994965752 2.1907646529121716 0 0 0
5817 1 13.589073159825851 -80.63699129744617 3.4349146538725726 0 0 0
5822 1 13.589073159814376 -80.63699129754491 0.946614653954834 0 0 0
5824 1 15.741490073932074 -80.63699286929057 2.1907646524659525 0 0 0
5804 1 17.893907113564147 -80.63699446860251 3.434914648630921 0 0 0
5805 1 17.893907113587968 -80.6369944684954 0.9466146485843506 0 0 0
6033 1 2.1107905570269487 -78.60376961660398 3.4349146377421977 0 0 0
6042 1 2.110790557113863 -78.6037696166275 0.9466146378222569 0 0 0
6119 1 1.3945903034093896 -76.5705499470195 2.1907646436608426 0 0 0
5952 1 6.415622891642868 -78.6037684220229 3.4349146597144826 0 0 0
5953 1 6.41562289168016 -78.60376842194772 0.9466146596755008 0 0 0
6044 1 4.263206683938303 -78.60376871278854 2.1907646488875665 0 0 0
6045 1 5.6994224185072815 -76.57054820304516 2.19076468014726 0 0 0
6046 1 3.5470063242000336 -76.57054873154955 3.4349146609646932 0 0 0
6047 1 3.5470063242122123 -76.57054873153923 0.9466146609458834 0 0 0
5951 1 8.568039235685482 -78.60376878567556 2.19076466851357 0 0 0
5957 1 7.851838655687522 -76.5705484354463 3.43491469313216 0 0 0
5970 1 7.851838655603665 -76.57054843559536 0.9466146932776267 0 0 0
5871 1 10.720455759030047 -78.60376976225285 3.434914674024707 0 0 0
5880 1 10.72045575897331 -78.60376976223516 0.946614674064605 0 0 0
5882 1 12.872872478623796 -78.60377123303819 2.1907646749757976 0 0 0
5884 1 12.15667175735965 -76.57055099487316 3.4349147007409324 0 0 0
5885 1 12.156671757373372 -76.57055099477104 0.9466147006783386 0 0 0
5972 1 10.004255092070602 -76.5705494034421 2.190764700523284 0 0 0
5826 1 15.025289387783703 -78.60377301646886 3.4349146701877453 0 0 0
5827 1 15.0252893878911 -78.60377301639197 0.9466146701774519 0 0 0
5883 1 14.30908865070692 -76.57055300608842 2.190764693658544 0 0 0
5807 1 19.33012363420278 -78.60377662522482 3.434914652909596 0 0 0
5810 1 19.330123634172246 -78.60377662533713 0.9466146529704673 0 0 0
5825 1 17.17770645528707 -78.60377489140218 2.1907646620961088 0 0 0
5831 1 16.461505744713737 -76.5705551937635 3.4349146817888707 0 0 0
5843 1 16.46150574464515 -76.57055519382202 0.9466146819362746 0 0 0
5845 1 18.613922985510545 -76.57055728229358 2.190764667394096 0 0 0
6120 1 2.8308060064075278 -74.53732871660642 2.190764680385526 0 0 0
6121 1 0.6783901062216962 -74.53733031550519 3.434914653226088 0 0 0
6122 1 0.6783901061673194 -74.53733031550861 0.9466146532121879 0 0 0
6126 1 2.1146057410986483 -72.5041086886793 3.434914708795642 0 0 0
6138 1 2.1146057410134484 -72.50410868869523 0.9466147088269703 0 0 0
6051 1 4.983221967200728 -74.53732788303543 3.4349147064032226 0 0 0
6066 1 4.983221967147277 -74.53732788306033 0.9466147065077537 0 0 0
6070 1 6.419437503154695 -72.50410724901963 3.4349147677837446 0 0 0
6071 1 6.419437503271798 -72.50410724893815 0.9466147676802791 0 0 0
6140 1 4.267021548172857 -72.50410746674119 2.1907647431898987 0 0 0
5974 1 9.288054403894572 -74.53732885059192 3.4349147340099435 0 0 0
5975 1 9.288054403939254 -74.53732885046139 0.946614734009224 0 0 0
6068 1 7.13563807595348 -74.53732792631035 2.190764726293458 0 0 0
6069 1 8.571853694806148 -72.50410807600349 2.190764779344655 0 0 0
5973 1 11.44047099534059 -74.53733054723806 2.1907647330522564 0 0 0
5979 1 10.724270187714811 -72.50410985501132 3.434914776233307 0 0 0
5994 1 10.724270187678927 -72.50410985504973 0.9466147764628349 0 0 0
5996 1 12.87668700333686 -72.50411236582609 2.1907647631094016 0 0 0
5889 1 13.592887857492592 -74.53733280462691 3.434914724781938 0 0 0
5904 1 13.59288785737432 -74.53733280471693 0.9466147249130633 0 0 0
5906 1 15.74530496999633 -74.53733534126093 2.190764708255067 0 0 0
5908 1 15.029104123179625 -72.50411529075078 3.4349147378853138 0 0 0
5909 1 15.029104123367445 -72.50411529061817 0.9466147377363595 0 0 0
5846 1 17.897722274520156 -74.53733784010184 3.434914686328207 0 0 0
5847 1 17.897722274668187 -74.53733783993928 0.9466146862859335 0 0 0
5849 1 19.333939012023215 -72.50412091167847 3.4349146683315848 0 0 0
5858 1 19.333939011905947 -72.50412091178397 0.9466146683877056 0 0 0
5907 1 17.18152148972051 -72.5041182642568 2.190764705897633 0 0 0
6179 1 1.3984055409666274 -70.47088866965593 2.190764742180005 0 0 0
6141 1 5.703236944727388 -70.47088639180035 2.190764823636176 0 0 0
6142 1 3.550821172454501 -70.47088696144446 3.434914790655798 0 0 0
6143 1 3.550821172427567 -70.47088696136171 0.9466147905993273 0 0 0
6075 1 7.855652969102363 -70.47088705167018 3.4349148404848218 0 0 0
6090 1 7.855652969097984 -70.47088705177427 0.9466148405684348 0 0 0
5998 1 12.16048607666766 -70.47089164188377 3.434914812684335 0 0 0
5999 1 12.160486076742673 -70.47089164177052 0.9466148126157304 0 0 0
6092 1 10.008069333214955 -70.47088887750151 2.1907648356966867 0 0 0
5997 1 14.31290319102132 -70.47089499520631 2.190764772429916 0 0 0
5913 1 16.465320616885343 -70.47089850916248 3.434914722932537 0 0 0
5927 1 16.465320616796593 -70.47089850936965 0.9466147230571694 0 0 0
5929 1 18.617738253707376 -70.47090174343408 2.190764665865141 0 0 0
6025 1 2.8269908513326545 -80.63698930100523 7.1673646285277215 0 0 0
6026 1 0.6745746572760649 -80.63699041017252 5.923214620670523 0 0 0
6030 1 2.826990851289042 -80.63698930105257 4.679064628619792 0 0 0
5942 1 4.979407072636429 -80.63698865016705 5.923214636468113 0 0 0
5864 1 9.284239809974444 -80.63698899246097 5.9232146499017855 0 0 0
5941 1 7.131823376588611 -80.6369885412737 4.679064644257167 0 0 0
5944 1 7.131823376606889 -80.63698854128374 7.167364644283959 0 0 0
5863 1 11.436656401045184 -80.63698994966059 7.16736465289658 0 0 0
5868 1 11.436656400974947 -80.63698994969775 4.679064652913821 0 0 0
5815 1 15.741490073895543 -80.63699286927998 4.6790646524232296 0 0 0
5816 1 13.589073159760424 -80.6369912974866 5.923214653986364 0 0 0
5818 1 15.741490073905675 -80.63699286929074 7.167364652467785 0 0 0
5803 1 17.893907113625485 -80.63699446855144 5.923214648595296 0 0 0
6032 1 2.1107905570866197 -78.60376961662487 5.923214637811986 0 0 0
6112 1 1.394590303430001 -76.57054994696212 4.679064643683352 0 0 0
6113 1 1.3945903034289628 -76.57054994701228 7.167364643666513 0 0 0
5946 1 6.415622891707218 -78.60376842200588 5.923214659699866 0 0 0
6031 1 4.263206683931577 -78.60376871272486 4.679064648771482 0 0 0
6034 1 4.263206683945059 -78.60376871279911 7.167364648819584 0 0 0
6035 1 5.699422418563147 -76.57054820306908 7.167364680074104 0 0 0
6036 1 3.547006324199185 -76.57054873152575 5.923214660940763 0 0 0
6048 1 5.699422418397462 -76.57054820310688 4.6790646801120985 0 0 0
5945 1 8.568039235616036 -78.60376878566474 7.167364668471758 0 0 0
5954 1 8.568039235625195 -78.60376878580738 4.679064668555265 0 0 0
5956 1 7.851838655630797 -76.57054843549707 5.923214693311321 0 0 0
5869 1 12.872872478679417 -78.60377123297242 4.679064674811103 0 0 0
5870 1 10.720455758984398 -78.60376976231292 5.923214674127849 0 0 0
5872 1 12.872872478687952 -78.60377123314592 7.167364674929474 0 0 0
5874 1 12.156671757431198 -76.57055099481273 5.923214700643653 0 0 0
5955 1 10.004255092092874 -76.5705494034527 4.679064700404359 0 0 0
5958 1 10.004255092046325 -76.57054940345034 7.1673647003714684 0 0 0
5820 1 15.025289387854805 -78.60377301643179 5.923214670142153 0 0 0
5873 1 14.309088650706315 -76.57055300608957 7.167364693595263 0 0 0
5886 1 14.309088650652201 -76.57055300617321 4.679064693802716 0 0 0
5806 1 19.33012363415102 -78.60377662535521 5.92321465298934 0 0 0
5819 1 17.17770645525048 -78.60377489144257 7.167364662037817 0 0 0
5828 1 17.17770645528284 -78.60377489151034 4.6790646621759135 0 0 0
5829 1 18.61392298548818 -76.57055728219906 4.6790646672274985 0 0 0
5830 1 16.461505744593723 -76.57055519381696 5.923214681902953 0 0 0
5832 1 18.613922985445672 -76.57055728228738 7.167364667320494 0 0 0
6114 1 2.8308060063968203 -74.5373287166363 7.167364680325114 0 0 0
6115 1 0.6783901061667471 -74.53733031556929 5.923214653193143 0 0 0
6123 1 2.8308060064187575 -74.53732871671332 4.679064680348743 0 0 0
6125 1 2.114605741026242 -72.50410868870384 5.923214708821362 0 0 0
6050 1 4.983221967202046 -74.53732788305894 5.923214706508804 0 0 0
6054 1 6.419437503192981 -72.50410724893443 5.923214767691884 0 0 0
6124 1 4.267021548306294 -72.50410746670266 4.679064743179648 0 0 0
6127 1 4.2670215481877465 -72.50410746672117 7.167364743237424 0 0 0
5960 1 9.288054403934497 -74.5373288504347 5.9232147339698455 0 0 0
6049 1 7.135638075958167 -74.53732792629262 4.67906472615748 0 0 0
6052 1 7.135638075957147 -74.53732792633387 7.167364726204057 0 0 0
6053 1 8.571853694773695 -72.50410807603294 7.167364779342819 0 0 0
6072 1 8.571853694710729 -72.50410807611193 4.679064779526016 0 0 0
5959 1 11.440470995305663 -74.53733054720722 7.167364733017698 0 0 0
5976 1 11.440470995259421 -74.53733054736448 4.679064733115249 0 0 0
5977 1 12.876687003425696 -72.50411236572207 4.679064763037521 0 0 0
5978 1 10.724270187602599 -72.5041098550702 5.9232147764701475 0 0 0
5980 1 12.876687003289247 -72.50411236580503 7.167364763262091 0 0 0
5887 1 15.74530497005433 -74.53733534113162 4.6790647080535095 0 0 0
5888 1 13.592887857343428 -74.5373328047744 5.92321472495094 0 0 0
5890 1 15.745304970020669 -74.53733534126492 7.167364708230559 0 0 0
5892 1 15.029104123335944 -72.50411529055248 5.923214737758487 0 0 0
5833 1 17.89772227462999 -74.53733783992739 5.923214686309585 0 0 0
5848 1 19.333939011904178 -72.5041209118017 5.923214668430812 0 0 0
5891 1 17.181521489680797 -72.50411826423861 7.16736470591517 0 0 0
5910 1 17.18152148969883 -72.50411826430667 4.679064706086041 0 0 0
6172 1 1.39840554097507 -70.47088866963944 4.679064742084813 0 0 0
6173 1 1.3984055409760605 -70.4708886696998 7.167364742135284 0 0 0
6128 1 5.703236944679213 -70.47088639174758 7.167364823601121 0 0 0
6129 1 3.5508211724839773 -70.47088696137187 5.923214790658888 0 0 0
6144 1 5.703236944652864 -70.47088639181804 4.679064823686152 0 0 0
6074 1 7.8556529690491494 -70.47088705169202 5.923214840583825 0 0 0
5982 1 12.160486076739668 -70.47089164173585 5.923214812619194 0 0 0
6073 1 10.008069333276627 -70.4708888773726 4.679064835407978 0 0 0
6076 1 10.008069333261089 -70.47088887742566 7.167364835641996 0 0 0
5981 1 14.312903191047079 -70.47089499524746 7.167364772451437 0 0 0
6000 1 14.312903190961046 -70.47089499526419 4.679064772654669 0 0 0
5911 1 18.617738253763335 -70.47090174329898 4.679064665590484 0 0 0
5912 1 16.465320616739728 -70.47089850930189 5.923214723120252 0 0 0
5914 1 18.617738253704868 -70.47090174336368 7.1673646657484715 0 0 0
6189 1 0.6822054276141057 -68.43766869370096 -4.0299852161629035 0 0 0
6191 1 0.6822054276497209 -68.43766869368802 -6.518285216062436 0 0 0
6192 1 2.834620859721766 -68.43766638160861 -5.274135145705553 0 0 0
6412 1 2.1184206294061694 -66.40444575403882 -4.02998505647578 0 0 0
6413 1 2.118420629497025 -66.40444575399874 -6.518285056459883 0 0 0
6166 1 4.987036414656536 -68.4376653498561 -4.0299850980538325 0 0 0
6167 1 4.987036414724915 -68.4376653498038 -6.518285098120748 0 0 0
6321 1 6.423251503912682 -66.40444415442207 -4.029984966556968 0 0 0
6337 1 6.423251503848954 -66.40444415456447 -6.518284966492575 0 0 0
6411 1 4.270835932621717 -66.4044441243321 -5.274134991631405 0 0 0
6105 1 9.291868433717577 -68.43766756830416 -4.029985086139124 0 0 0
6107 1 9.29186843363395 -68.4376675684405 -6.518285086008576 0 0 0
6165 1 7.139452235227571 -68.43766575325785 -5.274135076905566 0 0 0
6338 1 8.575667492641811 -66.40444588271458 -5.274134984890625 0 0 0
6108 1 11.444285074497252 -68.43767057573363 -5.274135123703064 0 0 0
6255 1 12.88050102375514 -66.40445340746281 -5.274135138036131 0 0 0
6256 1 10.72808399129522 -66.4044491037614 -4.02998504379697 0 0 0
6257 1 10.728083991374742 -66.40444910369582 -6.518285043908167 0 0 0
6021 1 15.749119639459146 -68.43767852235851 -5.274135261893423 0 0 0
6022 1 13.596702162285213 -68.43767439153946 -4.029985185280095 0 0 0
6023 1 13.596702162411832 -68.4376743913838 -6.518285185452626 0 0 0
6212 1 15.032918541904348 -66.40445823588071 -4.029985251519687 0 0 0
6222 1 15.03291854177719 -66.40445823603733 -6.51828525139107 0 0 0
5939 1 17.901537398965754 -68.43768244305006 -4.029985346696121 0 0 0
5940 1 17.901537398835625 -68.43768244325054 -6.518285346502035 0 0 0
6197 1 19.3377545234089 -66.40446698649625 -4.029985485205813 0 0 0
6198 1 19.337754523549304 -66.40446698637666 -6.518285485312088 0 0 0
6223 1 17.185336428214924 -66.40446295794877 -5.274135373476641 0 0 0
6493 1 1.4022205052160108 -64.3712251140293 -5.274134928614855 0 0 0
6497 1 0.686020511592099 -62.33800451250168 -4.029984742177819 0 0 0
6513 1 0.6860205115171472 -62.33800451243403 -6.518284742178444 0 0 0
6514 1 2.838435190515196 -62.33800116831069 -5.274134636214892 0 0 0
6417 1 3.554635516417712 -64.37122272386787 -4.029984843595017 0 0 0
6433 1 3.5546355163705616 -64.37122272396526 -6.518284843523444 0 0 0
6434 1 5.707050790078452 -64.37122223483462 -5.274134816781717 0 0 0
6436 1 4.990850110987661 -62.33799997818283 -4.029984614002876 0 0 0
6437 1 4.990850110965274 -62.33799997804163 -6.518284614041558 0 0 0
6340 1 7.85946651346529 -64.3712237665608 -4.0299848522742066 0 0 0
6341 1 7.8594665135676705 -64.37122376647307 -6.518284852401913 0 0 0
6345 1 9.295681563507028 -62.33800464011878 -4.029984823519254 0 0 0
6361 1 9.295681563457096 -62.338004640231624 -6.518284823474771 0 0 0
6435 1 7.143265507538822 -62.33800116884361 -5.274134678937613 0 0 0
6261 1 12.16429976297225 -64.3712319621484 -4.029985085548387 0 0 0
6276 1 12.164299762784694 -64.37123196226342 -6.518285085286117 0 0 0
6339 1 10.011882821707632 -64.371227151714 -5.274134945971453 0 0 0
6362 1 11.448098365764777 -62.33800995750815 -5.274135025839425 0 0 0
6277 1 14.31671730183916 -64.37123756695327 -5.274135249835222 0 0 0
6278 1 15.752934035657313 -62.338023145183406 -5.274135503870143 0 0 0
6279 1 13.60051589872517 -62.33801641574571 -4.029985261551149 0 0 0
6280 1 13.600515898744408 -62.338016415717846 -6.518285261674522 0 0 0
6224 1 18.621553623406385 -64.37124820658644 -5.274135581090935 0 0 0
6225 1 16.469135315734814 -64.37124322038797 -4.029985422825849 0 0 0
6226 1 16.469135315866623 -64.3712432202702 -6.518285422974646 0 0 0
6229 1 17.90535257290914 -62.338029267529016 -4.0299857226392115 0 0 0
6232 1 17.905352572822736 -62.338029267575614 -6.518285722515903 0 0 0
6516 1 2.1222349925555277 -60.304779495407196 -4.029984346447654 0 0 0
6517 1 2.1222349926427313 -60.30477949529034 -6.5182843464794775 0 0 0
6563 1 1.4060349605348317 -58.27155776154703 -5.274133937357068 0 0 0
6441 1 6.427064493279191 -60.30477803904812 -4.029984448414535 0 0 0
6455 1 6.427064493259636 -60.30477803910849 -6.518284448407028 0 0 0
6515 1 4.274649496450317 -60.3047773794045 -5.274134337352312 0 0 0
6521 1 3.558448980045445 -58.27155444380871 -4.029983950334003 0 0 0
6531 1 3.5584489800438694 -58.271554443831015 -6.518283950379257 0 0 0
6532 1 5.710863487895228 -58.271554332802395 -5.274134132239441 0 0 0
6456 1 8.579480220677674 -60.30478147770221 -5.274134664209771 0 0 0
6458 1 7.863278797313183 -58.271557568332426 -4.029984455942579 0 0 0
6459 1 7.863278797291257 -58.27155756840427 -6.518284455916 0 0 0
6363 1 12.884314308216126 -60.304794665682586 -5.274135293628343 0 0 0
6364 1 10.731896821914399 -60.30478727904835 -4.0299849577888995 0 0 0
6365 1 10.731896822011366 -60.304787278993956 -6.518284957910201 0 0 0
6369 1 12.168112502274091 -58.27157217137485 -4.029985361191505 0 0 0
6379 1 12.168112502321721 -58.271572171444674 -6.51828536113836 0 0 0
6457 1 10.01569511778265 -58.27156379424415 -5.274134881421469 0 0 0
6284 1 15.036732558346625 -60.304802624371945 -4.029985632425056 0 0 0
6294 1 15.036732558293167 -60.304802624415544 -6.518285632285864 0 0 0
6380 1 14.320530843843747 -58.27158152979941 -5.274135833995099 0 0 0
6233 1 19.341570373195914 -60.30481613229992 -4.029986159859613 0 0 0
6234 1 19.3415703733565 -60.30481613223866 -6.518286159959115 0 0 0
6295 1 17.18915134242421 -60.30481009363279 -5.27413593346073 0 0 0
6296 1 18.625369306396557 -58.271598162169894 -5.274136547671979 0 0 0
6297 1 16.472949891616 -58.27159058316778 -4.029986246013616 0 0 0
6298 1 16.47294989169325 -58.27159058312487 -6.518286246028292 0 0 0
6567 1 0.6898351385774252 -56.23833605013788 -4.029983359335201 0 0 0
6573 1 0.6898351384682174 -56.23833605024546 -6.518283359269248 0 0 0
6574 1 2.842248598355261 -56.23833120319777 -5.2741334172619245 0 0 0
6534 1 4.994662518739007 -56.238330010643 -4.029983705493492 0 0 0
6535 1 4.994662518853435 -56.23833001061784 -6.518283705562603 0 0 0
6463 1 9.299493235619703 -56.23833935397286 -4.029984805787634 0 0 0
6469 1 9.299493235575513 -56.23833935400865 -6.518284805711038 0 0 0
6533 1 7.1470772985099975 -56.238332812931766 -5.274134189095923 0 0 0
6470 1 11.451910446085028 -56.2383487610897 -5.274135486294436 0 0 0
6381 1 15.756748168054242 -56.23837061033015 -5.274136706016099 0 0 0
6382 1 13.60432884790421 -56.23835969682042 -4.029986144373475 0 0 0
6383 1 13.604328847917085 -56.23835969686736 -6.518286144474106 0 0 0
6301 1 17.90916801328674 -56.23838004467159 -4.029987100926038 0 0 0
6304 1 17.909168013320674 -56.23838004463577 -6.518287100765386 0 0 0
6187 1 2.8346208597557494 -68.43766638153829 -2.785835145746944 0 0 0
6188 1 0.6822054276255709 -68.4376686937025 -1.5416852160621368 0 0 0
6190 1 2.8346208597231817 -68.43766638160083 -0.2975351457056074 0 0 0
6399 1 2.1184206294620638 -66.40444575406255 -1.541685056406216 0 0 0
6161 1 4.987036414682668 -68.43766534983408 -1.5416850980589067 0 0 0
6320 1 6.423251503818981 -66.40444415454711 -1.54168496644614 0 0 0
6397 1 4.270835932562924 -66.40444412435777 -0.29753499161475394 0 0 0
6414 1 4.270835932620552 -66.40444412443458 -2.7858349915032505 0 0 0
6104 1 9.291868433653983 -68.43766756838217 -1.5416850860044524 0 0 0
6159 1 7.139452235285322 -68.43766575332342 -0.2975350769134593 0 0 0
6168 1 7.139452235264601 -68.43766575335223 -2.785835076740111 0 0 0
6319 1 8.575667492738258 -66.4044458826386 -2.7858349850741417 0 0 0
6322 1 8.575667492691439 -66.4044458827276 -0.2975349849295651 0 0 0
6103 1 11.444285074549363 -68.43767057563703 -2.785835123928636 0 0 0
6106 1 11.444285074553648 -68.43767057569302 -0.2975351237530272 0 0 0
6241 1 12.88050102374463 -66.4044534075518 -0.29753513803606974 0 0 0
6243 1 10.728083991373069 -66.4044491036366 -1.5416850438676493 0 0 0
6258 1 12.880501023700127 -66.40445340760715 -2.7858351378225676 0 0 0
6015 1 15.749119639423276 -68.43767852232519 -0.2975352619483122 0 0 0
6017 1 13.596702162382345 -68.4376743913857 -1.5416851854741849 0 0 0
6024 1 15.749119639318947 -68.43767852252014 -2.78583526176303 0 0 0
6211 1 15.032918541725003 -66.40445823602339 -1.5416852513465742 0 0 0
5938 1 17.90153739882835 -68.43768244325287 -1.5416853465400533 0 0 0
6196 1 19.33775452352173 -66.40446698630264 -1.54168548526092 0 0 0
6210 1 17.185336428297518 -66.40446295779542 -2.7858353735984442 0 0 0
6213 1 17.185336428189068 -66.40446295795248 -0.29753537335147284 0 0 0
6481 1 1.40222050517292 -64.37122511400932 -0.29753492870020787 0 0 0
6494 1 1.4022205051800865 -64.37122511402168 -2.785834928558956 0 0 0
6495 1 2.838435190509243 -62.33800116832462 -2.7858346363069626 0 0 0
6496 1 0.6860205115151408 -62.33800451246593 -1.5416847422357307 0 0 0
6498 1 2.838435190537434 -62.33800116826898 -0.2975346362807208 0 0 0
6415 1 5.707050790105206 -64.37122223490084 -2.785834816905568 0 0 0
6416 1 3.5546355163275583 -64.3712227239458 -1.5416848434773807 0 0 0
6418 1 5.707050790092921 -64.37122223489823 -0.2975348167515745 0 0 0
6421 1 4.990850110986471 -62.33799997807269 -1.541684614009513 0 0 0
6325 1 7.859466513531728 -64.37122376646455 -1.5416848523658908 0 0 0
6344 1 9.295681563436025 -62.338004640288915 -1.5416848234039757 0 0 0
6419 1 7.143265507626046 -62.338001168816845 -0.2975346789343373 0 0 0
6438 1 7.143265507577213 -62.33800116885715 -2.7858346788600015 0 0 0
6260 1 12.1642997628149 -64.37123196224712 -1.5416850852382669 0 0 0
6323 1 10.011882821622038 -64.37122715177473 -0.2975349460211743 0 0 0
6342 1 10.011882821607268 -64.3712271518919 -2.785834945836683 0 0 0
6343 1 11.448098365850772 -62.3380099574494 -2.7858350259969566 0 0 0
6346 1 11.448098365795765 -62.33800995758769 -0.2975350258271577 0 0 0
6259 1 14.316717301957272 -64.3712375669241 -2.785835250010654 0 0 0
6262 1 14.316717301816096 -64.37123756703127 -0.2975352498875911 0 0 0
6263 1 15.752934035645396 -62.33802314517589 -0.2975355038580387 0 0 0
6265 1 13.600515898801003 -62.33801641569243 -1.5416852616631627 0 0 0
6281 1 15.752934035599187 -62.33802314527989 -2.7858355037180957 0 0 0
6214 1 18.621553623439915 -64.37124820656432 -0.29753558126332336 0 0 0
6216 1 16.469135315864243 -64.37124322032113 -1.5416854229707169 0 0 0
6227 1 18.621553623372105 -64.37124820667525 -2.7858355810003377 0 0 0
6228 1 17.905352572770436 -62.33802926760041 -1.5416857225670286 0 0 0
6501 1 2.1222349925987607 -60.30477949536476 -1.5416843464358116 0 0 0
6552 1 1.4060349605651954 -58.2715577615671 -0.2975339374271173 0 0 0
6564 1 1.4060349605526676 -58.271557761533785 -2.785833937407594 0 0 0
6440 1 6.4270644932431855 -60.304778039052195 -1.5416844483969587 0 0 0
6499 1 4.274649496513912 -60.30477737936387 -0.2975343373527994 0 0 0
6518 1 4.274649496498531 -60.3047773794267 -2.785834337261063 0 0 0
6519 1 5.710863487866008 -58.27155433275442 -2.7858341324049434 0 0 0
6520 1 3.5584489799886825 -58.27155444379952 -1.5416839503853104 0 0 0
6522 1 5.71086348783758 -58.27155433276121 -0.29753413237356635 0 0 0
6439 1 8.579480220836292 -60.30478147761218 -2.785834664200482 0 0 0
6442 1 8.579480220658485 -60.30478147769655 -0.2975346641623298 0 0 0
6445 1 7.863278797273866 -58.27155756833867 -1.541684455873519 0 0 0
6347 1 12.8843143081849 -60.30479466570885 -0.29753529356875347 0 0 0
6349 1 10.73189682196982 -60.30478727899994 -1.5416849578527585 0 0 0
6366 1 12.884314308187045 -60.30479466584176 -2.785835293485259 0 0 0
6368 1 12.168112502269405 -58.27157217139777 -1.5416853611330101 0 0 0
6443 1 10.015695117791582 -58.271563794233 -0.2975348814589194 0 0 0
6460 1 10.015695117788875 -58.27156379431652 -2.7858348814498513 0 0 0
6283 1 15.03673255831133 -60.30480262446861 -1.541685632328375 0 0 0
6367 1 14.320530843915371 -58.27158152976833 -2.785835834017611 0 0 0
6370 1 14.320530843810845 -58.271581529774664 -0.29753583400984884 0 0 0
6231 1 19.341570373230084 -60.30481613228984 -1.5416861599929288 0 0 0
6282 1 17.18915134256603 -60.30481009362665 -2.785835933567665 0 0 0
6285 1 17.18915134246158 -60.304810093749744 -0.29753593342872686 0 0 0
6286 1 18.625369306452175 -58.27159816216756 -0.29753654776016775 0 0 0
6288 1 16.472949891723378 -58.27159058314114 -1.5416862460047744 0 0 0
6299 1 18.625369306396685 -58.271598162292165 -2.7858365477345166 0 0 0
6565 1 2.8422485984391277 -56.238331203176244 -2.7858334172321992 0 0 0
6566 1 0.6898351385101327 -56.238336050234665 -1.541683359290539 0 0 0
6568 1 2.8422485983580557 -56.2383312032685 -0.29753341720452564 0 0 0
6525 1 4.994662518756034 -56.23833001054973 -1.5416837055324066 0 0 0
6462 1 9.299493235567745 -56.23833935398985 -1.5416848057094084 0 0 0
6523 1 7.1470772985425155 -56.23833281293552 -0.2975341890720843 0 0 0
6536 1 7.147077298435524 -56.238332812924654 -2.7858341890778164 0 0 0
6461 1 11.451910446196248 -56.23834876109351 -2.7858354863084474 0 0 0
6464 1 11.45191044611321 -56.238348761087806 -0.2975354862348038 0 0 0
6371 1 15.756748168116324 -56.23837061033445 -0.29753670598169435 0 0 0
6373 1 13.604328847892642 -56.23835969687223 -1.5416861444749832 0 0 0
6384 1 15.75674816806917 -56.23837061042083 -2.7858367060029323 0 0 0
6300 1 17.909168013350705 -56.23838004464812 -1.5416871007697432 0 0 0
6180 1 2.8346208597846254 -68.43766638156659 2.190764854227455 0 0 0
6181 1 0.682205427588216 -68.4376686936993 3.4349147838735434 0 0 0
6182 1 0.6822054276582077 -68.43766869365822 0.9466147838910343 0 0 0
6393 1 2.118420629412601 -66.40444575400541 3.434914943527381 0 0 0
6398 1 2.1184206294470815 -66.40444575403404 0.9466149435262043 0 0 0
6147 1 4.987036414708346 -68.43766534979625 3.434914901840421 0 0 0
6160 1 4.987036414675634 -68.43766534986823 0.9466149019473284 0 0 0
6310 1 6.423251503848678 -66.40444415451408 3.4349150334814933 0 0 0
6311 1 6.423251503923954 -66.4044441544804 0.9466150334453522 0 0 0
6400 1 4.27083593260304 -66.40444412439817 2.190765008436396 0 0 0
6094 1 9.291868433625735 -68.43766756843176 3.43491491399163 0 0 0
6095 1 9.291868433720406 -68.43766756832058 0.9466149138501231 0 0 0
6162 1 7.139452235145917 -68.43766575331746 2.1907649232089916 0 0 0
6309 1 8.575667492692409 -66.4044458826093 2.190765014966419 0 0 0
6093 1 11.444285074591814 -68.43767057567081 2.1907648761100327 0 0 0
6237 1 10.72808399137565 -66.40444910364943 3.434914956092312 0 0 0
6242 1 10.728083991294838 -66.40444910384 0.9466149561717897 0 0 0
6244 1 12.880501023668751 -66.40445340760213 2.190764862128668 0 0 0
6003 1 13.596702162394523 -68.43767439141607 3.4349148145656425 0 0 0
6016 1 13.59670216231387 -68.43767439155548 0.9466148147002647 0 0 0
6018 1 15.749119639360709 -68.43767852245327 2.190764738296574 0 0 0
6202 1 15.032918541773736 -66.4044582360279 3.434914748638316 0 0 0
6203 1 15.032918541861449 -66.40445823589714 0.9466147484608916 0 0 0
5930 1 17.901537398834957 -68.43768244318443 3.4349146534765187 0 0 0
5931 1 17.901537398949362 -68.43768244308752 0.9466146533083521 0 0 0
6194 1 19.337754523538827 -66.40446698632906 3.4349145146534252 0 0 0
6195 1 19.337754523433652 -66.40446698653226 0.9466145148396445 0 0 0
6201 1 17.185336428279978 -66.40446295779199 2.1907646263397518 0 0 0
6482 1 1.4022205051881804 -64.37122511399029 2.1907650714389253 0 0 0
6483 1 2.8384351905104945 -62.338001168291946 2.1907653637332882 0 0 0
6484 1 0.6860205115614675 -62.3380045124912 3.4349152577719364 0 0 0
6485 1 0.6860205115320213 -62.33800451241689 0.9466152578328095 0 0 0
6401 1 5.707050790126396 -64.37122223481099 2.1907651831312425 0 0 0
6402 1 3.5546355163514374 -64.37122272394038 3.434915156472123 0 0 0
6403 1 3.554635516388274 -64.37122272392898 0.9466151564280685 0 0 0
6407 1 4.990850111018224 -62.33799997813084 3.4349153860036874 0 0 0
6420 1 4.990850110918647 -62.33799997811494 0.9466153859714631 0 0 0
6315 1 7.859466513553638 -64.3712237664559 3.4349151476069353 0 0 0
6324 1 7.859466513485565 -64.37122376657278 0.9466151476617286 0 0 0
6328 1 9.295681563484736 -62.33800464020537 3.4349151765547425 0 0 0
6329 1 9.29568156352581 -62.338004640144554 0.9466151765166564 0 0 0
6422 1 7.1432655075209945 -62.33800116891859 2.1907653211619844 0 0 0
6246 1 12.164299762867046 -64.37123196230057 3.434914914612323 0 0 0
6247 1 12.164299762860383 -64.37123196212782 0.9466149145645841 0 0 0
6326 1 10.0118828216135 -64.37122715179896 2.190765054158921 0 0 0
6327 1 11.448098365809404 -62.338009957435034 2.190764974065319 0 0 0
6245 1 14.316717301926419 -64.37123756687775 2.1907647499852954 0 0 0
6251 1 13.600515898809217 -62.338016415664164 3.4349147383490837 0 0 0
6264 1 13.600515898667059 -62.338016415827724 0.9466147384061547 0 0 0
6266 1 15.752934035602031 -62.33802314530403 2.190764496277713 0 0 0
6207 1 16.469135315832983 -64.37124322023999 3.4349145770397036 0 0 0
6215 1 16.469135315766934 -64.37124322040569 0.9466145771650066 0 0 0
6217 1 18.62155362333154 -64.37124820666789 2.1907644190815643 0 0 0
6218 1 17.905352572850127 -62.33802926761196 3.4349142774739865 0 0 0
6219 1 17.90535257289167 -62.33802926746527 0.9466142773735728 0 0 0
6489 1 2.122234992594197 -60.304779495368784 3.434915653544587 0 0 0
6500 1 2.1222349926176567 -60.30477949533873 0.9466156535327449 0 0 0
6553 1 1.4060349605647438 -58.27155776155827 2.1907660626937826 0 0 0
6424 1 6.427064493243069 -60.30477803909969 3.4349155516210077 0 0 0
6425 1 6.427064493315439 -60.30477803903969 0.9466155514818203 0 0 0
6502 1 4.274649496447008 -60.30477737941356 2.190765662704008 0 0 0
6503 1 5.710863487876238 -58.27155433277281 2.1907658676800033 0 0 0
6504 1 3.558448980005327 -58.271554443865185 3.434916049634866 0 0 0
6505 1 3.5584489800597034 -58.27155444377319 0.94661604960652 0 0 0
6423 1 8.57948022073183 -60.30478147764423 2.1907653357335195 0 0 0
6429 1 7.8632787973397 -58.27155756827183 3.4349155440424424 0 0 0
6444 1 7.863278797253418 -58.27155756842887 0.9466155441375911 0 0 0
6333 1 10.731896821972063 -60.30478727896552 3.4349150420660397 0 0 0
6348 1 10.731896821954464 -60.304787279054715 0.946615042207315 0 0 0
6350 1 12.88431430813234 -60.304794665763836 2.1907647064550386 0 0 0
6352 1 12.168112502286064 -58.27157217141466 3.434914638840699 0 0 0
6353 1 12.16811250235512 -58.271572171401665 0.9466146387916037 0 0 0
6446 1 10.015695117788782 -58.27156379428335 2.1907651186363877 0 0 0
6268 1 15.036732558285276 -60.304802624440974 3.434914367709917 0 0 0
6269 1 15.03673255833091 -60.304802624341825 0.9466143675715126 0 0 0
6351 1 14.320530843888678 -58.27158152970582 2.1907641659214896 0 0 0
6221 1 19.341570373245624 -60.304816132238514 3.4349138399762356 0 0 0
6230 1 19.341570373302936 -60.30481613231539 0.9466138401752733 0 0 0
6267 1 17.189151342492867 -60.30481009352892 2.190764066457794 0 0 0
6273 1 16.472949891642624 -58.27159058311441 3.434913753885854 0 0 0
6287 1 16.47294989167764 -58.271590583161114 0.9466137540567701 0 0 0
6289 1 18.62536930636694 -58.27159816227561 2.190763452355233 0 0 0
6554 1 2.8422485983696686 -56.23833120319363 2.190766582704729 0 0 0
6555 1 0.6898351385344146 -56.238336050173906 3.4349166406942033 0 0 0
6556 1 0.6898351384877611 -56.238336050204126 0.9466166407126871 0 0 0
6509 1 4.994662518773028 -56.23833001064143 3.434916294473677 0 0 0
6524 1 4.994662518836081 -56.238330010640865 0.9466162945085561 0 0 0
6448 1 9.29949323559007 -56.23833935402236 3.4349151943337737 0 0 0
6449 1 9.299493235591935 -56.23833935400035 0.9466151942301423 0 0 0
6526 1 7.147077298459174 -56.2383328129266 2.190765810929128 0 0 0
6447 1 11.45191044614625 -56.23834876104885 2.1907645136920504 0 0 0
6357 1 13.604328847933008 -56.23835969679777 3.4349138554918093 0 0 0
6372 1 13.604328847903716 -56.238359696868606 0.9466138556103976 0 0 0
6374 1 15.756748168002035 -56.23837061039097 2.190763293956152 0 0 0
6290 1 17.909168013291097 -56.23838004469161 3.43491289919372 0 0 0
6291 1 17.909168013321786 -56.238380044642795 0.9466128991403537 0 0 0
6174 1 2.8346208597803444 -68.4376663815855 7.167364854245598 0 0 0
6175 1 0.6822054276189892 -68.43766869368854 5.923214783931991 0 0 0
6183 1 2.834620859696792 -68.43766638159381 4.679064854313645 0 0 0
6392 1 2.1184206294424306 -66.40444575409626 5.923214943600719 0 0 0
6146 1 4.987036414623798 -68.43766534990178 5.923214902056421 0 0 0
6308 1 6.423251503877288 -66.4044441544494 5.92321503351695 0 0 0
6391 1 4.270835932628408 -66.40444412439643 4.679065008434646 0 0 0
6394 1 4.270835932555605 -66.40444412439746 7.167365008462764 0 0 0
6078 1 9.291868433735747 -68.43766756826489 5.923214913840433 0 0 0
6145 1 7.139452235333612 -68.43766575325297 4.6790649231379176 0 0 0
6148 1 7.139452235221744 -68.43766575334791 7.167364923220599 0 0 0
6307 1 8.575667492727138 -66.40444588261123 7.167365014929099 0 0 0
6312 1 8.575667492682127 -66.40444588272949 4.679065015072328 0 0 0
6077 1 11.444285074612779 -68.43767057560395 7.167364876076985 0 0 0
6096 1 11.444285074443666 -68.43767057578293 4.67906487624817 0 0 0
6235 1 12.880501023735302 -66.40445340753575 4.679064862022789 0 0 0
6236 1 10.728083991260856 -66.40444910377968 5.923214956232619 0 0 0
6238 1 12.880501023668554 -66.40445340768818 7.167364862156753 0 0 0
6001 1 15.749119639429184 -68.43767852236853 4.679064738034309 0 0 0
6002 1 13.596702162257166 -68.43767439155494 5.923214814706764 0 0 0
6004 1 15.749119639326114 -68.43767852243599 7.1673647382722105 0 0 0
6200 1 15.0329185418334 -66.40445823586623 5.923214748551979 0 0 0
5915 1 17.901537398949625 -68.4376824430515 5.923214653281303 0 0 0
6193 1 19.33775452343698 -66.40446698644318 5.923214514851722 0 0 0
6199 1 17.185336428284895 -66.40446295780627 7.167364626435057 0 0 0
6204 1 17.185336428246334 -66.40446295787373 4.6790646266002485 0 0 0
6476 1 1.402220505173073 -64.37122511400904 4.679065071405481 0 0 0
6477 1 1.4022205051528394 -64.3712251139863 7.167365071345828 0 0 0
6478 1 2.838435190526488 -62.338001168256866 7.167365363670974 0 0 0
6479 1 0.6860205115212262 -62.33800451240625 5.923215257818055 0 0 0
6486 1 2.8384351905181835 -62.33800116832076 4.679065363751409 0 0 0
6395 1 5.707050790170903 -64.37122223485176 7.167365183132326 0 0 0
6396 1 3.5546355163608667 -64.37122272388106 5.923215156451572 0 0 0
6404 1 5.70705079005238 -64.37122223495571 4.679065183197785 0 0 0
6406 1 4.9908501109480845 -62.337999978145405 5.923215385985876 0 0 0
6314 1 7.8594665134770265 -64.37122376653568 5.923215147739528 0 0 0
6318 1 9.295681563524038 -62.33800464018587 5.923215176526376 0 0 0
6405 1 7.1432655075983975 -62.33800116878396 4.679065321032346 0 0 0
6408 1 7.14326550760794 -62.33800116887547 7.167365321127303 0 0 0
6240 1 12.164299762900274 -64.37123196215644 5.9232149146048645 0 0 0
6313 1 10.011882821687156 -64.37122715184267 4.679065054018604 0 0 0
6316 1 10.01188282154213 -64.37122715183988 7.167365054131781 0 0 0
6317 1 11.44809836585382 -62.3380099575131 7.167364974027309 0 0 0
6330 1 11.448098365841894 -62.338009957546205 4.679064974144924 0 0 0
6239 1 14.316717301909913 -64.37123756693173 7.167364749961616 0 0 0
6248 1 14.316717301860198 -64.37123756703262 4.679064750154981 0 0 0
6249 1 15.752934035673858 -62.338023145161365 4.679064496154854 0 0 0
6250 1 13.600515898743515 -62.33801641579409 5.923214738415852 0 0 0
6252 1 15.752934035590824 -62.33802314527976 7.167364496275232 0 0 0
6205 1 18.621553623492517 -64.37124820651805 4.679064418815918 0 0 0
6206 1 16.46913531578235 -64.37124322042843 5.923214577213731 0 0 0
6208 1 18.621553623374904 -64.371248206665 7.1673644189239765 0 0 0
6209 1 17.905352572853626 -62.338029267477445 5.923214277313325 0 0 0
6488 1 2.1222349925947572 -60.30477949541596 5.923215653576308 0 0 0
6546 1 1.4060349605512783 -58.271557761545345 4.679066062549613 0 0 0
6547 1 1.406034960610408 -58.27155776156758 7.1673660626200135 0 0 0
6410 1 6.427064493278434 -60.304778038985006 5.923215551557934 0 0 0
6487 1 4.274649496534424 -60.30477737942449 4.679065662671631 0 0 0
6490 1 4.274649496502798 -60.30477737938935 7.167365662724515 0 0 0
6491 1 5.710863487837197 -58.2715543327527 7.167365867582163 0 0 0
6492 1 3.5584489800296066 -58.271554443775216 5.923216049656828 0 0 0
6506 1 5.710863487847746 -58.27155433282855 4.6790658676607295 0 0 0
6409 1 8.579480220701084 -60.30478147765139 7.167365335733121 0 0 0
6426 1 8.57948022078326 -60.304781477637846 4.679065335872519 0 0 0
6428 1 7.863278797234547 -58.27155756837114 5.923215544120373 0 0 0
6331 1 12.884314308269953 -60.30479466577766 4.679064706405697 0 0 0
6332 1 10.731896821920643 -60.304787279063056 5.923215042243934 0 0 0
6334 1 12.884314308114995 -60.30479466578433 7.1673647065469845 0 0 0
6336 1 12.168112502323448 -58.27157217134874 5.923214638847768 0 0 0
6427 1 10.015695117864475 -58.27156379425013 4.679065118492093 0 0 0
6430 1 10.01569511778001 -58.2715637942946 7.167365118576547 0 0 0
6254 1 15.036732558381631 -60.30480262437693 5.923214367556461 0 0 0
6335 1 14.320530843843695 -58.27158152969243 7.167364165958269 0 0 0
6354 1 14.32053084386704 -58.271581529845115 4.679064166038697 0 0 0
6220 1 19.341570373188546 -60.30481613238017 5.923213840160326 0 0 0
6253 1 17.189151342560034 -60.304810093643226 7.167364066463657 0 0 0
6270 1 17.18915134247778 -60.3048100937164 4.679064066517155 0 0 0
6271 1 18.625369306438458 -58.27159816223384 4.679063452240227 0 0 0
6272 1 16.47294989167467 -58.271590583164276 5.923213754080437 0 0 0
6274 1 18.625369306385558 -58.271598162270976 7.167363452292198 0 0 0
6548 1 2.8422485983985926 -56.23833120328078 7.167366582748322 0 0 0
6549 1 0.6898351385320171 -56.23833605019588 5.923216640685192 0 0 0
6557 1 2.8422485984272776 -56.238331203184295 4.679066582822071 0 0 0
6508 1 4.994662518754806 -56.238330010609175 5.923216294518216 0 0 0
6432 1 9.299493235567349 -56.238339353981644 5.9232151941991 0 0 0
6507 1 7.147077298450773 -56.23833281291735 4.679065810906111 0 0 0
6510 1 7.147077298493992 -56.238332812952606 7.1673658109635925 0 0 0
6431 1 11.4519104461678 -56.23834876102815 7.167364513743252 0 0 0
6450 1 11.451910446178823 -56.238348761127405 4.679064513736112 0 0 0
6355 1 15.75674816812687 -56.23837061033536 4.679063293987688 0 0 0
6356 1 13.604328847903359 -56.23835969687677 5.923213855633279 0 0 0
6358 1 15.756748168046743 -56.238370610407166 7.167363294022355 0 0 0
6275 1 17.90916801333944 -56.23838004467812 5.923212899120605 0 0 0
6576 1 2.126048408138098 -54.20510771329126 -4.02998268609116 0 0 0
6577 1 2.12604840820287 -54.20510771330042 -6.518282686009952 0 0 0
6826 1 1.4098484779861795 -52.17188406864434 -5.274131686457999 0 0 0
6539 1 6.430875745730236 -54.20510710634609 -4.029983855313411 0 0 0
6541 1 6.4308757457477945 -54.20510710633769 -6.51828385529751 0 0 0
6575 1 4.278461627872396 -54.205105054149854 -5.274133137837513 0 0 0
6752 1 3.562260873312447 -52.171879463922046 -4.029982390775941 0 0 0
6768 1 3.5622608733010224 -52.17187946395893 -6.5182823907050365 0 0 0
6769 1 5.7146741716746785 -52.17188035117633 -5.274133450676933 0 0 0
6542 1 8.583291169752707 -54.20511378819282 -5.274134748128843 0 0 0
6687 1 7.867088922706975 -52.171886909324115 -4.029984736602824 0 0 0
6688 1 7.867088922681551 -52.17188690933163 -6.518284736688191 0 0 0
6471 1 12.888126518539572 -54.20513692465729 -5.274136623365818 0 0 0
6472 1 10.735708108456885 -54.20512422966005 -4.029985710675444 0 0 0
6473 1 10.735708108535503 -54.20512422970127 -6.518285710725482 0 0 0
6620 1 12.17192379877869 -52.17191296672734 -4.029987351414085 0 0 0
6635 1 12.171923798805798 -52.17191296672818 -6.518287351308212 0 0 0
6686 1 10.019505455628472 -52.17189833838989 -5.274136091762342 0 0 0
6387 1 15.04054611444734 -54.20515001270446 -4.029987381878429 0 0 0
6389 1 15.040546114528105 -54.20515001269531 -6.518287381766492 0 0 0
6636 1 14.324343662679336 -52.171928582412164 -5.27413836942998 0 0 0
6305 1 19.345386972525805 -54.20517046922683 -4.029988089393662 0 0 0
6306 1 19.345386972571514 -54.20517046934936 -6.5182880894806425 0 0 0
6390 1 17.192966440763634 -54.20516167657722 -5.274137890391981 0 0 0
6595 1 18.629185744872164 -52.17195412766198 -5.27413921686326 0 0 0
6596 1 16.476764523802025 -52.17194292321234 -4.029989015853528 0 0 0
6597 1 16.476764523728317 -52.17194292326276 -6.518289015878321 0 0 0
6830 1 0.6936488908149874 -50.138660412904805 -4.029980329428815 0 0 0
6846 1 0.6936488907816248 -50.138660412879226 -6.518280329502302 0 0 0
6847 1 2.846060330252141 -50.13865328347236 -5.274131413496186 0 0 0
6849 1 2.1298600949871327 -48.105426613169044 -4.0299801392633325 0 0 0
6850 1 2.1298600951123348 -48.105426613223706 -6.5182801393545144 0 0 0
6771 1 4.998472626617766 -50.1386524604046 -4.02998297066003 0 0 0
6772 1 4.998472626647854 -50.13865246043654 -6.5182829707214305 0 0 0
6776 1 6.434683935369442 -48.10542837563958 -4.029985047219651 0 0 0
6790 1 6.434683935420225 -48.10542837564055 -6.518285047105976 0 0 0
6848 1 4.282271179623773 -48.10542337895915 -5.274132416033853 0 0 0
6692 1 9.303302457451744 -50.13867079796067 -4.029986714172103 0 0 0
6708 1 9.303302457486282 -50.13867079789378 -6.5182867141882745 0 0 0
6770 1 7.150886502696287 -50.13865851013812 -5.274134811752673 0 0 0
6791 1 8.587099081322627 -48.10544127558058 -5.274137713038903 0 0 0
6709 1 11.455720621818049 -50.13868751788531 -5.274138448685663 0 0 0
6710 1 12.891937209729583 -48.105482102511424 -5.274141882749908 0 0 0
6711 1 10.739516915290542 -48.105460202071924 -4.02999008814062 0 0 0
6712 1 10.739516915273045 -48.10546020214157 -6.518290088205976 0 0 0
6637 1 15.760562175780061 -50.13872360712547 -5.274140615817185 0 0 0
6638 1 13.608140728620864 -50.13870605767135 -4.029989804353579 0 0 0
6639 1 13.60814072866185 -50.1387060577526 -6.5182898044327375 0 0 0
6643 1 15.044359296038177 -48.105503497327206 -4.029992882958707 0 0 0
6653 1 15.04435929623383 -48.105503497254695 -6.518292882854003 0 0 0
6600 1 17.91298419855455 -50.13873776861663 -4.029990788036655 0 0 0
6603 1 17.91298419866891 -50.138737768465944 -6.51829078797387 0 0 0
6604 1 19.349205113784706 -48.10553339371048 -4.029992132364016 0 0 0
6605 1 19.349205113661455 -48.10553339388158 -6.518292132475531 0 0 0
6654 1 17.196782245538262 -48.10552128719359 -5.274142968760357 0 0 0
6896 1 1.4136602861734735 -46.07219962277691 -5.2741284924424985 0 0 0
6854 1 3.566069926761812 -46.072193097382446 -4.029981813839442 0 0 0
6864 1 3.5660699267683222 -46.07219309746351 -6.518281813814043 0 0 0
6865 1 5.718481261906773 -46.07219628966888 -5.274135566560973 0 0 0
6793 1 7.870895307833091 -46.07220938892151 -4.029989288033992 0 0 0
6794 1 7.870895307744167 -46.0722093889458 -6.518289288054562 0 0 0
6716 1 12.175732979921433 -46.07225628801595 -4.029994885443469 0 0 0
6726 1 12.175732979992564 -46.072256287853456 -6.5182948853776725 0 0 0
6792 1 10.023312588164412 -46.07223055799952 -5.274142526760329 0 0 0
6727 1 14.328155751871876 -46.07228228209724 -5.274146083708844 0 0 0
6655 1 18.63300387327529 -46.07232024380482 -5.274144593972424 0 0 0
6656 1 16.48057978168456 -46.072304537424074 -4.0299959803574374 0 0 0
6657 1 16.480579781574285 -46.07230453755158 -6.518295980409302 0 0 0
6900 1 0.6974610548727332 -44.03897258672591 -4.02997639688946 0 0 0
6906 1 0.6974610548839183 -44.03897258667974 -6.518276396801021 0 0 0
6907 1 2.849868997018344 -44.038961682032685 -5.274131227706233 0 0 0
6909 1 2.1336685762721332 -42.00572931195399 -4.029980771761273 0 0 0
6910 1 2.1336685763643435 -42.00572931200697 -6.518280771939359 0 0 0
6867 1 5.002278555631829 -44.038962053640816 -4.029986560039368 0 0 0
6868 1 5.002278555505727 -44.038962053625404 -6.518286560203219 0 0 0
6872 1 6.438486535538612 -42.00573675416735 -4.029995513771901 0 0 0
6874 1 6.438486535611376 -42.00573675410175 -6.518295513635606 0 0 0
6908 1 4.286075930934513 -42.005725514426395 -5.274138327606275 0 0 0
6798 1 9.307107553039868 -44.03899802865077 -4.0299961336792816 0 0 0
6804 1 9.307107553059428 -44.038998028530166 -6.518296133498656 0 0 0
6866 1 7.154691121592167 -44.03897470621243 -5.274141740703051 0 0 0
6875 1 8.590901705787054 -42.00576193667515 -5.274151440070105 0 0 0
6805 1 11.459527893382715 -44.03902806360675 -5.274149204294577 0 0 0
6806 1 12.895745958782143 -42.00583475781652 -5.2741568914375705 0 0 0
6807 1 10.74332176404688 -42.00579673060969 -4.030005389246216 0 0 0
6808 1 10.743321763997429 -42.005796730733216 -6.518305389434047 0 0 0
6728 1 15.764376664393 -44.03908731666245 -5.274150121069515 0 0 0
6729 1 13.611951377420104 -44.03905955277653 -4.030000585972036 0 0 0
6730 1 13.611951377329655 -44.03905955280474 -6.518300586126303 0 0 0
6734 1 15.048172708536475 -42.005869341450264 -4.030005785737359 0 0 0
6736 1 15.048172708596951 -42.00586934129779 -6.518305785492309 0 0 0
6660 1 17.916802230768774 -44.03910753597739 -4.029997877599064 0 0 0
6663 1 17.91680223094216 -44.03910753578216 -6.518297877520217 0 0 0
6664 1 19.35302635494724 -42.00591002033301 -4.029996664825986 0 0 0
6665 1 19.353026354866657 -42.00591002048265 -6.518296665017175 0 0 0
6737 1 17.20060007101065 -42.00589526034409 -5.274152229317867 0 0 0
6571 1 2.126048408206162 -54.20510771325454 -1.541682686036343 0 0 0
6814 1 1.4098484779294385 -52.17188406870259 -0.29753168646702566 0 0 0
6827 1 1.4098484779145 -52.1718840685799 -2.7858316864246717 0 0 0
6538 1 6.430875745701393 -54.20510710632667 -1.5416838552785854 0 0 0
6569 1 4.278461627841673 -54.20510505414025 -0.29753313782985735 0 0 0
6578 1 4.278461627896769 -54.20510505419173 -2.785833137858461 0 0 0
6750 1 5.714674171744526 -52.17188035109453 -2.7858334507044433 0 0 0
6751 1 3.5622608733010512 -52.1718794639145 -1.5416823907177444 0 0 0
6753 1 5.714674171655612 -52.171880351192826 -0.29753345070685255 0 0 0
6537 1 8.583291169831341 -54.20511378822373 -2.785834748150873 0 0 0
6540 1 8.583291169778015 -54.20511378824899 -0.2975347481047107 0 0 0
6674 1 7.867088922720993 -52.17188690939636 -1.5416847366982251 0 0 0
6465 1 12.888126518534415 -54.205136924649764 -0.29753662335847203 0 0 0
6467 1 10.735708108466813 -54.20512422964766 -1.5416857107803936 0 0 0
6474 1 12.888126518556874 -54.20513692470089 -2.785836623338992 0 0 0
6619 1 12.17192379886714 -52.171912966729536 -1.5416873513882225 0 0 0
6672 1 10.019505455624012 -52.17189833840203 -0.2975360918228335 0 0 0
6689 1 10.01950545552919 -52.17189833839527 -2.7858360918123126 0 0 0
6386 1 15.040546114460824 -54.20515001262573 -1.5416873818401413 0 0 0
6618 1 14.324343662716227 -52.17192858232379 -2.785838369373984 0 0 0
6621 1 14.32434366262952 -52.17192858240981 -0.2975383695219966 0 0 0
6303 1 19.3453869725054 -54.2051704692785 -1.541688089525159 0 0 0
6385 1 17.192966440860353 -54.2051616765017 -2.7858378903342116 0 0 0
6388 1 17.19296644073846 -54.2051616765661 -0.2975378903705134 0 0 0
6587 1 18.629185744862394 -52.171954127559786 -0.2975392169551666 0 0 0
6589 1 16.476764523723265 -52.171942923279786 -1.5416890158351617 0 0 0
6598 1 18.629185744872107 -52.17195412767444 -2.785839216948659 0 0 0
6828 1 2.846060330355329 -50.13865328342186 -2.7858314134211652 0 0 0
6829 1 0.693648890798124 -50.138660412963716 -1.5416803294685517 0 0 0
6831 1 2.8460603302826963 -50.13865328349701 -0.2975314132869017 0 0 0
6834 1 2.1298600950545112 -48.105426613195185 -1.541680139365747 0 0 0
6756 1 4.998472626656048 -50.138652460371645 -1.5416829706993131 0 0 0
6775 1 6.434683935438735 -48.10542837560305 -1.5416850471421513 0 0 0
6832 1 4.282271179683016 -48.10542337893033 -0.29753241605121605 0 0 0
6851 1 4.282271179610994 -48.10542337904046 -2.7858324160276013 0 0 0
6691 1 9.303302457470844 -50.13867079788303 -1.5416867142508437 0 0 0
6754 1 7.150886502738305 -50.13865851008887 -0.2975348116747575 0 0 0
6773 1 7.1508865027051804 -50.138658510195334 -2.785834811757847 0 0 0
6774 1 8.587099081377394 -48.10544127559849 -2.785837712900727 0 0 0
6777 1 8.58709908126366 -48.10544127553737 -0.2975377129683098 0 0 0
6690 1 11.455720621789803 -50.13868751781394 -2.785838448536366 0 0 0
6693 1 11.455720621790965 -50.13868751788891 -0.2975384485786273 0 0 0
6694 1 12.891937209717348 -48.10548210244285 -0.2975418827353215 0 0 0
6696 1 10.739516915179944 -48.10546020214569 -1.5416900882617008 0 0 0
6713 1 12.891937209703977 -48.10548210256005 -2.7858418828849874 0 0 0
6622 1 15.760562175762994 -50.13872360714883 -0.29754061569225937 0 0 0
6624 1 13.60814072860624 -50.13870605772644 -1.541689804493629 0 0 0
6640 1 15.760562175688841 -50.13872360725164 -2.785840615887592 0 0 0
6642 1 15.044359296127187 -48.10550349719204 -1.5416928828795404 0 0 0
6599 1 17.912984198728537 -50.138737768563196 -1.5416907880155586 0 0 0
6602 1 19.349205113647333 -48.105533393814284 -1.541692132447093 0 0 0
6641 1 17.196782245642495 -48.10552128714459 -2.785842968607789 0 0 0
6644 1 17.19678224558826 -48.10552128721392 -0.2975429687251104 0 0 0
6885 1 1.4136602861551344 -46.07219962273954 -0.29752849250740004 0 0 0
6897 1 1.4136602861048324 -46.072199622866925 -2.7858284924135606 0 0 0
6852 1 5.718481261898569 -46.072196289626646 -2.785835566552582 0 0 0
6853 1 3.566069926835236 -46.072193097393246 -1.5416818137691264 0 0 0
6855 1 5.71848126189173 -46.07219628970391 -0.29753556664235054 0 0 0
6780 1 7.870895307801243 -46.072209388941005 -1.5416892880143354 0 0 0
6715 1 12.175732979981488 -46.072256287868925 -1.5416948853218524 0 0 0
6778 1 10.02331258817689 -46.07223055791066 -0.2975425267592266 0 0 0
6795 1 10.023312588143716 -46.072230558024934 -2.7858425268081612 0 0 0
6714 1 14.328155751846424 -46.072282281961044 -2.7858460835364367 0 0 0
6717 1 14.32815575184801 -46.07228228202139 -0.29754608370578617 0 0 0
6645 1 18.633003873242302 -46.07232024380158 -0.2975445939866708 0 0 0
6647 1 16.480579781637623 -46.07230453758547 -1.5416959803911772 0 0 0
6658 1 18.633003873230383 -46.072320243851294 -2.7858445941687213 0 0 0
6898 1 2.849868997120951 -44.038961681964835 -2.7858312276361437 0 0 0
6899 1 0.6974610549179879 -44.03897258669468 -1.541676396907522 0 0 0
6901 1 2.849868997006214 -44.038961682080114 -0.29753122767896834 0 0 0
6904 1 2.133668576257922 -42.00572931199036 -1.541680771890923 0 0 0
6858 1 5.002278555475277 -44.0389620536858 -1.5416865603067496 0 0 0
6871 1 6.438486535579476 -42.00573675410605 -1.5416955136473784 0 0 0
6902 1 4.286075930899334 -42.00572551444673 -0.297538327563746 0 0 0
6911 1 4.286075930910142 -42.005725514541986 -2.7858383276450542 0 0 0
6797 1 9.307107553094378 -44.0389980285601 -1.5416961335738602 0 0 0
6856 1 7.154691121534379 -44.03897470622131 -0.2975417405346883 0 0 0
6869 1 7.154691121540366 -44.038974706283454 -2.785841740737966 0 0 0
6870 1 8.590901705883486 -42.00576193656784 -2.7858514399548566 0 0 0
6873 1 8.590901705773286 -42.005761936761274 -0.29755144003994843 0 0 0
6796 1 11.45952789350002 -44.039028063437705 -2.7858492041441867 0 0 0
6799 1 11.459527893402782 -44.0390280636041 -0.29754920422332404 0 0 0
6800 1 12.895745958801944 -42.00583475788911 -0.29755689148799563 0 0 0
6802 1 10.743321763989302 -42.00579673072989 -1.5417053893552113 0 0 0
6809 1 12.89574595874528 -42.005834758028286 -2.7858568916241895 0 0 0
6718 1 15.764376664472731 -44.03908731664933 -0.2975501209906194 0 0 0
6720 1 13.611951377328227 -44.03905955292086 -1.5417005861436042 0 0 0
6731 1 15.764376664367294 -44.03908731671815 -2.7858501212115008 0 0 0
6733 1 15.048172708614038 -42.00586934135801 -1.5417057856025025 0 0 0
6659 1 17.916802230887992 -44.03910753580819 -1.5416978775770034 0 0 0
6662 1 19.35302635485035 -42.005910020491974 -1.541696665007477 0 0 0
6732 1 17.20060007109366 -42.00589526029955 -2.785852229137977 0 0 0
6735 1 17.200600071072483 -42.00589526043437 -0.29755222929323133 0 0 0
6560 1 2.1260484081542455 -54.20510771325802 3.434917313923709 0 0 0
6570 1 2.1260484081964184 -54.20510771332067 0.9466173139607118 0 0 0
6815 1 1.4098484779731364 -52.17188406865679 2.190768313554515 0 0 0
6528 1 6.430875745716184 -54.20510710633573 3.4349161446849457 0 0 0
6529 1 6.430875745784963 -54.20510710632194 0.946616144706938 0 0 0
6572 1 4.278461627896102 -54.20510505418486 2.1907668621936907 0 0 0
6740 1 5.714674171703054 -52.1718803511466 2.190766549297235 0 0 0
6741 1 3.5622608733060157 -52.17187946393771 3.434917609263138 0 0 0
6742 1 3.562260873303165 -52.171879463946446 0.9466176092099441 0 0 0
6527 1 8.58329116977298 -54.205113788159714 2.190765251902288 0 0 0
6668 1 7.867088922674331 -52.17188690932567 3.4349152633088695 0 0 0
6673 1 7.86708892269976 -52.171886909310665 0.9466152633953299 0 0 0
6453 1 10.735708108441298 -54.20512422967435 3.434914289285024 0 0 0
6466 1 10.735708108540516 -54.20512422971104 0.9466142893121551 0 0 0
6468 1 12.888126518504519 -54.205136924710395 2.1907633766095733 0 0 0
6609 1 12.171923798828136 -52.17191296666029 3.434912648657544 0 0 0
6610 1 12.171923798764183 -52.171912966769455 0.9466126485954381 0 0 0
6675 1 10.019505455586811 -52.171898338434914 2.1907639081934906 0 0 0
6376 1 15.040546114477953 -54.205150012664454 3.4349126182026604 0 0 0
6377 1 15.040546114497536 -54.205150012742656 0.9466126181896027 0 0 0
6608 1 14.324343662743496 -52.17192858235465 2.190761630635382 0 0 0
6293 1 19.345386972482657 -54.20517046932173 3.4349119105218637 0 0 0
6302 1 19.34538697259412 -54.20517046930153 0.9466119106329793 0 0 0
6375 1 17.1929664408071 -54.2051616765064 2.190762109713938 0 0 0
6584 1 16.476764523721727 -52.17194292327733 3.4349109840382606 0 0 0
6588 1 16.476764523786773 -52.17194292319869 0.9466109842271354 0 0 0
6590 1 18.629185744803287 -52.1719541277591 2.1907607830151283 0 0 0
6816 1 2.8460603302673495 -50.13865328342338 2.1907685865298134 0 0 0
6817 1 0.6936488908038064 -50.13866041293008 3.434919670575065 0 0 0
6818 1 0.6936488908331049 -50.138660412865896 0.9466196705275375 0 0 0
6822 1 2.12986009498101 -48.10542661314579 3.4349198606374505 0 0 0
6833 1 2.1298600951080937 -48.10542661322906 0.946619860769102 0 0 0
6746 1 4.998472626630447 -50.1386524604368 3.4349170293190046 0 0 0
6755 1 4.9984726266443404 -50.13865246042695 0.9466170293343921 0 0 0
6759 1 6.4346839353779055 -48.105428375596105 3.4349149528959515 0 0 0
6760 1 6.434683935392415 -48.10542837568092 0.9466149528102764 0 0 0
6835 1 4.282271179570345 -48.10542337903022 2.190767583957811 0 0 0
6677 1 9.30330245749071 -50.13867079789742 3.434913285847033 0 0 0
6678 1 9.303302457446671 -50.13867079792846 0.9466132857610235 0 0 0
6757 1 7.150886502686999 -50.138658510182196 2.190765188228763 0 0 0
6758 1 8.587099081378224 -48.105441275508205 2.1907622870381487 0 0 0
6676 1 11.455720621836454 -50.13868751779626 2.190761551406238 0 0 0
6682 1 10.739516915242183 -48.10546020215751 3.4349099117326896 0 0 0
6695 1 10.73951691533799 -48.10546020205118 0.9466099118724716 0 0 0
6697 1 12.891937209689832 -48.105482102563116 2.190758117120249 0 0 0
6614 1 13.608140728558746 -50.1387060577303 3.4349101955688903 0 0 0
6623 1 13.608140728706836 -50.13870605766946 0.946610195664387 0 0 0
6625 1 15.760562175750481 -50.138723607156905 2.1907593840841013 0 0 0
6627 1 15.044359296130985 -48.105503497178034 3.4349071171343715 0 0 0
6628 1 15.044359296151939 -48.10550349734485 0.9466071170581446 0 0 0
6591 1 17.912984198625118 -50.138737768537645 3.434909211999415 0 0 0
6592 1 17.9129841985879 -50.13873776858023 0.9466092119443554 0 0 0
6594 1 19.349205113699156 -48.10553339388631 3.434907867563475 0 0 0
6601 1 19.349205113772403 -48.10553339374628 0.9466078676017765 0 0 0
6626 1 17.196782245592697 -48.10552128713192 2.190757031405514 0 0 0
6886 1 1.4136602861143734 -46.072199622851294 2.1907715075986327 0 0 0
6836 1 5.7184812619185665 -46.072196289541765 2.190764433495425 0 0 0
6837 1 3.5660699267510747 -46.072193097365165 3.434918186232768 0 0 0
6838 1 3.5660699267499116 -46.07219309750098 0.9466181861395602 0 0 0
6764 1 7.870895307763266 -46.07220938897383 3.4349107118958893 0 0 0
6779 1 7.870895307763805 -46.07220938885629 0.946610712042815 0 0 0
6699 1 12.175732980008656 -46.072256287883334 3.4349051146243035 0 0 0
6700 1 12.175732979904248 -46.07225628797159 0.9466051145631966 0 0 0
6781 1 10.023312588095243 -46.07223055809747 2.190757473143448 0 0 0
6698 1 14.328155751920937 -46.0722822819774 2.190753916461664 0 0 0
6632 1 16.480579781594475 -46.072304537543786 3.4349040195707907 0 0 0
6646 1 16.48057978167582 -46.07230453741118 0.9466040196873625 0 0 0
6648 1 18.633003873240447 -46.07232024385711 2.190755405893933 0 0 0
6887 1 2.849868997115075 -44.0389616819692 2.1907687722897364 0 0 0
6888 1 0.6974610548827745 -44.03897258673825 3.4349236032225723 0 0 0
6889 1 0.6974610549109244 -44.038972586682796 0.9466236030286823 0 0 0
6893 1 2.133668576279598 -42.00572931199549 3.4349192281502177 0 0 0
6903 1 2.1336685763803445 -42.00572931198431 0.9466192282146657 0 0 0
6842 1 5.002278555570417 -44.03896205366099 3.4349134398201615 0 0 0
6857 1 5.002278555530449 -44.03896205356632 0.9466134399357274 0 0 0
6861 1 6.438486535596112 -42.005736754064124 3.4349044863399403 0 0 0
6862 1 6.438486535560708 -42.00573675417746 0.9466044862458936 0 0 0
6905 1 4.286075930878221 -42.005725514550555 2.190761672356838 0 0 0
6783 1 9.307107553122364 -44.03899802857417 3.4349038664793836 0 0 0
6784 1 9.30710755298307 -44.03899802860206 0.9466038663920737 0 0 0
6859 1 7.154691121489456 -44.03897470629535 2.1907582592194244 0 0 0
6860 1 8.590901705877098 -42.00576193656581 2.1907485600577994 0 0 0
6782 1 11.45952789344737 -44.03902806353715 2.190750795822607 0 0 0
6788 1 10.743321763995665 -42.005796730747626 3.4348946106467104 0 0 0
6801 1 10.743321764082436 -42.005796730612246 0.9465946106737813 0 0 0
6803 1 12.895745958707646 -42.005834757939944 2.1907431084072493 0 0 0
6704 1 13.611951377327088 -44.03905955287238 3.4348994139085987 0 0 0
6719 1 13.61195137741882 -44.03905955269029 0.9465994139973442 0 0 0
6721 1 15.76437666432441 -44.03908731671956 2.1907498787530275 0 0 0
6723 1 15.048172708644907 -42.005869341274185 3.434894214397024 0 0 0
6724 1 15.048172708500552 -42.00586934143107 0.9465942143810104 0 0 0
6649 1 17.916802230868043 -44.03910753583841 3.4349021225077716 0 0 0
6650 1 17.916802230828186 -44.039107535934825 0.9466021224211626 0 0 0
6652 1 19.353026354837684 -42.00591002048312 3.434903335110742 0 0 0
6661 1 19.353026354983168 -42.00591002031297 0.9466033350800829 0 0 0
6722 1 17.20060007109005 -42.00589526028616 2.190747770875531 0 0 0
6559 1 2.126048408179081 -54.205107713299576 5.923217313944968 0 0 0
6810 1 1.4098484779451572 -52.171884068604285 4.6790683135374875 0 0 0
6811 1 1.409848477906087 -52.17188406870586 7.167368313585503 0 0 0
6512 1 6.4308757456673336 -54.20510710631726 5.923216144715275 0 0 0
6558 1 4.278461627875773 -54.205105054175135 4.679066862109357 0 0 0
6561 1 4.278461627825301 -54.20510505417407 7.167366862173406 0 0 0
6738 1 5.714674171694215 -52.171880351182594 7.167366549320565 0 0 0
6739 1 3.562260873295896 -52.17187946393219 5.923217609255086 0 0 0
6743 1 5.7146741717041705 -52.17188035111269 4.679066549293567 0 0 0
6511 1 8.583291169752993 -54.205113788193245 7.16736525186341 0 0 0
6530 1 8.583291169792608 -54.205113788276805 4.679065251841505 0 0 0
6667 1 7.8670889227217415 -52.17188690935444 5.923215263372963 0 0 0
6451 1 12.88812651859942 -54.20513692461575 4.679063376695459 0 0 0
6452 1 10.735708108455928 -54.20512422963674 5.923214289260841 0 0 0
6454 1 12.888126518520851 -54.205136924717344 7.167363376612301 0 0 0
6607 1 12.171923798856271 -52.171912966766016 5.923212648538075 0 0 0
6666 1 10.019505455562687 -52.17189833834977 4.679063908196899 0 0 0
6669 1 10.019505455583824 -52.17189833845718 7.167363908127332 0 0 0
6360 1 15.040546114446858 -54.20515001265568 5.923212618111251 0 0 0
6606 1 14.324343662696629 -52.17192858234079 7.16736163054712 0 0 0
6611 1 14.324343662700915 -52.17192858235446 4.679061630536316 0 0 0
6292 1 19.345386972538208 -54.20517046928228 5.923211910565444 0 0 0
6359 1 17.192966440797743 -54.205161676479996 7.167362109638386 0 0 0
6378 1 17.192966440818413 -54.20516167657294 4.679062109633834 0 0 0
6582 1 18.62918574488416 -52.17195412763883 4.679060783154524 0 0 0
6583 1 16.476764523775 -52.17194292320414 5.923210984261734 0 0 0
6585 1 18.629185744806485 -52.17195412762979 7.167360782955175 0 0 0
6812 1 2.8460603302969534 -50.13865328345206 7.167368586666445 0 0 0
6813 1 0.6936488908147395 -50.13866041293197 5.9232196705171125 0 0 0
6819 1 2.8460603303642986 -50.13865328346619 4.6790685866091835 0 0 0
6821 1 2.129860095032607 -48.10542661318952 5.923219860734343 0 0 0
6745 1 4.998472626683936 -50.13865246040107 5.923217029333915 0 0 0
6749 1 6.434683935390034 -48.105428375617386 5.923214952744293 0 0 0
6820 1 4.282271179654745 -48.10542337898341 4.6790675839962805 0 0 0
6823 1 4.2822711796166635 -48.10542337898282 7.167367583934327 0 0 0
6671 1 9.303302457452883 -50.13867079793735 5.923213285714618 0 0 0
6744 1 7.150886502744066 -50.13865851009916 4.679065188288043 0 0 0
6747 1 7.150886502723155 -50.13865851013294 7.167365188283149 0 0 0
6748 1 8.587099081324947 -48.10544127550007 7.167362287106672 0 0 0
6761 1 8.587099081320863 -48.10544127564549 4.679062286995171 0 0 0
6670 1 11.455720621828895 -50.13868751782306 7.167361551530397 0 0 0
6679 1 11.455720621760232 -50.138687517896386 4.679061551383193 0 0 0
6680 1 12.891937209760755 -48.105482102453024 4.679058117235523 0 0 0
6681 1 10.739516915253464 -48.105460202064876 5.92320991185168 0 0 0
6683 1 12.891937209659956 -48.10548210251543 7.167358117137962 0 0 0
6612 1 15.760562175743054 -50.13872360715981 4.679059384216013 0 0 0
6613 1 13.608140728670069 -50.1387060576316 5.923210195548154 0 0 0
6615 1 15.760562175749872 -50.13872360720266 7.167359384163872 0 0 0
6617 1 15.044359296048702 -48.10550349728732 5.923207117039427 0 0 0
6586 1 17.912984198647635 -50.138737768697325 5.923209211914931 0 0 0
6593 1 19.349205113759687 -48.10553339372083 5.9232078676009845 0 0 0
6616 1 17.196782245631542 -48.105521287155725 7.167357031409536 0 0 0
6629 1 17.196782245624938 -48.10552128720166 4.679057031230603 0 0 0
6879 1 1.4136602860954968 -46.072199622778555 4.679071507582096 0 0 0
6880 1 1.4136602861011716 -46.07219962280378 7.167371507479172 0 0 0
6824 1 5.718481261934547 -46.072196289594864 7.16736443340005 0 0 0
6825 1 3.5660699267965206 -46.07219309739577 5.923218186157903 0 0 0
6839 1 5.7184812618154215 -46.0721962897012 4.679064433395678 0 0 0
6763 1 7.870895307828972 -46.0722093888663 5.923210712050197 0 0 0
6685 1 12.175732979921712 -46.07225628796129 5.923205114599013 0 0 0
6762 1 10.023312588184213 -46.07223055795917 4.679057473285111 0 0 0
6765 1 10.023312588133125 -46.07223055801556 7.167357473117319 0 0 0
6684 1 14.328155751896261 -46.07228228192893 7.167353916451126 0 0 0
6701 1 14.328155751815602 -46.072282281993104 4.679053916317755 0 0 0
6630 1 18.63300387327288 -46.072320243822816 4.679055406035936 0 0 0
6631 1 16.48057978173678 -46.07230453743236 5.923204019684084 0 0 0
6633 1 18.633003873213053 -46.07232024388656 7.16735540579711 0 0 0
6881 1 2.849868997080098 -44.0389616819938 7.167368772392404 0 0 0
6882 1 0.6974610549219628 -44.038972586664954 5.92322360296745 0 0 0
6890 1 2.8498689970203146 -44.03896168206784 4.679068772350899 0 0 0
6892 1 2.133668576290894 -42.005729311974385 5.923219228212844 0 0 0
6841 1 5.002278555505684 -44.03896205363147 5.923213439868518 0 0 0
6845 1 6.438486535540226 -42.00573675414597 5.923204486241979 0 0 0
6891 1 4.2860759310082 -42.00572551441554 4.679061672421011 0 0 0
6894 1 4.2860759308583765 -42.005725514579 7.167361672385583 0 0 0
6767 1 9.307107553045997 -44.038998028656984 5.923203866275055 0 0 0
6840 1 7.154691121607022 -44.038974706181584 4.679058259359438 0 0 0
6843 1 7.154691121456977 -44.03897470631466 7.167358259351067 0 0 0
6844 1 8.590901705844516 -42.00576193664513 7.167348560061598 0 0 0
6863 1 8.590901705808308 -42.00576193669806 4.679048559952869 0 0 0
6766 1 11.45952789348583 -44.03902806352964 7.167350795926643 0 0 0
6785 1 11.459527893450801 -44.039028063565794 4.679050795695125 0 0 0
6786 1 12.895745958831748 -42.00583475792478 4.6790431085423245 0 0 0
6787 1 10.74332176407551 -42.005796730653614 5.923194610782298 0 0 0
6789 1 12.895745958719386 -42.00583475798499 7.167343108353451 0 0 0
6702 1 15.764376664422645 -44.03908731660135 4.679049878975107 0 0 0
6703 1 13.611951377426012 -44.03905955275499 5.923199413972443 0 0 0
6705 1 15.764376664410857 -44.03908731671486 7.167349878818042 0 0 0
6707 1 15.048172708509313 -42.00586934146341 5.923194214291047 0 0 0
6634 1 17.916802230785567 -44.03910753597598 5.923202122330841 0 0 0
6651 1 19.353026354982372 -42.005910020345624 5.923203335084761 0 0 0
6706 1 17.200600071139593 -42.00589526035126 7.167347770900129 0 0 0
6725 1 17.200600071029626 -42.00589526038388 4.679047770688459 0 0 0
7186 1 1.4174689046277886 -39.97249632882245 -5.274130655505704 0 0 0
7190 1 0.7012703115123878 -37.939263308576464 -4.029981236555619 0 0 0
7206 1 0.7012703115692492 -37.93926330857161 -6.518281236496461 0 0 0
7207 1 2.853671704844227 -37.93924539066744 -5.274146292713722 0 0 0
7100 1 3.56987356172167 -39.97248660225114 -4.029991333912177 0 0 0
7116 1 3.5698735617182242 -39.97248660222099 -6.518291333748892 0 0 0
7117 1 5.722281589220792 -39.97249502561673 -5.274151264909928 0 0 0
7119 1 5.0060763805153625 -37.93924901405206 -4.030009966887225 0 0 0
7120 1 5.006076380523396 -37.93924901408268 -6.518309967065845 0 0 0
7023 1 7.874694942830594 -39.972521476232714 -4.0300092143604775 0 0 0
7024 1 7.87469494272473 -39.972521476358374 -6.518309214565663 0 0 0
7028 1 9.31090542904044 -37.93932093377772 -4.030026765772005 0 0 0
7044 1 9.310905429097447 -37.939320933704124 -6.518326765708093 0 0 0
7118 1 7.158487162823625 -37.93927569405062 -5.274170552733463 0 0 0
6956 1 12.179539208958017 -39.97260715510856 -4.030015688260366 0 0 0
6971 1 12.179539208991287 -39.97260715498346 -6.51831568808489 0 0 0
7022 1 10.027114367398186 -39.97256139625491 -5.274164215123081 0 0 0
7045 1 11.46333075271582 -37.93937574511932 -5.2741779084856555 0 0 0
6972 1 14.331967648409709 -39.97265020549008 -5.274163495772085 0 0 0
6973 1 15.768193434797555 -37.939471863282655 -5.2741653776281785 0 0 0
6974 1 13.61576111806493 -37.93942931734494 -4.030023926122763 0 0 0
6975 1 13.615761117940579 -37.939429317456344 -6.518323926259238 0 0 0
6931 1 18.636825631071627 -39.97270294803241 -5.274149729983294 0 0 0
6932 1 16.484397221422817 -39.97268339012895 -4.030007946169466 0 0 0
6933 1 16.484397221278797 -39.972683390287436 -6.518307946313888 0 0 0
6936 1 17.92062454890521 -37.93949762573071 -4.030003327925292 0 0 0
6939 1 17.920624548977482 -37.93949762557095 -6.518303327960176 0 0 0
7209 1 2.1374707609205634 -35.90600218227018 -4.03000429306519 0 0 0
7210 1 2.137470760875257 -35.90600218231584 -6.518304293186336 0 0 0
7124 1 6.442278293330671 -35.90602348578124 -4.030037034272184 0 0 0
7140 1 6.442278293478228 -35.90602348570212 -6.518337034108042 0 0 0
7208 1 4.289871098450306 -35.90599824506916 -5.274173055265741 0 0 0
7141 1 8.594694633244156 -35.90607392417681 -5.274194547878988 0 0 0
7046 1 12.8995525804785 -35.90620579854999 -5.27418793057259 0 0 0
7047 1 10.747120096832058 -35.9061391806049 -4.0300448005369685 0 0 0
7048 1 10.747120096772411 -35.90613918070934 -6.518344800726604 0 0 0
6979 1 15.051988312251376 -35.9062605369731 -4.030024908026454 0 0 0
6989 1 15.051988312439502 -35.906260536840065 -6.518324907924357 0 0 0
6940 1 19.35685352065857 -35.90630672873915 -4.029987318273192 0 0 0
6941 1 19.356853520517156 -35.90630672882665 -6.5182873184036225 0 0 0
6990 1 17.204422949621545 -35.9062945080087 -5.274157352792107 0 0 0
7270 1 1.421271338315374 -33.8727576334645 -5.274167013659708 0 0 0
7274 1 0.7050744013744475 -31.83951293805921 -4.030037028086581 0 0 0
7284 1 0.7050744013988415 -31.839512937993163 -6.518337028035384 0 0 0
7285 1 2.8574620356297062 -31.83948112499224 -5.274221894855733 0 0 0
7214 1 3.5736661013450584 -33.872742342127545 -4.0300426543475645 0 0 0
7228 1 3.5736661013726554 -33.872742342100075 -6.518342654296084 0 0 0
7229 1 5.7260683300683635 -33.87276358503566 -5.274210913350358 0 0 0
7231 1 5.0098574333776 -31.839494561571886 -4.030095396739264 0 0 0
7232 1 5.009857433387582 -31.839494561637995 -6.518395396950289 0 0 0
7143 1 7.878481633969278 -33.87281862058298 -4.03006963392012 0 0 0
7144 1 7.878481633813212 -33.872818620680285 -6.518369634132924 0 0 0
7148 1 9.314689573725515 -31.839642804604477 -4.03009966511953 0 0 0
7158 1 9.314689573790309 -31.83964280450423 -6.518399665089148 0 0 0
7230 1 7.162266125088011 -31.83955288791329 -5.274254861501517 0 0 0
7052 1 12.183341277967168 -33.872978333240894 -4.030056560461327 0 0 0
7066 1 12.183341277938206 -33.87297833313169 -6.518356560299923 0 0 0
7142 1 10.030906616278724 -33.87289565780359 -5.274218008747257 0 0 0
7159 1 11.467126160939257 -31.839744945790844 -5.274231063934855 0 0 0
7067 1 14.33578122331173 -33.8730490879689 -5.274186925813349 0 0 0
7068 1 15.772016720230873 -31.83989758222125 -5.274165322978062 0 0 0
7069 1 13.6195711856283 -31.839836832886665 -4.030051753231195 0 0 0
7070 1 13.619571185547084 -31.839836832944833 -6.518351753467081 0 0 0
6991 1 18.640654588740436 -33.87311065162177 -5.274133295339669 0 0 0
6992 1 16.488220525457777 -33.873094222098814 -4.030011535042608 0 0 0
6993 1 16.488220525412533 -33.87309422223747 -6.51831153526198 0 0 0
6996 1 17.924455593442044 -31.839919743531617 -4.029975807162303 0 0 0
6999 1 17.924455593489352 -31.83991974343037 -6.518275806994888 0 0 0
7287 1 2.141260065740349 -29.806214765361492 -4.03011541474927 0 0 0
7288 1 2.1412600657284457 -29.806214765490626 -6.518415414841415 0 0 0
7306 1 1.4250622410157079 -27.772944058905725 -5.274330089829689 0 0 0
7236 1 6.446047962561688 -29.80627416434643 -4.0301540559962294 0 0 0
7242 1 6.446047962575697 -29.80627416426988 -6.518454055894147 0 0 0
7286 1 4.293646085623528 -29.806214803136598 -5.274295044599514 0 0 0
7292 1 3.577435370028219 -27.772922464948945 -4.030216283786293 0 0 0
7294 1 3.577435369963707 -27.772922464926562 -6.518516283729342 0 0 0
7295 1 5.729827406229142 -27.772979397143157 -5.274372263059568 0 0 0
7243 1 8.59846821468854 -29.80637757214786 -5.274292441151604 0 0 0
7245 1 7.882242023170436 -27.773096226306865 -4.030199515674786 0 0 0
7246 1 7.882242023141072 -27.77309622633158 -6.518499515799909 0 0 0
7160 1 12.903356692299274 -29.80662238749302 -5.274219497326659 0 0 0
7161 1 10.75090585709409 -29.806502686288294 -4.030112805217655 0 0 0
7162 1 10.750905857170563 -29.80650268625336 -6.518412805368954 0 0 0
7166 1 12.187135562825246 -27.77340309044494 -4.0300898040111575 0 0 0
7168 1 12.187135562791893 -27.77340309039416 -6.518389803879933 0 0 0
7244 1 10.034678740046724 -27.773247223948864 -5.274303067475041 0 0 0
7074 1 15.05581053815565 -29.806705512297295 -4.03001771421177 0 0 0
7080 1 15.055810538190936 -29.806705512194757 -6.518317713970154 0 0 0
7169 1 14.339600269400409 -27.77351880747054 -5.2741670401914025 0 0 0
7000 1 19.36068927980478 -29.806725789641376 -4.029910431223785 0 0 0
7001 1 19.360689279838915 -29.806725789739495 -6.5182104314442455 0 0 0
7081 1 17.20825625446559 -29.80673623947017 -5.2741128936384145 0 0 0
7082 1 18.644493052303606 -27.773546353314803 -5.274020739286296 0 0 0
7083 1 16.492055944281333 -27.77356352029342 -4.029941787774869 0 0 0
7084 1 16.492055944186525 -27.773563520346222 -6.518241787924568 0 0 0
7174 1 1.4174689046595932 -39.972496328772486 -0.2975306555238885 0 0 0
7187 1 1.4174689044526996 -39.972496328875785 -2.7858306555449803 0 0 0
7188 1 2.8536717049759788 -37.93924539049132 -2.785846292651764 0 0 0
7189 1 0.7012703115128146 -37.93926330857034 -1.5416812365724408 0 0 0
7191 1 2.8536717048548024 -37.939245390689344 -0.29754629271333055 0 0 0
7098 1 5.722281589313149 -39.97249502545186 -2.785851264880358 0 0 0
7099 1 3.5698735617421105 -39.97248660219148 -1.541691333828596 0 0 0
7101 1 5.722281589226949 -39.97249502556515 -0.2975512649594379 0 0 0
7104 1 5.006076380516578 -37.93924901415545 -1.5417099671181143 0 0 0
7010 1 7.874694942765993 -39.972521476293934 -1.5417092145529998 0 0 0
7027 1 9.310905429082412 -37.939320933751105 -1.5417267656076603 0 0 0
7102 1 7.1584871628767655 -37.93927569407755 -0.2975705527648399 0 0 0
7121 1 7.158487162816178 -37.93927569419204 -2.7858705528226486 0 0 0
6955 1 12.179539209009267 -39.97260715496499 -1.5417156880258616 0 0 0
7008 1 10.027114367431734 -39.972561396292605 -0.29756421508948616 0 0 0
7025 1 10.027114367289203 -39.97256139646956 -2.7858642152372517 0 0 0
7026 1 11.463330752802273 -37.93937574501634 -2.7858779082998204 0 0 0
7029 1 11.463330752703031 -37.93937574508739 -0.29757790836514003 0 0 0
6954 1 14.33196764841758 -39.97265020542109 -2.785863495682445 0 0 0
6957 1 14.331967648441218 -39.97265020551692 -0.29756349582202796 0 0 0
6958 1 15.768193434824587 -37.939471863323334 -0.2975653775086848 0 0 0
6960 1 13.615761117995243 -37.93942931750712 -1.5417239262738736 0 0 0
6976 1 15.76819343472374 -37.939471863454266 -2.785865377682015 0 0 0
6923 1 18.63682563103271 -39.97270294809601 -0.29754972997369955 0 0 0
6925 1 16.484397221306413 -39.97268339028439 -1.54170794630019 0 0 0
6934 1 18.636825630958622 -39.972702948167054 -2.7858497301788736 0 0 0
6935 1 17.920624548973326 -37.93949762563819 -1.5417033278909071 0 0 0
7194 1 2.1374707607956545 -35.90600218229616 -1.5417042931888292 0 0 0
7123 1 6.442278293461741 -35.90602348575042 -1.5417370341389414 0 0 0
7192 1 4.289871098547955 -35.90599824507021 -0.2975730553300008 0 0 0
7211 1 4.289871098365883 -35.90599824526146 -2.785873055443933 0 0 0
7122 1 8.594694633441524 -35.90607392398087 -2.7858945477919415 0 0 0
7125 1 8.594694633246458 -35.90607392418127 -0.2975945478750333 0 0 0
7030 1 12.899552580524247 -35.90620579850407 -0.29758793055458566 0 0 0
7032 1 10.747120096730296 -35.90613918070544 -1.5417448006928927 0 0 0
7049 1 12.899552580482096 -35.9062057986574 -2.7858879307323785 0 0 0
6978 1 15.051988312402596 -35.90626053684508 -1.5417249078945625 0 0 0
6938 1 19.356853520550082 -35.90630672881481 -1.541687318388852 0 0 0
6977 1 17.204422949681522 -35.90629450789802 -2.7858573526835775 0 0 0
6980 1 17.204422949666366 -35.906294508087505 -0.29755735277988427 0 0 0
7257 1 1.4212713382987496 -33.87275763345448 -0.2975670135885927 0 0 0
7271 1 1.421271338135456 -33.87275763352185 -2.7858670136607335 0 0 0
7272 1 2.857462035729811 -31.83948112483918 -2.7859218947045927 0 0 0
7273 1 0.7050744014057216 -31.839512937957984 -1.5417370279911473 0 0 0
7275 1 2.8574620356426266 -31.839481124982957 -0.29762189467876504 0 0 0
7212 1 5.7260683300797295 -33.872763584804986 -2.785910913321376 0 0 0
7213 1 3.5736661013897852 -33.87274234210027 -1.5417426542562307 0 0 0
7215 1 5.726068330071309 -33.87276358496491 -0.29761091344026364 0 0 0
7218 1 5.009857433375044 -31.83949456161781 -1.5417953969548113 0 0 0
7128 1 7.87848163390238 -33.8728186206433 -1.5417696340878595 0 0 0
7147 1 9.314689573767872 -31.839642804504663 -1.5417996651258286 0 0 0
7216 1 7.162266125111583 -31.839552887905135 -0.2976548614553564 0 0 0
7233 1 7.162266124948286 -31.83955288799779 -2.7859548615292287 0 0 0
7051 1 12.183341278078991 -33.8729783331857 -1.5417565602677492 0 0 0
7126 1 10.030906616231956 -33.87289565778028 -0.29761800871853816 0 0 0
7145 1 10.030906616138202 -33.87289565798627 -2.7859180088571924 0 0 0
7146 1 11.467126161120675 -31.83974494568688 -2.7859310638264123 0 0 0
7149 1 11.46712616096412 -31.83974494575848 -0.29763106394374234 0 0 0
7050 1 14.33578122334036 -33.87304908787231 -2.7858869256134495 0 0 0
7053 1 14.335781223316623 -33.873049087999384 -0.2975869257406761 0 0 0
7054 1 15.772016720203393 -31.839897582183152 -0.2975653229143507 0 0 0
7056 1 13.619571185517367 -31.839836832941835 -1.5417517534734155 0 0 0
7071 1 15.772016720031592 -31.839897582289932 -2.7858653230397006 0 0 0
6981 1 18.640654588758675 -33.87311065155905 -0.29753329525349187 0 0 0
6983 1 16.488220525434045 -33.87309422220452 -1.5417115352727055 0 0 0
6994 1 18.64065458858493 -33.87311065160416 -2.7858332954002356 0 0 0
6995 1 17.924455593536052 -31.83991974349928 -1.5416758070221317 0 0 0
7278 1 2.14126006568495 -29.806214765441865 -1.5418154148100245 0 0 0
7303 1 1.4250622409627074 -27.77294405894561 -0.2977300898154957 0 0 0
7307 1 1.4250622409429825 -27.772944059030177 -2.7860300898743167 0 0 0
7235 1 6.446047962526186 -29.806274164275816 -1.5418540558750515 0 0 0
7276 1 4.293646085577569 -29.80621480310544 -0.2976950446694694 0 0 0
7289 1 4.293646085614555 -29.80621480320239 -2.785995044731482 0 0 0
7290 1 5.729827406218422 -27.772979397093824 -2.786072262962556 0 0 0
7291 1 3.5774353700294914 -27.77292246491585 -1.5419162837539817 0 0 0
7293 1 5.7298274062596475 -27.772979397145992 -0.29777226296103354 0 0 0
7234 1 8.59846821470431 -29.80637757203338 -2.7859924410679677 0 0 0
7237 1 8.598468214631005 -29.806377572136704 -0.29769244105590054 0 0 0
7240 1 7.882242023136127 -27.77309622631158 -1.5418995157910733 0 0 0
7150 1 12.90335669240066 -29.80662238749172 -0.2976194973673243 0 0 0
7152 1 10.750905857087139 -29.80650268629162 -1.5418128053838067 0 0 0
7163 1 12.903356692297606 -29.80662238764833 -2.785919497448455 0 0 0
7165 1 12.187135562797355 -27.773403090404493 -1.54178980392305 0 0 0
7238 1 10.034678740033756 -27.773247223881416 -0.2977030673967947 0 0 0
7247 1 10.034678739913721 -27.773247223957245 -2.7860030674496 0 0 0
7073 1 15.05581053820114 -29.80670551217369 -1.5417177140518055 0 0 0
7164 1 14.339600269459549 -27.773518807350346 -2.78586704014582 0 0 0
7167 1 14.339600269377303 -27.77351880749403 -0.2975670401610122 0 0 0
6998 1 19.360689279742783 -29.80672578975796 -1.5416104314551922 0 0 0
7072 1 17.208256254550776 -29.80673623936391 -2.7858128935640485 0 0 0
7075 1 17.20825625447908 -29.806736239500133 -0.2975128936559781 0 0 0
7076 1 18.644493052309883 -27.773546353346084 -0.2974207392456254 0 0 0
7078 1 16.492055944284264 -27.773563520360987 -1.5416417879631303 0 0 0
7085 1 18.644493052159394 -27.77354635341297 -2.7857207392945504 0 0 0
7175 1 1.4174689045199875 -39.97249632891837 2.1907693444525287 0 0 0
7176 1 2.853671704948773 -37.93924539053113 2.1907537073296424 0 0 0
7177 1 0.7012703115365175 -37.939263308541996 3.434918763552379 0 0 0
7178 1 0.7012703115579781 -37.93926330858725 0.946618763394581 0 0 0
7088 1 5.722281589314849 -39.972495025479525 2.1907487351900943 0 0 0
7089 1 3.5698735617533885 -39.972486602226454 3.434908666285826 0 0 0
7090 1 3.569873561676935 -39.972486602262286 0.9466086660697254 0 0 0
7094 1 5.006076380493317 -37.93924901406797 3.4348900329473926 0 0 0
7103 1 5.006076380587144 -37.93924901403457 0.9465900330370637 0 0 0
7004 1 7.874694942774556 -39.97252147630943 3.4348907854675685 0 0 0
7009 1 7.874694942786865 -39.972521476294666 0.9465907856392075 0 0 0
7013 1 9.31090542911289 -37.93932093370253 3.434873234388669 0 0 0
7014 1 9.31090542904037 -37.93932093382145 0.946573234152199 0 0 0
7105 1 7.158487162746999 -37.93927569419689 2.1907294471554657 0 0 0
6945 1 12.179539209052097 -39.97260715498742 3.4348843118888595 0 0 0
6946 1 12.179539208925487 -39.97260715510417 0.9465843117690076 0 0 0
7011 1 10.027114367330864 -39.97256139638289 2.1907357847416 0 0 0
7012 1 11.463330752801827 -37.93937574496535 2.190722091654378 0 0 0
6944 1 14.331967648499743 -39.972650205359066 2.1907365044164746 0 0 0
6950 1 13.615761117952145 -37.93942931745651 3.4348760737185793 0 0 0
6959 1 13.615761118032436 -37.93942931733582 0.9465760738751368 0 0 0
6961 1 15.768193434695101 -37.93947186339231 2.190734622197464 0 0 0
6920 1 16.484397221352836 -39.97268339027748 3.4348920537134426 0 0 0
6924 1 16.484397221399817 -39.97268339015275 0.9465920537766568 0 0 0
6926 1 18.63682563101399 -39.97270294811585 2.1907502698301036 0 0 0
6927 1 17.920624548963946 -37.939497625609164 3.4348966722045677 0 0 0
6928 1 17.920624548872297 -37.93949762568169 0.9465966718954302 0 0 0
7182 1 2.137470760920868 -35.90600218230106 3.4348957067428114 0 0 0
7193 1 2.1374707609067483 -35.906002182281405 0.9465957070077042 0 0 0
7107 1 6.442278293427026 -35.90602348566641 3.434862965893912 0 0 0
7108 1 6.442278293435569 -35.90602348578049 0.9465629656807958 0 0 0
7195 1 4.289871098352186 -35.905998245199015 2.1907269446026083 0 0 0
7106 1 8.594694633389603 -35.90607392405571 2.1907054521997176 0 0 0
7018 1 10.747120096769347 -35.90613918069716 3.4348551992754563 0 0 0
7031 1 10.747120096852244 -35.90613918061134 0.9465551994439824 0 0 0
7033 1 12.89955258038013 -35.9062057986859 2.1907120692500794 0 0 0
6963 1 15.051988312314629 -35.90626053685555 3.4348750920811146 0 0 0
6964 1 15.051988312356544 -35.906260536949624 0.9465750918635748 0 0 0
6930 1 19.356853520557316 -35.906306728840114 3.434912681601703 0 0 0
6937 1 19.356853520582213 -35.9063067287127 0.9466126816828369 0 0 0
6962 1 17.204422949679756 -35.90629450787662 2.1907426473346914 0 0 0
7258 1 1.4212713382670257 -33.872757633554684 2.1907329862925073 0 0 0
7259 1 2.857462035699848 -31.839481124907522 2.1906781052553357 0 0 0
7260 1 0.705074401371751 -31.83951293802131 3.4348629720029704 0 0 0
7261 1 0.7050744013668845 -31.839512938027898 0.9465629718593903 0 0 0
7196 1 5.726068330154788 -33.87276358489121 2.1906890867003135 0 0 0
7197 1 3.5736661014102165 -33.87274234207989 3.4348573457831963 0 0 0
7198 1 3.573666101338278 -33.872742342149756 0.9465573455770708 0 0 0
7202 1 5.009857433323108 -31.839494561628165 3.4348046031075694 0 0 0
7217 1 5.009857433429204 -31.8394945615762 0.9465046031874987 0 0 0
7112 1 7.878481633910086 -33.87281862064198 3.4348303659063553 0 0 0
7127 1 7.878481633875413 -33.872818620601464 0.9465303660155792 0 0 0
7131 1 9.314689573789439 -31.83964280453065 3.434800335034751 0 0 0
7132 1 9.31468957373423 -31.839642804564 0.9465003347417578 0 0 0
7219 1 7.162266124975589 -31.839552887997893 2.190645138436908 0 0 0
7035 1 12.1833412780251 -33.87297833315002 3.4348434397136196 0 0 0
7036 1 12.183341277875485 -33.87297833321725 0.9465434395606847 0 0 0
7129 1 10.030906616167767 -33.87289565793926 2.19068199117143 0 0 0
7130 1 11.467126161039587 -31.839744945670105 2.1906689361505816 0 0 0
7034 1 14.335781223408267 -33.87304908782591 2.1907130743037873 0 0 0
7040 1 13.619571185571068 -31.839836832959637 3.434848246609328 0 0 0
7055 1 13.619571185615158 -31.83983683286427 0.9465482467190351 0 0 0
7057 1 15.772016720114877 -31.839897582350606 2.19073467693287 0 0 0
6968 1 16.488220525390602 -33.87309422220998 3.4348884647899385 0 0 0
6982 1 16.48822052548144 -33.87309422213319 0.9465884649361078 0 0 0
6984 1 18.640654588643255 -33.87311065171338 2.190766704565703 0 0 0
6985 1 17.9244555935061 -31.839919743477594 3.4349241930155556 0 0 0
6986 1 17.924455593422504 -31.839919743508347 0.9466241928573373 0 0 0
7265 1 2.141260065718706 -29.80621476544484 3.4347845852060357 0 0 0
7277 1 2.1412600657655863 -29.80621476543168 0.9464845852347474 0 0 0
7304 1 1.4250622409937566 -27.772944058943807 2.190569910121919 0 0 0
7221 1 6.446047962589186 -29.80627416426048 3.434745944105229 0 0 0
7222 1 6.446047962547266 -29.806274164304963 0.9464459440076475 0 0 0
7279 1 4.293646085580239 -29.806214803216584 2.1906049553227094 0 0 0
7280 1 5.729827406275798 -27.77297939706631 2.1905277370318936 0 0 0
7281 1 3.577435370062776 -27.77292246490635 3.434683716306548 0 0 0
7282 1 3.577435369918543 -27.772922464959994 0.9463837162195594 0 0 0
7220 1 8.59846821476981 -29.80637757205271 2.190607558915748 0 0 0
7226 1 7.882242023171747 -27.773096226348695 3.434700484215953 0 0 0
7239 1 7.882242023181508 -27.773096226293738 0.9464004843608047 0 0 0
7136 1 10.750905857075603 -29.80650268636798 3.4347871946694055 0 0 0
7151 1 10.750905857215566 -29.806502686192776 0.946487194787461 0 0 0
7153 1 12.903356692236141 -29.806622387642907 2.190680502609874 0 0 0
7155 1 12.187135562872086 -27.77340309042062 3.434810196128607 0 0 0
7156 1 12.187135562762103 -27.773403090448525 0.9465101959551473 0 0 0
7241 1 10.03467874000045 -27.773247224044226 2.1905969324665433 0 0 0
7059 1 15.055810538194915 -29.80670551223375 3.4348822859249672 0 0 0
7060 1 15.055810538169684 -29.80670551222812 0.9465822858432488 0 0 0
7154 1 14.339600269495028 -27.773518807342622 2.1907329598567835 0 0 0
6988 1 19.360689279802592 -29.80672578973136 3.43498956863512 0 0 0
6997 1 19.360689279852895 -29.806725789711006 0.9466895687072225 0 0 0
7058 1 17.2082562545565 -29.80673623939214 2.190787106420469 0 0 0
7064 1 16.492055944265914 -27.77356352033468 3.4349582120981825 0 0 0
7077 1 16.492055944221637 -27.773563520319303 0.946658212241569 0 0 0
7079 1 18.644493052238637 -27.773546353465075 2.190879260676558 0 0 0
7170 1 1.4174689045615447 -39.97249632875742 4.679069344508828 0 0 0
7171 1 1.4174689045771636 -39.97249632888605 7.167369344458839 0 0 0
7172 1 2.8536717049323057 -37.93924539054416 7.16735370734013 0 0 0
7173 1 0.7012703115182892 -37.93926330859618 5.923218763335922 0 0 0
7179 1 2.853671704946246 -37.93924539063335 4.67905370730811 0 0 0
7086 1 5.722281589323492 -39.972495025411824 7.167348735127785 0 0 0
7087 1 3.5698735617093758 -39.97248660223886 5.923208666015111 0 0 0
7091 1 5.722281589179109 -39.97249502551879 4.679048735049931 0 0 0
7093 1 5.006076380554049 -37.93924901404223 5.923190033051688 0 0 0
7003 1 7.874694942834822 -39.972521476197166 5.923190785623475 0 0 0
7007 1 9.310905429006068 -37.939320933858966 5.923173234232728 0 0 0
7092 1 7.158487162881169 -37.93927569402945 4.67902944726343 0 0 0
7095 1 7.1584871627702436 -37.93927569421241 7.167329447146733 0 0 0
6943 1 12.179539208907352 -39.97260715508982 5.9231843118121255 0 0 0
7002 1 10.027114367406792 -39.972561396371745 4.679035784917226 0 0 0
7005 1 10.02711436733115 -39.972561396425235 7.167335784776879 0 0 0
7006 1 11.463330752778488 -37.93937574494986 7.167322091766273 0 0 0
7015 1 11.463330752701792 -37.93937574515016 4.679022091547036 0 0 0
6942 1 14.33196764850539 -39.97265020537943 7.167336504323945 0 0 0
6947 1 14.331967648344264 -39.97265020551449 4.679036504159571 0 0 0
6948 1 15.768193434794805 -37.93947186332274 4.679034622464832 0 0 0
6949 1 13.615761118060567 -37.93942931737546 5.923176073860908 0 0 0
6951 1 15.768193434729808 -37.939471863426625 7.1673346223402845 0 0 0
6918 1 18.636825631015178 -39.97270294810014 4.679050270030046 0 0 0
6919 1 16.4843972214136 -39.97268339013898 5.92319205381979 0 0 0
6921 1 18.63682563096702 -39.97270294819165 7.167350269858506 0 0 0
6922 1 17.920624548858083 -37.939497625777264 5.923196671950478 0 0 0
7181 1 2.1374707608525254 -35.906002182252564 5.923195706995971 0 0 0
7097 1 6.442278293432916 -35.906023485787976 5.92316296568348 0 0 0
7180 1 4.289871098505126 -35.905998245121715 4.679026944620802 0 0 0
7183 1 4.289871098432894 -35.90599824519054 7.167326944639037 0 0 0
7096 1 8.594694633355612 -35.90607392403532 7.167305452270371 0 0 0
7109 1 8.594694633352862 -35.90607392413948 4.679005452086879 0 0 0
7016 1 12.899552580573278 -35.906205798526045 4.6790120693987385 0 0 0
7017 1 10.747120096800469 -35.90613918059645 5.923155199505098 0 0 0
7019 1 12.899552580420366 -35.90620579864278 7.167312069341199 0 0 0
6953 1 15.051988312308392 -35.90626053697013 5.9231750919403625 0 0 0
6929 1 19.356853520613953 -35.9063067287235 5.923212681725137 0 0 0
6952 1 17.204422949730287 -35.906294507976106 7.1673426473714175 0 0 0
6965 1 17.204422949602115 -35.906294508008386 4.679042647168328 0 0 0
7251 1 1.42127133818994 -33.87275763342815 4.67903298637436 0 0 0
7252 1 1.4212713382419897 -33.87275763355464 7.167332986357551 0 0 0
7253 1 2.8574620357137532 -31.83948112490463 7.1672781053739705 0 0 0
7254 1 0.7050744013447273 -31.839512938012227 5.923162971896789 0 0 0
7262 1 2.8574620356232843 -31.839481124944175 4.67897810521479 0 0 0
7184 1 5.726068330153324 -33.87276358482818 7.1672890866606265 0 0 0
7185 1 3.5736661013832847 -33.87274234214897 5.923157345625307 0 0 0
7199 1 5.726068330018119 -33.87276358492433 4.678989086606971 0 0 0
7201 1 5.009857433412744 -31.83949456155782 5.9231046032265455 0 0 0
7111 1 7.878481633948493 -33.872818620544486 5.92313036605732 0 0 0
7115 1 9.314689573708412 -31.839642804588124 5.923100334708782 0 0 0
7200 1 7.162266125051645 -31.839552887846413 4.678945138545917 0 0 0
7203 1 7.162266125010046 -31.839552888014794 7.167245138440081 0 0 0
7021 1 12.183341278017828 -33.87297833326919 5.923143439544811 0 0 0
7110 1 10.030906616206632 -33.872895657848744 4.67898199123663 0 0 0
7113 1 10.030906616116509 -33.87289565793752 7.167281991159349 0 0 0
7114 1 11.467126161053045 -31.83974494564541 7.167268936153419 0 0 0
7133 1 11.46712616101315 -31.839744945830574 4.678968936066049 0 0 0
7020 1 14.335781223413257 -33.8730490878909 7.167313074364511 0 0 0
7037 1 14.335781223255042 -33.8730490880213 4.679013074249111 0 0 0
7038 1 15.772016720123077 -31.839897582160493 4.679034677051632 0 0 0
7039 1 13.619571185572752 -31.839836832890168 5.923148246695331 0 0 0
7041 1 15.772016720102425 -31.839897582322525 7.167334676975889 0 0 0
6966 1 18.64065458867045 -33.87311065149418 4.679066704726851 0 0 0
6967 1 16.488220525488245 -33.87309422212218 5.923188464882621 0 0 0
6969 1 18.64065458866695 -33.873110651678836 7.1673667046462075 0 0 0
6970 1 17.924455593480218 -31.83991974358421 5.923224192813129 0 0 0
7264 1 2.14126006573687 -29.806214765428237 5.923084585221213 0 0 0
7299 1 1.425062240966376 -27.772944059045468 4.678869910185699 0 0 0
7300 1 1.4250622409338058 -27.772944058989705 7.167169910113143 0 0 0
7205 1 6.446047962500097 -29.806274164317244 5.923045944022979 0 0 0
7263 1 4.293646085686454 -29.80621480312795 4.678904955330185 0 0 0
7266 1 4.293646085529624 -29.806214803202618 7.167204955294356 0 0 0
7267 1 5.729827406313473 -27.772979397101157 7.167127737081403 0 0 0
7268 1 3.577435369996588 -27.772922464990863 5.922983716184639 0 0 0
7283 1 5.729827406162683 -27.772979397129347 4.678827736963825 0 0 0
7204 1 8.598468214700613 -29.806377572026477 7.167207558993799 0 0 0
7223 1 8.598468214653046 -29.806377572134902 4.678907558868588 0 0 0
7225 1 7.88224202319611 -27.773096226262567 5.9230004842829045 0 0 0
7134 1 12.903356692406424 -29.806622387514853 4.678980502625503 0 0 0
7135 1 10.75090585712824 -29.8065026862526 5.923087194749413 0 0 0
7137 1 12.903356692332256 -29.806622387627637 7.167280502560474 0 0 0
7139 1 12.187135562787544 -27.77340309045274 5.923110195944369 0 0 0
7224 1 10.034678740047292 -27.77324722388618 4.678896932620728 0 0 0
7227 1 10.034678739981121 -27.773247223956478 7.167196932560014 0 0 0
7043 1 15.055810538188965 -29.806705512233616 5.923182285785089 0 0 0
7138 1 14.339600269470404 -27.773518807375307 7.167332959894276 0 0 0
7157 1 14.339600269383952 -27.773518807462423 4.679032959819418 0 0 0
6987 1 19.36068927978648 -29.806725789725967 5.923289568685679 0 0 0
7042 1 17.208256254577947 -29.806736239382467 7.167387106417449 0 0 0
7061 1 17.208256254481476 -29.806736239495603 4.679087106384202 0 0 0
7062 1 18.644493052259385 -27.773546353317236 4.6791792607349345 0 0 0
7063 1 16.49205594431752 -27.77356352033761 5.923258212156332 0 0 0
7065 1 18.644493052249047 -27.77354635346583 7.167479260704527 0 0 0
7544 1 0.7088721188245937 -25.739670945523912 -4.03027614547698 0 0 0
7560 1 0.7088721188603254 -25.739670945496474 -6.518576145602 0 0 0
7561 1 2.8612274623787837 -25.739615328414335 -5.274468100454267 0 0 0
7467 1 5.013605524403166 -25.739664891117275 -4.030315927000864 0 0 0
7468 1 5.013605524385248 -25.73966489119844 -6.518615927048622 0 0 0
7382 1 9.318443255981352 -25.739972393544967 -4.030202619410818 0 0 0
7398 1 9.318443256062038 -25.739972393583574 -6.518502619408648 0 0 0
7466 1 7.166011274299753 -25.739794530569885 -5.27442433985897 0 0 0
7399 1 11.47090486932326 -25.74017406139832 -5.274261453486415 0 0 0
7339 1 15.775853433271372 -25.740406500246458 -5.2740587949614 0 0 0
7340 1 13.623383156270332 -25.7403374689311 -4.030010718435025 0 0 0
7341 1 13.623383156249284 -25.740337468972406 -6.518310718577249 0 0 0
7314 1 17.928296828372783 -25.740379826163 -4.029813359969357 0 0 0
7317 1 17.928296828308746 -25.74037982620792 -6.518113359917356 0 0 0
7563 1 2.1450264149722207 -23.70629059369012 -4.030462873798829 0 0 0
7564 1 2.145026414868101 -23.706290593683747 -6.518762873732734 0 0 0
7634 1 1.4288394975949887 -21.672944659762603 -5.274817219471149 0 0 0
7472 1 6.449778103993899 -23.706468402311724 -4.030369918872007 0 0 0
7488 1 6.449778104005995 -23.70646840230064 -6.518669918862724 0 0 0
7562 1 4.297384775073132 -23.70632581829578 -5.27459282315042 0 0 0
7568 1 3.581169668472262 -21.672954804764906 -4.030611330718875 0 0 0
7584 1 3.5811696683842182 -21.672954804656424 -6.518911330794975 0 0 0
7585 1 5.73354841964686 -21.67311543467253 -5.27463712098031 0 0 0
7489 1 8.602198748916978 -23.706669798836828 -5.274410823429836 0 0 0
7491 1 7.885947169835799 -21.673328786019383 -4.03032395708513 0 0 0
7492 1 7.885947169750338 -21.673328786039306 -6.518623957031448 0 0 0
7400 1 12.907155048862775 -23.70715931280597 -5.274145056036412 0 0 0
7401 1 10.754661200049526 -23.70692680907448 -4.0301317232742075 0 0 0
7402 1 10.754661200064364 -23.706926809062978 -6.518431723348534 0 0 0
7406 1 12.190910378133855 -21.673977341884278 -4.029965365055231 0 0 0
7421 1 12.190910378013838 -21.67397734180749 -6.518265364945877 0 0 0
7490 1 10.038401649467371 -21.673647356125308 -5.274295480488687 0 0 0
7345 1 15.059646514639466 -23.707271737354727 -4.0298593981956685 0 0 0
7355 1 15.05964651464245 -23.707271737377734 -6.518159398113433 0 0 0
7422 1 14.343431336651221 -21.674166571317095 -5.2739389822742515 0 0 0
7318 1 19.364515350942305 -23.70713185590477 -4.02962330123879 0 0 0
7319 1 19.364515351003256 -23.707131855914497 -6.517923301399543 0 0 0
7356 1 17.212100641608696 -23.707235132389695 -5.273882285321952 0 0 0
7357 1 18.648304925312274 -21.6739459864036 -5.273622033997894 0 0 0
7358 1 16.495905706167775 -21.674128808368355 -4.029620989608878 0 0 0
7359 1 16.495905706109067 -21.67412880837482 -6.5179209897664965 0 0 0
7638 1 0.7126795779427537 -19.63957358503794 -4.030952437265209 0 0 0
7652 1 0.7126795779292033 -19.63957358494358 -6.519252437399108 0 0 0
7653 1 2.8649671367381964 -19.639537943861527 -5.274978221734253 0 0 0
7655 1 2.1487857661246554 -17.606044461608086 -4.031093290537951 0 0 0
7656 1 2.1487857661745484 -17.606044461584954 -6.519393290353276 0 0 0
7587 1 5.017334968042416 -19.639738298082904 -4.030621046486239 0 0 0
7588 1 5.0173349680116095 -19.63973829806006 -6.518921046447483 0 0 0
7654 1 4.301162802704332 -17.606351194271397 -5.274903554201186 0 0 0
7592 1 6.45346477185801 -17.60648389150926 -4.030414202184997 0 0 0
7602 1 6.453464771876387 -17.606483891510788 -6.518714202283017 0 0 0
7496 1 9.32212611284417 -19.64031416787751 -4.030144035353022 0 0 0
7510 1 9.322126112945895 -19.6403141677804 -6.518444035461875 0 0 0
7586 1 7.169696312966956 -19.639937134799535 -5.274532168865248 0 0 0
7603 1 8.605842201025412 -17.606895753907846 -5.274264112827597 0 0 0
7511 1 11.474643114327563 -19.640775505974144 -5.2740670183324765 0 0 0
7513 1 10.758350075381435 -17.607523956262547 -4.029848918689836 0 0 0
7514 1 10.758350075428142 -17.607523956276438 -6.518148918724575 0 0 0
7512 1 12.910943441330556 -17.608046466579143 -5.273732088373937 0 0 0
7423 1 15.779716505373004 -19.64109173287612 -5.273624100946005 0 0 0
7424 1 13.62720117156086 -19.641095132195968 -4.029694983234711 0 0 0
7425 1 13.627201171608114 -19.6410951321942 -6.5179949832849635 0 0 0
7429 1 15.063545515101868 -17.608180865539683 -4.029291388173578 0 0 0
7437 1 15.06354551517646 -17.60818086549285 -6.517591388221714 0 0 0
7362 1 17.932085639658606 -19.640765688277316 -4.029265355829639 0 0 0
7365 1 17.932085639731095 -19.64076568832532 -6.517565355840132 0 0 0
7438 1 17.215861439175626 -17.607603854169945 -5.273136567427225 0 0 0
7366 1 19.368163725911813 -17.607328073041522 -4.028730087332035 0 0 0
7367 1 19.368163726054508 -17.60732807297458 -6.517030087440217 0 0 0
7688 1 1.4326282562808594 -15.57240313514759 -5.275537794742409 0 0 0
7692 1 0.7164766778720942 -13.53843442990284 -4.031651807180178 0 0 0
7694 1 0.7164766778454829 -13.538434429889326 -6.519951807320862 0 0 0
7695 1 2.8691651572194594 -13.53976308544303 -5.274919570325762 0 0 0
7660 1 3.5850798140759794 -15.572992799199596 -4.030838214490436 0 0 0
7666 1 3.585079814132772 -15.572992799168091 -6.519138214601591 0 0 0
7667 1 5.737292472815866 -15.572963093743322 -5.274528854584134 0 0 0
7669 1 5.021266523783589 -13.539382168048734 -4.030202766314842 0 0 0
7670 1 5.021266523735295 -13.539382168065707 -6.518502766175551 0 0 0
7605 1 7.889570251403323 -15.573350516040763 -4.030038002155852 0 0 0
7606 1 7.889570251344944 -15.573350516068007 -6.518338002132593 0 0 0
7610 1 9.325767497885183 -13.540701596224263 -4.0297356386601715 0 0 0
7612 1 9.325767497915212 -13.540701596214461 -6.51803563878941 0 0 0
7668 1 7.1733580453173875 -13.539612101073446 -5.274047355028737 0 0 0
7518 1 12.194630215323393 -15.574964405561454 -4.029473419951723 0 0 0
7524 1 12.194630215254428 -15.57496440556113 -6.517773420001145 0 0 0
7604 1 10.042043178687853 -15.57417635804635 -5.273922739054418 0 0 0
7613 1 11.478204076013109 -13.541663176773348 -5.273582470739095 0 0 0
7525 1 14.347421390152247 -15.575500132208138 -5.273236371855366 0 0 0
7526 1 15.783547432117414 -13.541564863017696 -5.272265703723532 0 0 0
7527 1 13.631392404390937 -13.543239283151951 -4.028904741915791 0 0 0
7528 1 13.63139240435115 -13.543239283206384 -6.517204741959609 0 0 0
7439 1 18.651777550021276 -15.573873871801204 -5.27233668727645 0 0 0
7440 1 16.499656102256626 -15.574499126073503 -4.02861410052837 0 0 0
7441 1 16.499656102252217 -15.57449912603654 -6.516914100497359 0 0 0
7444 1 17.935252177411186 -13.54010134401438 -4.027371127290728 0 0 0
7445 1 17.93525217742557 -13.540101343966828 -6.515671127212325 0 0 0
7542 1 2.8612274623552145 -25.739615328482948 -2.7861681003543373 0 0 0
7543 1 0.708872118829665 -25.73967094546875 -1.5419761456325993 0 0 0
7545 1 2.861227462359293 -25.739615328427423 -0.29786810031367394 0 0 0
7454 1 5.013605524374425 -25.73966489118578 -1.5420159270061113 0 0 0
7381 1 9.318443256017009 -25.73997239347898 -1.5419026193313035 0 0 0
7452 1 7.166011274289911 -25.73979453062786 -0.29782433974321926 0 0 0
7469 1 7.166011274283145 -25.739794530600843 -2.786124339764621 0 0 0
7380 1 11.470904869367185 -25.740174061271432 -2.785961453481764 0 0 0
7383 1 11.47090486928233 -25.740174061414244 -0.2976614534530756 0 0 0
7326 1 15.775853433248715 -25.740406500185774 -0.2974587949765031 0 0 0
7328 1 13.623383156260182 -25.74033746899583 -1.5417107186492804 0 0 0
7342 1 15.775853433188272 -25.74040650025695 -2.7857587950453335 0 0 0
7313 1 17.92829682828378 -25.74037982613457 -1.5415133599487965 0 0 0
7548 1 2.1450264149214644 -23.70629059372633 -1.5421628737895612 0 0 0
7622 1 1.4288394976305903 -21.672944659724337 -0.2982172194489565 0 0 0
7635 1 1.428839497600172 -21.672944659738626 -2.7865172195480166 0 0 0
7471 1 6.4497781040570645 -23.70646840227432 -1.5420699189004081 0 0 0
7546 1 4.297384775109804 -23.70632581831308 -0.29799282316265713 0 0 0
7565 1 4.297384775087252 -23.706325818285425 -2.786292823207014 0 0 0
7566 1 5.733548419587228 -21.67311543473854 -2.786337120920173 0 0 0
7567 1 3.5811696685515537 -21.67295480470736 -1.5423113308397298 0 0 0
7569 1 5.733548419703836 -21.673115434705043 -0.2980371210429445 0 0 0
7470 1 8.60219874893702 -23.70666979869176 -2.786110823340661 0 0 0
7473 1 8.602198748931766 -23.70666979885702 -0.29781082342826704 0 0 0
7476 1 7.885947169814316 -21.67332878611692 -1.542023957149161 0 0 0
7384 1 12.90715504885045 -23.70715931275644 -0.29754505613758575 0 0 0
7386 1 10.754661199983719 -23.706926809078347 -1.5418317233554197 0 0 0
7403 1 12.907155048826365 -23.707159312840428 -2.7858450561170836 0 0 0
7405 1 12.190910378111475 -21.673977341814908 -1.5416653649925394 0 0 0
7474 1 10.038401649482829 -21.67364735615354 -0.2976954804243345 0 0 0
7493 1 10.038401649374425 -21.67364735618471 -2.7859954805556897 0 0 0
7344 1 15.059646514638725 -23.707271737355963 -1.5415593980482372 0 0 0
7404 1 14.343431336643093 -21.674166571221022 -2.785638982241772 0 0 0
7407 1 14.343431336705477 -21.674166571206094 -0.2973389822077675 0 0 0
7316 1 19.36451535095596 -23.70713185592436 -1.5413233013062906 0 0 0
7343 1 17.21210064168967 -23.70723513239551 -2.7855822853114147 0 0 0
7346 1 17.212100641623753 -23.707235132439468 -0.2972822853714556 0 0 0
7347 1 18.648304925263474 -21.673945986402572 -0.29702203394972915 0 0 0
7349 1 16.49590570616271 -21.674128808382534 -1.5413209897530005 0 0 0
7360 1 18.648304925181083 -21.67394598646472 -2.785322033970034 0 0 0
7636 1 2.8649671367478016 -19.639537943981576 -2.786678221705879 0 0 0
7637 1 0.7126795779145038 -19.639573584992736 -1.542652437437746 0 0 0
7639 1 2.8649671367477416 -19.63953794383599 -0.29837822173758677 0 0 0
7642 1 2.148785766053368 -17.606044461638476 -1.5427932903017614 0 0 0
7572 1 5.017334967991437 -19.639738297994175 -1.5423210464724828 0 0 0
7640 1 4.301162802711439 -17.606351194320723 -0.29830355415574694 0 0 0
7657 1 4.301162802749293 -17.606351194246184 -2.7866035541767626 0 0 0
7591 1 6.453464771864573 -17.606483891509605 -1.5421142022370464 0 0 0
7495 1 9.322126112869942 -19.640314167806594 -1.5418440353899727 0 0 0
7570 1 7.169696312916961 -19.639937134836615 -0.2979321688022373 0 0 0
7589 1 7.169696313003258 -19.639937134795275 -2.7862321688593314 0 0 0
7590 1 8.605842201021558 -17.606895753884437 -2.785964112793025 0 0 0
7593 1 8.605842201043117 -17.60689575389941 -0.29766411286222877 0 0 0
7494 1 11.474643114288416 -19.64077550591338 -2.785767018302702 0 0 0
7497 1 11.4746431143361 -19.640775505936997 -0.29746701821145005 0 0 0
7500 1 10.75835007539617 -17.607523956259392 -1.5415489186256828 0 0 0
7498 1 12.910943441323388 -17.608046466589744 -0.29713208843309585 0 0 0
7515 1 12.910943441358183 -17.608046466501566 -2.785432088331811 0 0 0
7408 1 15.779716505306002 -19.64109173291622 -0.2970241008183789 0 0 0
7410 1 13.627201171558207 -19.64109513223176 -1.5413949832659026 0 0 0
7426 1 15.779716505315317 -19.64109173300775 -2.7853241008780607 0 0 0
7428 1 15.063545515090635 -17.60818086549011 -1.5409913881694628 0 0 0
7361 1 17.932085639687813 -19.640765688347308 -1.5409653558780967 0 0 0
7427 1 17.21586143923781 -17.607603854057054 -2.7848365675498314 0 0 0
7430 1 17.215861439255256 -17.607603854127326 -0.2965365674912142 0 0 0
7364 1 19.36816372600786 -17.60732807304562 -1.5404300874600803 0 0 0
7681 1 1.432628256255352 -15.572403135201482 -0.29893779464131853 0 0 0
7689 1 1.4326282562583281 -15.572403134990406 -2.787237794761719 0 0 0
7690 1 2.869165157230106 -13.539763085586399 -2.786619570343583 0 0 0
7691 1 0.7164766778226014 -13.538434429898937 -1.5433518073458126 0 0 0
7693 1 2.8691651572613868 -13.539763085502903 -0.2983195702615359 0 0 0
7658 1 5.737292472732569 -15.572963093785296 -2.7862288545079825 0 0 0
7659 1 3.5850798141674254 -15.572992799203304 -1.5425382146543598 0 0 0
7661 1 5.73729247286669 -15.572963093821219 -0.2979288546035483 0 0 0
7664 1 5.02126652381508 -13.539382168147371 -1.541902766266001 0 0 0
7596 1 7.889570251387721 -15.573350516042808 -1.541738002115978 0 0 0
7609 1 9.32576749794399 -13.540701596216566 -1.541435638825866 0 0 0
7662 1 7.1733580453008186 -13.539612101151622 -0.2974473549452904 0 0 0
7671 1 7.173358045445784 -13.539612100928002 -2.7857473549542724 0 0 0
7517 1 12.194630215312477 -15.57496440562019 -1.5411734200017988 0 0 0
7594 1 10.042043178737911 -15.574176357974412 -0.29732273908180856 0 0 0
7607 1 10.04204317869363 -15.574176357957567 -2.785622739034435 0 0 0
7608 1 11.478204076042312 -13.541663176813588 -2.7852824708190176 0 0 0
7611 1 11.478204075954997 -13.541663176709896 -0.2969824707463995 0 0 0
7516 1 14.347421390050727 -15.575500132297073 -2.7849363718197426 0 0 0
7519 1 14.347421390132425 -15.575500132262299 -0.29663637187363334 0 0 0
7520 1 15.783547432141619 -13.541564862972153 -0.29566570372502626 0 0 0
7522 1 13.63139240440491 -13.54323928320678 -1.5406047419978155 0 0 0
7529 1 15.783547432154533 -13.541564863025414 -2.7839657037118437 0 0 0
7431 1 18.651777550075707 -15.573873871799124 -0.29573668714048235 0 0 0
7433 1 16.499656102301927 -15.574499126109185 -1.540314100566362 0 0 0
7442 1 18.651777549933083 -15.573873871909154 -2.7840366872112994 0 0 0
7443 1 17.93525217740532 -13.540101343967457 -1.539071127186401 0 0 0
7532 1 2.8612274623596363 -25.739615328416537 2.1904318996437557 0 0 0
7533 1 0.7088721188695645 -25.739670945489436 3.4346238544985357 0 0 0
7534 1 0.7088721188332161 -25.739670945548923 0.9463238544474685 0 0 0
7448 1 5.013605524354847 -25.739664891140002 3.4345840729958015 0 0 0
7453 1 5.013605524410176 -25.73966489113941 0.9462840729896019 0 0 0
7371 1 9.318443256016497 -25.739972393531392 3.4346973806750634 0 0 0
7372 1 9.318443256043285 -25.739972393620636 0.946397380560788 0 0 0
7455 1 7.166011274272789 -25.739794530598388 2.190475660104929 0 0 0
7370 1 11.47090486938182 -25.74017406131421 2.1906385465287825 0 0 0
7322 1 13.623383156262467 -25.74033746896123 3.4348892814680894 0 0 0
7327 1 13.6233831562601 -25.74033746895359 0.9465892815359374 0 0 0
7329 1 15.775853433181487 -25.74040650034016 2.1908412050033093 0 0 0
7309 1 17.928296828359098 -25.74037982617049 3.435086640169982 0 0 0
7310 1 17.92829682831112 -25.740379826212475 0.9467866399267363 0 0 0
7538 1 2.145026414936661 -23.706290593716943 3.4344371262117233 0 0 0
7547 1 2.1450264148883047 -23.706290593660512 0.9461371262061069 0 0 0
7623 1 1.4288394976481775 -21.67294465972606 2.190082780458388 0 0 0
7457 1 6.44977810400873 -23.706468402265873 3.4345300811499206 0 0 0
7458 1 6.449778103987466 -23.70646840233385 0.9462300811137496 0 0 0
7549 1 4.297384775067116 -23.70632581827418 2.1903071767986737 0 0 0
7550 1 5.733548419628597 -21.67311543470148 2.1902628790144205 0 0 0
7551 1 3.5811696685026178 -21.672954804718945 3.4342886692191685 0 0 0
7552 1 3.581169668364507 -21.672954804690196 0.9459886692922617 0 0 0
7456 1 8.602198748935775 -23.706669798799727 2.190489176602864 0 0 0
7462 1 7.88594716981464 -21.67332878603388 3.434576042929948 0 0 0
7475 1 7.885947169767603 -21.673328786009893 0.9462760429495205 0 0 0
7376 1 10.754661200031665 -23.70692680908744 3.4347682766857157 0 0 0
7385 1 10.754661200072926 -23.706926809038574 0.946468276718533 0 0 0
7387 1 12.907155048812156 -23.70715931286722 2.19075494391146 0 0 0
7389 1 12.19091037813527 -21.673977341868408 3.4349346349919423 0 0 0
7390 1 12.19091037800709 -21.67397734179815 0.9466346350003022 0 0 0
7477 1 10.038401649452814 -21.6736473561344 2.190604519540799 0 0 0
7331 1 15.059646514649435 -23.707271737346773 3.435040601916631 0 0 0
7332 1 15.059646514636466 -23.707271737382925 0.9467406017663521 0 0 0
7388 1 14.343431336699574 -21.67416657126363 2.190961017699756 0 0 0
7312 1 19.364515350940515 -23.70713185590342 3.4352766986298082 0 0 0
7315 1 19.36451535100407 -23.707131855911857 0.9469766987156718 0 0 0
7330 1 17.212100641672755 -23.707235132293274 2.1910177146645298 0 0 0
7336 1 16.495905706169854 -21.674128808358432 3.4352790102780877 0 0 0
7348 1 16.495905706100004 -21.674128808379756 0.9469790103395553 0 0 0
7350 1 18.64830492521745 -21.67394598650621 2.191277965997677 0 0 0
7624 1 2.8649671366892595 -19.63953794395023 2.1899217783241114 0 0 0
7625 1 0.7126795779864347 -19.639573585014535 3.4339475626277443 0 0 0
7626 1 0.7126795779050965 -19.639573584991595 0.9456475627091119 0 0 0
7630 1 2.14878576612611 -17.606044461638927 3.4338067096195664 0 0 0
7641 1 2.1487857661902945 -17.60604446156108 0.945506709552549 0 0 0
7556 1 5.017334968031499 -19.639738298074068 3.4342789535738047 0 0 0
7571 1 5.017334968021444 -19.63973829805594 0.9459789534529397 0 0 0
7643 1 4.301162802765677 -17.606351194168717 2.189996445744398 0 0 0
7575 1 6.453464771860739 -17.606483891486825 3.434485797760191 0 0 0
7576 1 6.453464771861626 -17.60648389154307 0.9461857978564274 0 0 0
7479 1 9.322126112849826 -19.6403141678669 3.4347559646378016 0 0 0
7480 1 9.322126112936962 -19.640314167799467 0.9464559646150746 0 0 0
7573 1 7.16969631300131 -19.639937134736726 2.1903678311108874 0 0 0
7574 1 8.605842200999124 -17.60689575396316 2.1906358871845355 0 0 0
7478 1 11.474643114337065 -19.640775505945815 2.1908329816786103 0 0 0
7484 1 10.758350075422111 -17.60752395627299 3.435051081330891 0 0 0
7499 1 10.758350075418964 -17.60752395626478 0.9467510812273049 0 0 0
7501 1 12.910943441350781 -17.608046466563614 2.191167911654906 0 0 0
7394 1 13.627201171572429 -19.641095132188408 3.435205016748646 0 0 0
7409 1 13.627201171619156 -19.641095132193264 0.9469050167344385 0 0 0
7411 1 15.779716505359211 -19.641091732919712 2.1912758990577226 0 0 0
7413 1 15.063545515098127 -17.608180865537914 3.4356086118538456 0 0 0
7414 1 15.063545515195063 -17.608180865509425 0.9473086117062502 0 0 0
7351 1 17.932085639670287 -19.640765688302157 3.4356346442381063 0 0 0
7352 1 17.932085639742226 -19.640765688306168 0.9473346440596317 0 0 0
7412 1 17.21586143923451 -17.607603854145232 2.191763432495713 0 0 0
7354 1 19.368163725904544 -17.607328073046148 3.4361699125486793 0 0 0
7363 1 19.368163726040894 -17.607328072971406 0.9478699126793775 0 0 0
7682 1 1.4326282563668782 -15.57240313503784 2.189362205234025 0 0 0
7683 1 2.8691651571294416 -13.539763085574382 2.189980429680498 0 0 0
7684 1 0.7164766778558118 -13.538434429853618 3.4332481926486937 0 0 0
7685 1 0.7164766778414526 -13.53843442990402 0.9449481928439055 0 0 0
7644 1 5.737292472769004 -15.572963093835549 2.1903711454374726 0 0 0
7645 1 3.5850798141313587 -15.57299279915409 3.434061785381349 0 0 0
7646 1 3.5850798141149256 -15.57299279919393 0.945761785498283 0 0 0
7650 1 5.02126652378091 -13.539382168095896 3.434697233786232 0 0 0
7663 1 5.021266523737155 -13.539382168027034 0.9463972336974986 0 0 0
7580 1 7.889570251383554 -15.573350516042801 3.4348619979592074 0 0 0
7595 1 7.889570251371318 -15.573350516069137 0.946561997764791 0 0 0
7599 1 9.325767497837331 -13.540701596204299 3.435164361260316 0 0 0
7600 1 9.32576749792308 -13.540701596228809 0.946864361293914 0 0 0
7665 1 7.1733580453626296 -13.539612100976823 2.190852644985408 0 0 0
7503 1 12.19463021536127 -15.57496440557575 3.435426580002512 0 0 0
7504 1 12.194630215222793 -15.574964405550322 0.9471265800553003 0 0 0
7597 1 10.042043178737867 -15.574176357998136 2.1909772609258322 0 0 0
7598 1 11.478204075972272 -13.54166317685466 2.1913175292378373 0 0 0
7502 1 14.347421390145705 -15.575500132225594 2.1916636281545925 0 0 0
7508 1 13.631392404413385 -13.54323928319954 3.435995258075113 0 0 0
7521 1 13.631392404323707 -13.543239283199094 0.9476952580559839 0 0 0
7523 1 15.783547432067138 -13.541564862979014 2.192634296289204 0 0 0
7418 1 16.499656102256672 -15.574499126068353 3.4362858994489773 0 0 0
7432 1 16.499656102254637 -15.574499126055462 0.9479858994929476 0 0 0
7434 1 18.651777550012103 -15.573873871880293 2.192563312692696 0 0 0
7435 1 17.93525217737309 -13.54010134394532 3.4375288728152875 0 0 0
7436 1 17.935252177410394 -13.540101344023808 0.9492288726838803 0 0 0
7530 1 2.861227462340981 -25.739615328428982 7.167031899740385 0 0 0
7531 1 0.7088721188155568 -25.73967094550653 5.922923854372388 0 0 0
7535 1 2.861227462350427 -25.73961532847919 4.678731899613324 0 0 0
7447 1 5.013605524391543 -25.73966489113057 5.922884072993769 0 0 0
7369 1 9.318443256002933 -25.73997239349279 5.922997380568733 0 0 0
7446 1 7.166011274307147 -25.739794530565174 4.678775660281301 0 0 0
7449 1 7.166011274254806 -25.739794530682943 7.167075660184059 0 0 0
7368 1 11.470904869334406 -25.740174061337164 7.167238546548953 0 0 0
7373 1 11.470904869334703 -25.74017406136451 4.678938546485511 0 0 0
7320 1 15.775853433259714 -25.740406500147966 4.67914120498063 0 0 0
7321 1 13.623383156273954 -25.740337468959037 5.923189281476736 0 0 0
7323 1 15.775853433172566 -25.740406500273487 7.1674412050389575 0 0 0
7308 1 17.928296828263548 -25.740379826168766 5.923386639886743 0 0 0
7537 1 2.1450264149459066 -23.706290593653996 5.922737126195672 0 0 0
7616 1 1.4288394975471748 -21.67294465978081 4.678382780488271 0 0 0
7617 1 1.428839497694139 -21.672944659661333 7.166682780506062 0 0 0
7451 1 6.449778104021025 -23.706468402307284 5.922830081101721 0 0 0
7536 1 4.297384775067483 -23.70632581829128 4.678607176828229 0 0 0
7539 1 4.297384775107596 -23.706325818299856 7.166907176779355 0 0 0
7540 1 5.733548419656493 -21.673115434726576 7.166862879013674 0 0 0
7541 1 3.5811696685274086 -21.67295480472693 5.922588669216351 0 0 0
7553 1 5.733548419606072 -21.673115434691812 4.678562879049172 0 0 0
7450 1 8.602198748939998 -23.706669798821405 7.167089176588654 0 0 0
7459 1 8.602198748895953 -23.706669798710777 4.678789176622396 0 0 0
7461 1 7.885947169802941 -21.673328786069238 5.922876042842048 0 0 0
7374 1 12.907155048871319 -23.707159312762617 4.6790549438999545 0 0 0
7375 1 10.754661200010943 -23.70692680907412 5.923068276695078 0 0 0
7377 1 12.907155048814115 -23.707159312822196 7.167354943866625 0 0 0
7379 1 12.190910378120268 -21.673977341831755 5.923234634978979 0 0 0
7460 1 10.038401649392195 -21.673647356158206 4.6789045194803895 0 0 0
7463 1 10.038401649461267 -21.67364735617081 7.167204519539154 0 0 0
7325 1 15.059646514638501 -23.707271737361854 5.923340601829581 0 0 0
7378 1 14.343431336758627 -21.67416657116314 7.167561017782319 0 0 0
7391 1 14.343431336583423 -21.674166571287092 4.6792610177635625 0 0 0
7311 1 19.364515350964563 -23.707131855940375 5.92357669879566 0 0 0
7324 1 17.21210064170351 -23.707235132337864 7.167617714663618 0 0 0
7333 1 17.21210064161687 -23.707235132521983 4.679317714685247 0 0 0
7334 1 18.648304925241582 -21.673945986397488 4.679577965982717 0 0 0
7335 1 16.4959057061423 -21.67412880838629 5.923579010353024 0 0 0
7337 1 18.6483049251865 -21.673945986502634 7.167877966092417 0 0 0
7618 1 2.864967136723391 -19.63953794390238 7.166521778294427 0 0 0
7619 1 0.7126795779187972 -19.639573585028216 5.922247562673237 0 0 0
7627 1 2.8649671368212 -19.639537943892407 4.678221778266882 0 0 0
7629 1 2.1487857660891674 -17.606044461583014 5.922106709558094 0 0 0
7555 1 5.0173349680286 -19.639738297954587 5.922578953432998 0 0 0
7628 1 4.301162802673094 -17.606351194316296 4.678296445845625 0 0 0
7631 1 4.301162802798879 -17.606351194199252 7.166596445854281 0 0 0
7559 1 6.453464771866926 -17.60648389150776 5.922785797838303 0 0 0
7465 1 9.322126112849837 -19.64031416779681 5.923055964622263 0 0 0
7554 1 7.169696312963272 -19.63993713484454 4.678667831173154 0 0 0
7557 1 7.169696312955793 -19.639937134775092 7.166967831167256 0 0 0
7558 1 8.605842201015628 -17.606895753946365 7.167235887121971 0 0 0
7577 1 8.605842201091713 -17.606895753826564 4.678935887214481 0 0 0
7464 1 11.474643114320257 -19.640775505932403 7.167432981799325 0 0 0
7481 1 11.474643114301669 -19.640775505915105 4.679132981695768 0 0 0
7483 1 10.75835007541888 -17.607523956250862 5.923351081351231 0 0 0
7482 1 12.910943441389682 -17.608046466504877 4.679467911651998 0 0 0
7485 1 12.91094344134841 -17.60804646658891 7.167767911631123 0 0 0
7392 1 15.779716505333523 -19.64109173295507 4.6795758991208265 0 0 0
7393 1 13.627201171554244 -19.641095132266557 5.923505016754965 0 0 0
7395 1 15.779716505266641 -19.641091732950386 7.16787589917 0 0 0
7397 1 15.063545515121126 -17.60818086549247 5.923908611812239 0 0 0
7338 1 17.93208563967047 -19.640765688339652 5.923934644052506 0 0 0
7396 1 17.215861439304707 -17.607603854082807 7.168363432524826 0 0 0
7415 1 17.21586143916997 -17.607603854091636 4.680063432495169 0 0 0
7353 1 19.368163725979812 -17.607328073047675 5.924469912686881 0 0 0
7675 1 1.4326282561785646 -15.572403135107058 4.677662205275482 0 0 0
7676 1 1.4326282563439283 -15.572403135064148 7.16596220528114 0 0 0
7677 1 2.8691651571701944 -13.53976308561622 7.16658042975709 0 0 0
7678 1 0.7164766777872212 -13.5384344299224 5.921548192787536 0 0 0
7686 1 2.8691651572934163 -13.539763085465705 4.678280429648769 0 0 0
7632 1 5.7372924727975665 -15.572963093878005 7.166971145453216 0 0 0
7633 1 3.5850798141560225 -15.572992799202261 5.9223617854708275 0 0 0
7647 1 5.73729247281411 -15.5729630936945 4.67867114546602 0 0 0
7649 1 5.021266523802488 -13.539382168120639 5.9229972336077354 0 0 0
7579 1 7.889570251399781 -15.573350516049146 5.923161997771191 0 0 0
7583 1 9.32576749793757 -13.540701596250154 5.923464361249035 0 0 0
7648 1 7.173358045357961 -13.539612101016283 4.679152645018188 0 0 0
7651 1 7.173358045353224 -13.539612101069984 7.167452645061835 0 0 0
7487 1 12.194630215313575 -15.574964405616695 5.923726580077831 0 0 0
7578 1 10.042043178647868 -15.574176358014032 4.679277260999993 0 0 0
7581 1 10.04204317878397 -15.574176357934233 7.167577260880878 0 0 0
7582 1 11.478204075935505 -13.541663176787964 7.167917529229331 0 0 0
7601 1 11.478204076060388 -13.541663176775732 4.67961752923009 0 0 0
7509 1 15.783547432122495 -13.541564862950903 7.169234296305015 0 0 0
7507 1 13.631392404406045 -13.543239283216394 5.924295257980001 0 0 0
7486 1 14.347421390144804 -15.575500132260835 7.168263628143412 0 0 0
7505 1 14.34742139009433 -15.575500132322254 4.67996362815673 0 0 0
7506 1 15.783547432166822 -13.541564863032306 4.680934296250018 0 0 0
7420 1 17.93525217738764 -13.540101343980574 5.925828872703654 0 0 0
7419 1 18.651777550073014 -15.573873871862856 7.169163312794715 0 0 0
7417 1 16.499656102348048 -15.574499126116113 5.924585899427865 0 0 0
7416 1 18.651777549979617 -15.573873871764608 4.680863312807415 0 0 0
7897 1 2.15357948487819 -11.506851777376607 -4.030316499624534 0 0 0
7898 1 2.1535794848683443 -11.506851777368263 -6.5186164994873455 0 0 0
7967 1 0.00018633982087355952 -11.50373794684343 -5.27589530880101 0 0 0
7896 1 4.30553468763318 -11.505822634268304 -5.273919796178115 0 0 0
7818 1 6.457319455404123 -11.505533876430636 -4.029684486795982 0 0 0
7834 1 6.4573194554196975 -11.50553387637331 -6.517984486852184 0 0 0
7835 1 8.609707366857403 -11.507149346767456 -5.27402477381929 0 0 0
7759 1 10.761474050761775 -11.507690432829738 -4.029600857788651 0 0 0
7760 1 10.761474050753685 -11.50769043277255 -6.517900857617068 0 0 0
7715 1 15.067718167244463 -11.509142680928953 -4.027427211282495 0 0 0
7725 1 15.067718167221095 -11.509142680977012 -6.515727211330603 0 0 0
7758 1 12.915556563787877 -11.511679392249885 -5.273016215574438 0 0 0
7726 1 17.218493174950474 -11.505600695818114 -5.270254402390262 0 0 0
7700 1 19.37147930738342 -11.508177145326245 -4.025199416795642 0 0 0
7701 1 19.371479307226302 -11.508177145398799 -6.513499416838477 0 0 0
7968 1 1.4383830929759138 -9.474852742834319 -5.273111326251664 0 0 0
7972 1 0.7235716772959578 -7.444623104834852 -4.025444636078082 0 0 0
7986 1 0.7235716774200677 -7.4446231048462845 -6.513744636133851 0 0 0
7987 1 2.876331133584038 -7.440330808342777 -5.271947866835696 0 0 0
7902 1 3.5905315238986106 -9.472409280042744 -4.028944951034148 0 0 0
7918 1 3.5905315238286635 -9.472409279993299 -6.517244951108315 0 0 0
7919 1 5.741500626941088 -9.470859808288052 -5.273568563151193 0 0 0
7921 1 5.026314750827902 -7.433874156707676 -4.029106583953549 0 0 0
7922 1 5.026314750697471 -7.433874156800228 -6.517406583858415 0 0 0
7837 1 7.894548324992139 -9.473937983488005 -4.030551682423454 0 0 0
7838 1 7.89454832495461 -9.473937983618882 -6.518851682393342 0 0 0
7842 1 9.3264273503949 -7.430663930165768 -4.031738247472374 0 0 0
7856 1 9.32642735034318 -7.430663930238009 -6.5200382476091026 0 0 0
7920 1 7.18157561379774 -7.443310736572674 -5.276850417133429 0 0 0
7764 1 12.199746817966622 -9.481421417360842 -4.029275188581745 0 0 0
7779 1 12.19974681787374 -9.48142141735214 -6.517575188606903 0 0 0
7836 1 10.044148285178816 -9.471766761354173 -5.2743950775815005 0 0 0
7857 1 11.483817111373359 -7.452363606143137 -5.275107621042244 0 0 0
7780 1 14.352755827535606 -9.478027858158052 -5.2705244416747075 0 0 0
7781 1 15.783033187691093 -7.428509947419579 -5.2649229552809835 0 0 0
7782 1 13.638839844005373 -7.4512676688696216 -4.024399287086956 0 0 0
7783 1 13.638839843919008 -7.45126766887434 -6.512699287087342 0 0 0
7727 1 18.65539170380389 -9.475765223114013 -5.266347007459948 0 0 0
7728 1 16.501177812551063 -9.469451546645574 -4.024073789748524 0 0 0
7729 1 16.501177812563935 -9.469451546721455 -6.51237378991729 0 0 0
7732 1 17.940374612121012 -7.445858188992663 -4.0166310961861305 0 0 0
7735 1 17.940374612269242 -7.445858188846807 -6.504931096292967 0 0 0
7989 1 2.1639833667885897 -5.411471712556832 -4.027746755210122 0 0 0
7990 1 2.1639833667177903 -5.41147171263392 -6.5160467551531305 0 0 0
8020 1 0.011734510229166805 -5.416112177984884 -5.260372528473943 0 0 0
8021 1 1.4648191062697666 -3.382263666242492 -5.2820104559174865 0 0 0
7988 1 4.307533545764108 -5.393373620732678 -5.272360812882311 0 0 0
7994 1 3.5822625124978678 -3.329353500436213 -4.023357305000867 0 0 0
8000 1 3.5822625126245575 -3.329353500256207 -6.511657305094845 0 0 0
8001 1 5.775499125149236 -3.422178329005447 -5.30155686648709 0 0 0
7926 1 6.476742565420117 -5.418519123496028 -4.038885404191563 0 0 0
7936 1 6.476742565377471 -5.4185191233479655 -6.527185404079902 0 0 0
7937 1 8.607803621886577 -5.380510517241809 -5.2782085169476245 0 0 0
7939 1 7.90490180390301 -3.296610130934305 -4.034460802210066 0 0 0
7940 1 7.904901803672136 -3.296610130956234 -6.522760802106903 0 0 0
7859 1 10.769907986864796 -5.421979864914528 -4.036469289935409 0 0 0
7860 1 10.769907986920801 -5.42197986488496 -6.524769289791122 0 0 0
7864 1 12.232632058258382 -3.429900866812443 -4.0029161731975975 0 0 0
7870 1 12.23263205833954 -3.429900866937241 -6.4912161732149976 0 0 0
7938 1 10.056997885604213 -3.389578257536855 -5.298674454076136 0 0 0
7787 1 15.057161574914106 -5.379569660790125 -4.015789272812966 0 0 0
7795 1 15.05716157496996 -5.37956966055902 -6.504089272714072 0 0 0
7858 1 12.928422266037087 -5.433119757891522 -5.263598660955427 0 0 0
7871 1 14.323556259446217 -3.2903660957520198 -5.252523206289631 0 0 0
7796 1 17.23160712698073 -5.420669330881418 -5.249573560787145 0 0 0
7797 1 18.668085767697928 -3.331088818189206 -5.256165776446669 0 0 0
7798 1 16.51787998838225 -3.4237954104514317 -3.9800769152564692 0 0 0
7799 1 16.51787998814019 -3.4237954104750346 -6.468376915149251 0 0 0
7736 1 19.369776509616425 -5.393909557660041 -4.013938201217482 0 0 0
7737 1 19.369776509444836 -5.393909557976892 -6.502238201496589 0 0 0
8025 1 0.7443853757010145 -1.4110427736626818 -4.110114368053748 0 0 0
8027 1 0.7443853757283163 -1.4110427735749267 -6.59841436802023 0 0 0
8028 1 2.9290645085810056 -1.1676764043437975 -5.24118979319178 0 0 0
8003 1 5.064759715807819 -1.4651754522258587 -4.1162728451178205 0 0 0
8004 1 5.064759715804667 -1.4651754525531586 -6.604572845491113 0 0 0
7944 1 9.428950095651615 -1.3049589536007722 -4.10182521438926 0 0 0
7946 1 9.4289500955478 -1.3049589535853001 -6.590125214446118 0 0 0
8002 1 7.163870679248121 -1.2166449209295738 -5.219008249001947 0 0 0
7947 1 11.561680806390864 -1.4842473339579034 -5.18594619767351 0 0 0
7872 1 15.809685859054845 -1.443150229870994 -5.166009423122532 0 0 0
7873 1 13.66329588220163 -1.0767659234496243 -4.006970638601931 0 0 0
7874 1 13.663295882365503 -1.0767659234861624 -6.495270638715954 0 0 0
7802 1 17.92118505108421 -1.3106800107563776 -4.068011002233413 0 0 0
7803 1 17.92118505109 -1.3106800106766214 -6.556311002110062 0 0 0
2356 1 0.0001863396900276072 -11.5037379468758 -2.78759530876277 0 0 0
7884 1 2.1535794848922434 -11.506851777435593 -1.5420164994762897 0 0 0
7954 1 0.00018633978462610288 -11.50373794680817 -0.29929530890725675 0 0 0
7882 1 4.305534687731984 -11.505822634280406 -0.29731979627385585 0 0 0
7899 1 4.305534687751216 -11.505822634213697 -2.785619796308247 0 0 0
7816 1 8.609707366820592 -11.507149346802919 -2.785724773685436 0 0 0
7817 1 6.4573194554197 -11.505533876424009 -1.5413844868160134 0 0 0
7819 1 8.609707366839466 -11.50714934672699 -0.29742477378193877 0 0 0
7746 1 10.761474050749618 -11.507690432792485 -1.5413008575594576 0 0 0
7714 1 15.067718167320132 -11.509142680937625 -1.5391272113353447 0 0 0
7744 1 12.915556563789776 -11.511679392254019 -0.2964162156219169 0 0 0
7761 1 12.915556563844829 -11.511679392179436 -2.7847162156839294 0 0 0
7713 1 17.218493175013702 -11.505600695680902 -2.781954402278257 0 0 0
7716 1 17.218493175007325 -11.505600695807754 -0.29365440240925195 0 0 0
7699 1 19.371479307249505 -11.508177145338966 -1.5368994168679624 0 0 0
7955 1 1.4383830928718744 -9.474852742819756 -0.29651132626624377 0 0 0
7969 1 1.438383092961613 -9.4748527427604 -2.7848113263133265 0 0 0
7970 1 2.8763311334835318 -7.44033080833118 -2.783647866625758 0 0 0
7971 1 0.7235716773667374 -7.44462310482347 -1.5371446361671226 0 0 0
7973 1 2.8763311336108544 -7.440330808300682 -0.29534786670682023 0 0 0
7900 1 5.741500626775078 -9.470859808261556 -2.7852685630663694 0 0 0
7901 1 3.590531523905167 -9.47240927995228 -1.5406449510749656 0 0 0
7903 1 5.741500626942965 -9.470859808328576 -0.2969685631540128 0 0 0
7906 1 5.026314750730816 -7.433874156764535 -1.5408065837969036 0 0 0
7822 1 7.894548325023072 -9.47393798357811 -1.542251682386787 0 0 0
7841 1 9.326427350478557 -7.43066393025366 -1.5434382475955915 0 0 0
7904 1 7.181575613790735 -7.443310736576436 -0.300250417075165 0 0 0
7923 1 7.181575613904865 -7.443310736537052 -2.7885504172884312 0 0 0
7763 1 12.199746817955425 -9.481421417343117 -1.5409751886719072 0 0 0
7820 1 10.04414828508306 -9.471766761397928 -0.29779507757643614 0 0 0
7839 1 10.044148285088662 -9.47176676119773 -2.786095077515256 0 0 0
7840 1 11.483817111353433 -7.452363606160918 -2.7868076209286543 0 0 0
7843 1 11.48381711131123 -7.452363606196458 -0.2985076210183082 0 0 0
7762 1 14.35275582746276 -9.478027858169325 -2.78222444163796 0 0 0
7765 1 14.352755827525103 -9.47802785815563 -0.2939244417124432 0 0 0
7766 1 15.783033187663113 -7.428509947475266 -0.2883229552835726 0 0 0
7768 1 13.638839843971994 -7.451267668867791 -1.5360992870200296 0 0 0
7784 1 15.78303318763584 -7.428509947446308 -2.7766229553725523 0 0 0
7717 1 18.655391703844394 -9.475765223152374 -0.28974700752149135 0 0 0
7719 1 16.501177812555067 -9.469451546742649 -1.5357737898819928 0 0 0
7730 1 18.65539170364578 -9.475765223245833 -2.7780470076184445 0 0 0
7731 1 17.94037461225057 -7.44585818887141 -1.5283310962803418 0 0 0
7976 1 2.163983366760909 -5.411471712673397 -1.5394467551742783 0 0 0
8012 1 0.011734510205047396 -5.41611217793582 -2.7720725285468952 0 0 0
8013 1 0.011734510271625778 -5.416112177903734 -0.28377252854653645 0 0 0
8014 1 1.4648191062879052 -3.3822636662327397 -0.30541045590404936 0 0 0
8022 1 1.4648191062837483 -3.3822636662652705 -2.7937104561033927 0 0 0
7974 1 4.307533545719175 -5.393373620727714 -0.29576081307201524 0 0 0
7991 1 4.3075335457105295 -5.393373620632254 -2.7840608129981326 0 0 0
7992 1 5.77549912491703 -3.422178328867624 -2.8132568661030035 0 0 0
7993 1 3.5822625126931835 -3.329353500340657 -1.535057305107356 0 0 0
7995 1 5.775499125052718 -3.4221783290273273 -0.32495686644991567 0 0 0
7924 1 8.607803621898224 -5.3805105171663135 -2.7899085171386178 0 0 0
7925 1 6.47674256537443 -5.418519123338609 -1.5505854040776792 0 0 0
7927 1 8.607803621944251 -5.380510517184931 -0.30160851701873925 0 0 0
7930 1 7.904901803761053 -3.296610131073345 -1.546160802083247 0 0 0
7846 1 10.769907986919806 -5.42197986491144 -1.5481692898500914 0 0 0
7863 1 12.232632058383006 -3.4299008669190165 -1.5146161732089278 0 0 0
7928 1 10.056997885647247 -3.3895782575970874 -0.3220744541299662 0 0 0
7941 1 10.056997885568345 -3.3895782575671185 -2.810374454255229 0 0 0
7786 1 15.057161574932916 -5.379569660627961 -1.5274892725851903 0 0 0
7844 1 12.92842226606851 -5.433119757993959 -0.28699866101135196 0 0 0
7861 1 12.928422266029331 -5.433119757888627 -2.7752986608301238 0 0 0
7862 1 14.323556259353735 -3.2903660957423715 -2.7642232061350787 0 0 0
7865 1 14.323556259441842 -3.2903660957751164 -0.2759232062581195 0 0 0
7785 1 17.231607127075613 -5.420669330980883 -2.7612735607534376 0 0 0
7788 1 17.23160712698209 -5.4206693308468115 -0.27297356077348206 0 0 0
7789 1 18.6680857676528 -3.331088818225207 -0.27956577648235437 0 0 0
7791 1 16.51787998815532 -3.4237954104631734 -1.4917769151235685 0 0 0
7800 1 18.66808576772359 -3.331088818276801 -2.7678657770833186 0 0 0
7734 1 19.369776509462003 -5.393909558040979 -1.525638201495197 0 0 0
8023 1 2.929064508786921 -1.1676764043425398 -2.7528897931596714 0 0 0
8024 1 0.7443853756996163 -1.4110427736160145 -1.6218143679816432 0 0 0
8026 1 2.9290645086136853 -1.167676404301221 -0.26458979313902525 0 0 0
7998 1 5.064759715749668 -1.4651754525623975 -1.627972845467527 0 0 0
7943 1 9.428950095518019 -1.3049589535776733 -1.6135252143809795 0 0 0
7996 1 7.1638706793082765 -1.2166449210120072 -0.24240824894083096 0 0 0
8005 1 7.163870679307691 -1.2166449209570667 -2.7307082490010046 0 0 0
7942 1 11.561680806435938 -1.484247333872983 -2.697646198076228 0 0 0
7945 1 11.561680806430505 -1.4842473338811792 -0.20934619774934773 0 0 0
7866 1 15.809685859032856 -1.4431502298883854 -0.18940942311351933 0 0 0
7868 1 13.663295882377453 -1.076765923415061 -1.5186706387219964 0 0 0
7875 1 15.809685858990138 -1.443150229955427 -2.6777094230944667 0 0 0
7801 1 17.921185051057453 -1.3106800106677494 -1.579711002118667 0 0 0
2351 1 0.0001863397577411154 -11.50373794692312 2.189004691224028 0 0 0
7878 1 2.1535794848530907 -11.5068517773788 3.434583500509353 0 0 0
7883 1 2.1535794849325054 -11.506851777338268 0.9462835003687913 0 0 0
7885 1 4.3055346877170395 -11.505822634177996 2.1909802037368697 0 0 0
7806 1 8.609707366774353 -11.507149346824244 2.1908752262402036 0 0 0
7807 1 6.457319455453104 -11.505533876416992 3.4352155131041946 0 0 0
7808 1 6.457319455374385 -11.50553387636568 0.946915513273119 0 0 0
7740 1 10.76147405071221 -11.507690432851852 3.4352991423068935 0 0 0
7745 1 10.76147405078524 -11.50769043278836 0.946999142260706 0 0 0
7705 1 15.067718167264097 -11.509142680889752 3.4374727886248184 0 0 0
7706 1 15.06771816716464 -11.509142680966784 0.9491727886831962 0 0 0
7747 1 12.915556563833633 -11.511679392235273 2.191883784372777 0 0 0
7704 1 17.218493174928074 -11.505600695756723 2.1946455977075394 0 0 0
7697 1 19.371479307256184 -11.508177145385547 3.4397005831517853 0 0 0
7698 1 19.37147930731257 -11.508177145325726 0.9514005832100754 0 0 0
7956 1 1.4383830930490857 -9.474852742733802 2.1917886737364127 0 0 0
7957 1 2.8763311335300865 -7.440330808361018 2.1929521332838684 0 0 0
7958 1 0.7235716773569582 -7.4446231047988265 3.4394553638325975 0 0 0
7959 1 0.7235716773731147 -7.444623104873671 0.9511553639753381 0 0 0
7886 1 5.741500626932032 -9.470859808346496 2.191331436832571 0 0 0
7887 1 3.5905315239128286 -9.472409279955347 3.435955048918617 0 0 0
7888 1 3.5905315238455993 -9.472409280037104 0.947655048963101 0 0 0
7892 1 5.026314750711423 -7.433874156722289 3.4357934161407884 0 0 0
7905 1 5.026314750792222 -7.433874156773405 0.9474934160265667 0 0 0
7812 1 7.894548325042254 -9.473937983567053 3.43434831763817 0 0 0
7821 1 7.8945483249376505 -9.473937983539754 0.9460483175679961 0 0 0
7825 1 9.3264273504422 -7.43066393016769 3.433161752422131 0 0 0
7826 1 9.32642735027638 -7.430663930212015 0.9448617524972279 0 0 0
7907 1 7.181575613873889 -7.443310736567689 2.18804958270225 0 0 0
7749 1 12.19974681794489 -9.481421417351095 3.4356248113876617 0 0 0
7750 1 12.199746817892215 -9.481421417386535 0.9473248113990509 0 0 0
7823 1 10.044148285214499 -9.471766761269171 2.1905049224699273 0 0 0
7824 1 11.483817111300482 -7.4523636061866885 2.1897923790579767 0 0 0
7748 1 14.352755827523824 -9.478027858186131 2.194375558288221 0 0 0
7754 1 13.638839843932942 -7.451267668841865 3.440500713034964 0 0 0
7767 1 13.638839843974948 -7.451267668886512 0.9522007128350456 0 0 0
7769 1 15.783033187733292 -7.428509947425881 2.199977044552591 0 0 0
7710 1 16.501177812508786 -9.469451546713996 3.4408262101633507 0 0 0
7718 1 16.50117781256559 -9.46945154663805 0.9525262101633121 0 0 0
7720 1 18.655391703714752 -9.475765223147095 2.198552992474304 0 0 0
7721 1 17.94037461228666 -7.445858188878303 3.4482689037578744 0 0 0
7722 1 17.940374612106183 -7.445858188981583 0.9599689037566158 0 0 0
7963 1 2.1639833667448123 -5.411471712681791 3.4371532447553284 0 0 0
7975 1 2.1639833667033925 -5.4114717125106555 0.9488532448555903 0 0 0
8006 1 0.011734510204868032 -5.416112178022455 2.2045274714608847 0 0 0
8015 1 1.4648191063183558 -3.3822636662482632 2.1828895438545404 0 0 0
7977 1 4.307533545703668 -5.3933736206920635 2.1925391871084474 0 0 0
7978 1 5.77549912505865 -3.422178328878273 2.1633431339072238 0 0 0
7979 1 3.582262512700429 -3.329353500342938 3.4415426949348067 0 0 0
7980 1 3.5822625124100393 -3.329353500362652 0.9532426949829017 0 0 0
7908 1 8.607803621917071 -5.380510517259476 2.1866914830386714 0 0 0
7909 1 6.47674256537309 -5.418519123339892 3.426014595921379 0 0 0
7910 1 6.476742565404651 -5.418519123520964 0.9377145957926465 0 0 0
7914 1 7.904901803790508 -3.2966101309687783 3.43043919789767 0 0 0
7929 1 7.904901803787151 -3.2966101309343503 0.9421391978092386 0 0 0
7830 1 10.769907986955557 -5.421979864950948 3.428430710048009 0 0 0
7845 1 10.76990798688074 -5.421979864848222 0.9401307102341734 0 0 0
7849 1 12.232632058399462 -3.4299008669417845 3.46198382679801 0 0 0
7850 1 12.232632058265295 -3.4299008667751734 0.9736838268584281 0 0 0
7931 1 10.056997885653292 -3.389578257566889 2.166225545826348 0 0 0
7771 1 15.057161574887415 -5.379569660720117 3.4491107272380943 0 0 0
7772 1 15.05716157497852 -5.379569660619045 0.9608107271815325 0 0 0
7847 1 12.92842226602227 -5.4331197578258115 2.2013013391715353 0 0 0
7848 1 14.323556259404267 -3.2903660957764935 2.212376793831267 0 0 0
7770 1 17.23160712708972 -5.420669330917071 2.215326439321118 0 0 0
7776 1 16.517879988243827 -3.4237954104751984 3.484823084859088 0 0 0
7790 1 16.51787998827133 -3.4237954104386175 0.9965230847091128 0 0 0
7792 1 18.66808576779483 -3.331088818310043 2.2087342229607017 0 0 0
7724 1 19.36977650947018 -5.393909558047119 3.450961798421697 0 0 0
7733 1 19.36977650957793 -5.3939095575955225 0.9626617989212266 0 0 0
8016 1 2.9290645087102485 -1.167676404341266 2.223710206826297 0 0 0
8017 1 0.744385375687981 -1.41104277360208 3.3547856319648934 0 0 0
8018 1 0.7443853757579512 -1.4110427736247133 0.8664856319310964 0 0 0
7984 1 5.064759715819251 -1.4651754525595333 3.3486271545430744 0 0 0
7997 1 5.064759715798545 -1.4651754522668783 0.8603271548715226 0 0 0
7933 1 9.42895009562219 -1.3049589536071486 3.3630747855731604 0 0 0
7934 1 9.428950095577846 -1.304958953573117 0.8747747855675517 0 0 0
7999 1 7.16387067919927 -1.2166449209143082 2.245891750945511 0 0 0
7932 1 11.56168080640198 -1.4842473338640365 2.278953801966967 0 0 0
7854 1 13.66329588234692 -1.0767659234494587 3.457929361366426 0 0 0
7867 1 13.663295882217355 -1.076765923462142 0.9696293613353436 0 0 0
7869 1 15.809685859013259 -1.4431502298280396 2.298890576926163 0 0 0
7793 1 17.921185051051665 -1.3106800106368433 3.3968889979285057 0 0 0
7794 1 17.92118505110806 -1.31068001076765 0.9085889977204111 0 0 0
7877 1 2.1535794849261496 -11.506851777397742 5.922883500395892 0 0 0
7948 1 0.00018633969392405162 -11.503737946933871 7.165604691155887 0 0 0
7949 1 0.00018633977326541087 -11.503737946764344 4.677304691190911 0 0 0
7876 1 4.305534687684401 -11.505822634311771 4.679280203773294 0 0 0
7879 1 4.305534687807747 -11.505822634212757 7.167580203646418 0 0 0
7804 1 8.609707366761665 -11.507149346806008 7.167475226292582 0 0 0
7805 1 6.457319455371617 -11.505533876443199 5.9235155132972865 0 0 0
7809 1 8.609707366883057 -11.50714934673838 4.679175226253178 0 0 0
7739 1 10.761474050756588 -11.507690432828923 5.923599142332141 0 0 0
7703 1 15.067718167240008 -11.509142680938147 5.925772788731137 0 0 0
7738 1 12.915556563785417 -11.511679392233201 4.680183784376572 0 0 0
7741 1 12.915556563835707 -11.511679392219296 7.168483784311493 0 0 0
7702 1 17.21849317496711 -11.505600695735989 7.171245597671441 0 0 0
7707 1 17.218493174966248 -11.505600695712658 4.68294559761416 0 0 0
7696 1 19.371479307320676 -11.508177145288446 5.928000583156461 0 0 0
7950 1 1.438383092922 -9.47485274282316 4.680088673694096 0 0 0
7951 1 1.4383830929257353 -9.4748527427163 7.168388673741896 0 0 0
7952 1 2.876331133545079 -7.440330808320794 7.169552133467728 0 0 0
7953 1 0.7235716772866514 -7.444623104825221 5.927755363891582 0 0 0
7960 1 2.876331133521171 -7.440330808267162 4.681252133224367 0 0 0
7880 1 5.741500626911562 -9.470859808408337 7.167931436863521 0 0 0
7881 1 3.5905315239211353 -9.472409279998582 5.924255048997457 0 0 0
7889 1 5.74150062682002 -9.470859808178563 4.679631436953913 0 0 0
7891 1 5.026314750803848 -7.433874156709287 5.924093416095301 0 0 0
7811 1 7.894548325026602 -9.473937983539267 5.9226483175568205 0 0 0
7815 1 9.326427350391263 -7.430663930250617 5.9214617525246585 0 0 0
7890 1 7.181575613819702 -7.443310736547117 4.6763495828800945 0 0 0
7893 1 7.181575613845727 -7.443310736590968 7.164649582719323 0 0 0
7743 1 12.199746817981483 -9.481421417383947 5.923924811356526 0 0 0
7810 1 10.044148285089069 -9.471766761273281 4.678804922434574 0 0 0
7813 1 10.0441482851233 -9.47176676130673 7.16710492246759 0 0 0
7814 1 11.48381711125883 -7.452363606228049 7.166392379041425 0 0 0
7827 1 11.483817111405475 -7.452363606134754 4.678092378986292 0 0 0
7742 1 14.352755827562616 -9.478027858211348 7.170975558280526 0 0 0
7751 1 14.352755827453773 -9.47802785810298 4.682675558376012 0 0 0
7752 1 15.783033187606804 -7.428509947364826 4.688277044758143 0 0 0
7753 1 13.638839844044071 -7.451267668905854 5.928800712845986 0 0 0
7755 1 15.783033187707154 -7.428509947483156 7.176577044548675 0 0 0
7708 1 18.655391703744506 -9.475765223200769 4.686852992432955 0 0 0
7709 1 16.50117781257508 -9.469451546615266 5.929126210172973 0 0 0
7711 1 18.655391703744044 -9.475765223215344 7.175152992382728 0 0 0
7712 1 17.940374612084245 -7.445858188998145 5.936568903767246 0 0 0
2382 1 0.011734510225765219 -5.416112177962752 7.181127471438629 0 0 0
7962 1 2.1639833667394437 -5.41147171253794 5.925453244829296 0 0 0
8007 1 0.011734510206213853 -5.4161121778687615 4.69282747149562 0 0 0
8008 1 1.4648191062517018 -3.382263666241477 4.671189544090295 0 0 0
8009 1 1.4648191063097158 -3.3822636662483525 7.159489543856788 0 0 0
7961 1 4.307533545736488 -5.393373620648605 4.680839186981682 0 0 0
7964 1 4.307533545692002 -5.393373620680945 7.169139186923008 0 0 0
7965 1 5.77549912497301 -3.422178328855174 7.139943133933699 0 0 0
7966 1 3.5822625124914733 -3.329353500431363 5.929842694963788 0 0 0
7981 1 5.775499125002488 -3.422178329025292 4.651643133525021 0 0 0
7894 1 8.607803621973426 -5.380510517226422 7.163291482903548 0 0 0
7895 1 6.476742565418923 -5.418519123494868 5.914314595802346 0 0 0
7911 1 8.607803621890566 -5.380510517133746 4.674991482901648 0 0 0
7913 1 7.904901803873041 -3.296610131031417 5.918739197810302 0 0 0
7829 1 10.769907986868102 -5.421979864890125 5.916730710171986 0 0 0
7833 1 12.23263205828948 -3.429900866775326 5.9502838268221305 0 0 0
7912 1 10.056997885571079 -3.389578257527373 4.65452554581568 0 0 0
7915 1 10.056997885659973 -3.3895782576176803 7.142825545765891 0 0 0
7757 1 15.057161574915133 -5.379569660690718 5.937410727342775 0 0 0
7828 1 12.928422266033676 -5.433119757938564 4.689601339039057 0 0 0
7831 1 12.928422266051784 -5.4331197579388775 7.177901339166325 0 0 0
7832 1 14.32355625940816 -3.2903660957797936 7.188976793826127 0 0 0
7851 1 14.323556259445029 -3.290366095751598 4.700676793760062 0 0 0
7756 1 17.23160712708983 -5.420669330871887 7.191926439276334 0 0 0
7773 1 17.231607126954486 -5.420669330944151 4.703626439155882 0 0 0
7774 1 18.668085767591943 -3.331088818156884 4.697034223503321 0 0 0
7775 1 16.517879988307843 -3.423795410432576 5.973123084737217 0 0 0
7777 1 18.668085767755418 -3.3310888183489356 7.18533422294868 0 0 0
7723 1 19.36977650958667 -5.393909557666274 5.939261798876997 0 0 0
8010 1 2.92906450870484 -1.1676764043183288 7.200310206846986 0 0 0
8011 1 0.7443853757069646 -1.411042773659056 5.843085631933672 0 0 0
8019 1 2.9290645086686484 -1.1676764043507795 4.712010206834446 0 0 0
7983 1 5.06475971574311 -1.465175452237204 5.83692715487773 0 0 0
7917 1 9.42895009550201 -1.3049589535641084 5.851374785605749 0 0 0
7982 1 7.163870679319284 -1.2166449209854477 4.734191751054033 0 0 0
7985 1 7.163870679256882 -1.2166449209571117 7.222491750960123 0 0 0
7916 1 11.561680806438675 -1.484247333788436 7.255553801869336 0 0 0
7935 1 11.561680806421693 -1.4842473339482751 4.767253802292349 0 0 0
7852 1 15.809685859033925 -1.443150230019318 4.78719057684703 0 0 0
7853 1 13.663295882231564 -1.0767659234041629 5.946229361295994 0 0 0
7855 1 15.809685859017202 -1.4431502298449967 7.275490576927442 0 0 0
7778 1 17.92118505109298 -1.3106800107727998 5.885188997739404 0 0 0
2676 1 1.3548942274788307 0.6414195393871067 -5.7506997996071165 0 0 0
2686 1 1.349958466547325 3.1148878581601536 -5.8984485305486585 0 0 0
8396 1 3.0986467933344835 1.8132466208241855 -7.056348476588106 0 0 1
8405 1 3.0986467934363 1.8132466208144724 -4.5680484767329155 0 0 0
8351 1 4.8439488165092115 0.5901726446307611 -5.6346651276846025 0 0 0
8370 1 4.855495708498112 3.084952661181932 -5.8899807093661085 0 0 0
8285 1 8.38890734884942 0.6656039401236027 -5.918151812592933 0 0 0
8304 1 8.345660784614354 3.1376983056559395 -5.930026336129397 0 0 0
8332 1 6.6184652131599355 1.817822115788538 -7.112807071896219 0 0 1
8349 1 6.618465212993766 1.8178221157997174 -4.624507072086801 0 0 0
8219 1 11.74434437801086 0.5790224644456247 -6.182217052690096 0 0 0
8238 1 11.916340703603776 3.0496927297591125 -5.972853982233871 0 0 0
8266 1 10.091532891440052 1.8930439301328243 -7.232933269780509 0 0 1
8283 1 10.091532891363594 1.8930439300543263 -4.744633270388749 0 0 0
8153 1 15.505040061112513 0.6014091511037601 -6.178734289968079 0 0 0
8172 1 15.380112130892497 3.0384620205574704 -5.964266966495066 0 0 0
8200 1 13.628179637459295 1.6484419323046555 -7.309225954615428 0 0 1
8217 1 13.628179637495764 1.6484419323180408 -4.820925954655897 0 0 0
8087 1 18.967456961001577 0.6630060095748502 -5.911810040663347 0 0 0
8106 1 18.943290872934647 3.1407679436447844 -5.923711779511964 0 0 0
8134 1 17.216464119587854 1.8587168395978575 -7.227115861206797 0 0 1
8151 1 17.216464119566876 1.8587168395626505 -4.738815861284577 0 0 0
2688 1 1.3354212941944974 5.583016004470531 -5.920166034413655 0 0 0
8397 1 3.10475503003132 4.327149984644547 -7.152327571707316 0 0 1
8403 1 3.091106205745516 6.823654904948704 -7.166708828644774 0 0 1
8415 1 3.10475503010543 4.327149984514829 -4.664027571620056 0 0 0
8416 1 3.09110620582045 6.823654904942547 -4.678408828927691 0 0 0
8374 1 4.848610653211323 5.585744801473768 -5.918812151555517 0 0 0
8308 1 8.373010339901281 5.588347895614055 -5.929118383455288 0 0 0
8333 1 6.594481376827678 4.337357561352131 -7.161570624876318 0 0 1
8346 1 6.611383682837481 6.825164380920819 -7.169837415600077 0 0 1
8371 1 6.594481376781798 4.3373575613258595 -4.673270624516247 0 0 0
8372 1 6.611383682767509 6.825164380918496 -4.681537415882199 0 0 0
8242 1 11.90835926900412 5.554335200750354 -5.940514667055069 0 0 0
8267 1 10.146603533237018 4.331146915825044 -7.1847781401753235 0 0 1
8280 1 10.144771383483357 6.812596046059147 -7.176377230520089 0 0 1
8305 1 10.146603533111525 4.331146915814653 -4.696478139945035 0 0 0
8306 1 10.144771383433655 6.812596046042825 -4.688077230936905 0 0 0
8176 1 15.39581072000434 5.549804872905894 -5.9396168616149545 0 0 0
8201 1 13.65141059833778 4.267158407516285 -7.2010261868133805 0 0 1
8214 1 13.653898640811569 6.793555255789666 -7.179693325304051 0 0 1
8239 1 13.651410598388752 4.267158407523606 -4.712726186314919 0 0 0
8240 1 13.653898640869526 6.7935552557432795 -4.69139332544098 0 0 0
8110 1 18.932856833298217 5.579355055224905 -5.92631697544835 0 0 0
8135 1 17.148268603055218 4.318247075519071 -7.181097028493195 0 0 1
8148 1 17.162973764020556 6.803884571388642 -7.175010972568201 0 0 1
8173 1 17.148268603066505 4.318247075638185 -4.69279702821094 0 0 0
8174 1 17.162973763967262 6.803884571378888 -4.686710972786671 0 0 0
2695 1 1.328192900961158 8.066044016945144 -5.925114624181317 0 0 0
2697 1 1.327828237407532 10.552256495176664 -5.926396249004499 0 0 0
8404 1 3.089517683208062 9.310227309530356 -7.17021120797221 0 0 1
8422 1 3.089517683226021 9.310227309584462 -4.681911207823366 0 0 0
8386 1 4.851406417696335 8.069565049191539 -5.925547989668866 0 0 0
8390 1 4.853020800538236 10.553054558185194 -5.926854623758512 0 0 0
8320 1 8.37950226010592 8.064047701015392 -5.928535557594186 0 0 0
8324 1 8.379024816104055 10.54920187343536 -5.927797859119995 0 0 0
8347 1 6.616100411853532 9.308845363409999 -7.171379649648346 0 0 1
8387 1 6.616100411840399 9.30884536347575 -4.683079649366661 0 0 0
8254 1 11.901409748876036 8.051147436901116 -5.931444443125301 0 0 0
8258 1 11.899553617163107 10.54356018813264 -5.9285316991625425 0 0 0
8281 1 10.14133825169283 9.301475820044573 -7.173156299018671 0 0 1
8321 1 10.141338251717091 9.30147582011751 -4.684856298816428 0 0 0
8188 1 15.409346113256609 8.04717996019123 -5.930899307778827 0 0 0
8192 1 15.415873184106353 10.539731304391397 -5.928248344618028 0 0 0
8215 1 13.656564168716711 9.294205407849688 -7.173839559078692 0 0 1
8255 1 13.656564168711935 9.294205407880318 -4.685539558896066 0 0 0
8122 1 18.93408787687116 8.052252547229905 -5.927086410354009 0 0 0
8126 1 18.936662227264513 10.538845753143839 -5.927030254914691 0 0 0
8149 1 17.172772437046365 9.293361178653232 -7.172398221380175 0 0 1
8189 1 17.172772436949653 9.293361178646599 -4.684098221258631 0 0 0
2700 1 1.3285557875044811 13.03868661083993 -5.926695164179547 0 0 0
8414 1 3.0904643093280084 11.795771221327156 -7.1708977234859725 0 0 1
8423 1 3.0904643093496653 11.79577122128076 -4.682597723663102 0 0 0
8394 1 4.853345061557243 13.038475742933526 -5.926978973185414 0 0 0
8328 1 8.377651457981713 13.036391768341481 -5.927323239756526 0 0 0
8368 1 6.616137234778359 11.794260413826139 -7.171391471537902 0 0 1
8388 1 6.616137234805814 11.794260413790164 -4.683091471780774 0 0 0
8262 1 11.89908708592804 13.033470037741973 -5.927520375921783 0 0 0
8302 1 10.139373086323856 11.790626055144275 -7.171919962457051 0 0 1
8322 1 10.139373086283532 11.79062605505277 -4.683619962761625 0 0 0
8196 1 15.418572401739386 13.030389205805172 -5.927375666820158 0 0 0
8236 1 13.658415930184555 11.786663366223298 -7.1720359811749885 0 0 1
8256 1 13.65841593018692 11.786663366209885 -4.683735981462744 0 0 0
8130 1 18.938698407410353 13.02845328529494 -5.926931859011579 0 0 0
8170 1 17.177245077974657 11.783900299851929 -7.171529777067302 0 0 1
8190 1 17.177245078011694 11.783900299859193 -4.68322977723165 0 0 0
2669 1 1.3548942274672298 0.6414195392669947 -0.7740997996195234 0 0 0
2675 1 1.354894227425134 0.6414195393959666 -3.262399799578823 0 0 0
2677 1 1.3499584664902957 3.114887858110318 -0.9218485305619815 0 0 0
2678 1 1.3499584665174165 3.1148878581877844 -3.4101485304442556 0 0 0
8406 1 3.0986467933893205 1.813246620914245 -2.079748476569315 0 0 0
8337 1 4.843948816500872 0.5901726446242572 -0.6580651276882872 0 0 0
8350 1 4.843948816554702 0.5901726443694031 -3.1463651279068086 0 0 0
8354 1 4.855495708573502 3.084952661176797 -0.9133807093637123 0 0 0
8355 1 4.855495708529147 3.0849526614323355 -3.4016807094413 0 0 0
8271 1 8.38890734891534 0.6656039400338144 -0.9415518125199837 0 0 0
8284 1 8.388907348680352 0.6656039399155333 -3.4298518125867026 0 0 0
8288 1 8.345660784642622 3.1376983056149514 -0.9534263362096892 0 0 0
8289 1 8.345660784479907 3.137698306011265 -3.4417263362767714 0 0 0
8352 1 6.618465213077942 1.8178221158404317 -2.1362070719616044 0 0 0
8205 1 11.744344377869327 0.579022464426025 -1.2056170527108991 0 0 0
8218 1 11.744344378058527 0.5790224640674148 -3.69391705266484 0 0 0
8222 1 11.916340703608405 3.049692729749947 -0.9962539821382086 0 0 0
8223 1 11.916340703756678 3.049692730112125 -3.484553982041173 0 0 0
8286 1 10.091532891452239 1.8930439301318982 -2.256333269878691 0 0 0
8139 1 15.505040061195528 0.601409151095751 -1.2021342899483782 0 0 0
8152 1 15.50504006117476 0.6014091510576691 -3.6904342899155576 0 0 0
8156 1 15.380112130880967 3.038462020525468 -0.9876669665038608 0 0 0
8157 1 15.380112130833483 3.03846202069863 -3.475966966500279 0 0 0
8220 1 13.628179637481063 1.6484419323132455 -2.3326259545943087 0 0 0
8073 1 18.967456960994813 0.6630060095594124 -0.9352100405688409 0 0 0
8086 1 18.967456960862126 0.6630060094768965 -3.423510040585358 0 0 0
8090 1 18.943290872901883 3.1407679435930147 -0.9471117795056191 0 0 0
8091 1 18.94329087276793 3.140767943783247 -3.4354117792903174 0 0 0
8154 1 17.216464119664913 1.8587168396411904 -2.250515861286754 0 0 0
2680 1 1.335421294281089 5.583016004452012 -0.9435660343907376 0 0 0
2687 1 1.3354212941789356 5.583016004385253 -3.4318660342670424 0 0 0
8407 1 3.1047550299814874 4.327149984592433 -2.1757275717105866 0 0 0
8417 1 3.0911062057098513 6.823654904952783 -2.190108828656637 0 0 0
8359 1 4.84861065323232 5.585744801488193 -0.9422121515202039 0 0 0
8373 1 4.848610653249346 5.58574480122196 -3.4305121515967336 0 0 0
8293 1 8.37301033991288 5.588347895563941 -0.9525183833996577 0 0 0
8307 1 8.373010339846006 5.5883478952702905 -3.440818383490938 0 0 0
8353 1 6.594481376787321 4.337357561331187 -2.184970624900254 0 0 0
8375 1 6.611383682799975 6.825164380919933 -2.1932374156694125 0 0 0
8227 1 11.908359268993976 5.554335200700679 -0.9639146670869708 0 0 0
8241 1 11.908359269101563 5.554335200432116 -3.452214667023951 0 0 0
8287 1 10.146603533208236 4.331146915787302 -2.208178140201809 0 0 0
8309 1 10.144771383463636 6.812596046025792 -2.1997772305227614 0 0 0
8161 1 15.395810720014222 5.549804872861381 -0.9630168616609394 0 0 0
8175 1 15.395810720004649 5.549804872704904 -3.4513168617386016 0 0 0
8221 1 13.651410598317579 4.267158407530544 -2.2244261867288415 0 0 0
8243 1 13.653898640880177 6.793555255736959 -2.203093325223084 0 0 0
8095 1 18.932856833245154 5.579355055242902 -0.9497169754988332 0 0 0
8109 1 18.932856833299024 5.579355055100786 -3.4380169754356915 0 0 0
8155 1 17.14826860304508 4.318247075591781 -2.2044970285248393 0 0 0
8177 1 17.162973763982933 6.803884571413875 -2.1984109725426184 0 0 0
2689 1 1.328192900927662 8.066044016891574 -0.948514624072365 0 0 0
2690 1 1.3281929009308464 8.066044017044389 -3.436814624112261 0 0 0
2692 1 1.3278282373604615 10.55225649518388 -0.9497962490848534 0 0 0
2696 1 1.3278282374057626 10.55225649502694 -3.4380962490712172 0 0 0
8418 1 3.0895176832571067 9.310227309557712 -2.1936112079568253 0 0 0
8377 1 4.851406417646508 8.0695650492137 -0.9489479897091165 0 0 0
8378 1 4.85140641774402 8.069565049468293 -3.4372479897428887 0 0 0
8382 1 4.853020800480343 10.553054558201078 -0.9502546238211744 0 0 0
8389 1 4.853020800521164 10.553054557993537 -3.4385546237600995 0 0 0
8311 1 8.379502260141438 8.064047701038012 -0.9519355576079638 0 0 0
8312 1 8.379502260079455 8.064047701341732 -3.4402355575963193 0 0 0
8316 1 8.379024816104664 10.549201873423117 -0.9511978590797932 0 0 0
8323 1 8.379024816130896 10.549201873151462 -3.439497859093373 0 0 0
8376 1 6.616100411857516 9.308845363429407 -2.1947796496654397 0 0 0
8245 1 11.90140974881384 8.051147436871055 -0.9548444431223984 0 0 0
8246 1 11.901409748887186 8.051147437161852 -3.4431444430944866 0 0 0
8250 1 11.899553617177421 10.54356018819155 -0.9519316991909119 0 0 0
8257 1 11.899553617185157 10.543560187922994 -3.440231699157447 0 0 0
8310 1 10.141338251723786 9.301475820082665 -2.196556299043054 0 0 0
8179 1 15.409346113201096 8.047179960134324 -0.9542993077091393 0 0 0
8180 1 15.40934611326346 8.047179960323819 -3.442599307684144 0 0 0
8184 1 15.415873184091144 10.539731304372207 -0.9516483446359623 0 0 0
8191 1 15.415873184110175 10.539731304188598 -3.439948344622525 0 0 0
8244 1 13.656564168713718 9.294205407837664 -2.1972395590814253 0 0 0
8113 1 18.93408787686872 8.052252547252646 -0.9504864102801164 0 0 0
8114 1 18.934087876820495 8.052252547338133 -3.438786410273662 0 0 0
8118 1 18.93666222726931 10.538845753144807 -0.9504302548764451 0 0 0
8125 1 18.93666222731172 10.53884575298715 -3.4387302548918126 0 0 0
8178 1 17.172772437008813 9.293361178640042 -2.195798221414007 0 0 0
2698 1 1.3285557875282124 13.038686610876626 -0.9500951641402543 0 0 0
2699 1 1.3285557874695022 13.038686610935951 -3.438395164052289 0 0 0
8424 1 3.0904643093849353 11.795771221286255 -2.1942977235245262 0 0 0
8392 1 4.8533450615182785 13.038475742916543 -0.9503789731010888 0 0 0
8393 1 4.853345061530565 13.038475743037369 -3.438678973174415 0 0 0
8326 1 8.377651457928089 13.036391768376433 -0.9507232397923698 0 0 0
8327 1 8.377651458006083 13.036391768597843 -3.4390232397547416 0 0 0
8391 1 6.616137234776574 11.794260413831678 -2.194791471529861 0 0 0
8260 1 11.899087085996404 13.033470037753036 -0.9509203759534955 0 0 0
8261 1 11.899087085983185 13.033470037949458 -3.439220375929604 0 0 0
8325 1 10.13937308632693 11.790626055060242 -2.1953199625317983 0 0 0
8194 1 15.418572401740109 13.030389205810636 -0.9507756667916728 0 0 0
8195 1 15.418572401651254 13.030389205891144 -3.4390756667890003 0 0 0
8259 1 13.65841593016108 11.786663366249707 -2.1954359812329947 0 0 0
8128 1 18.938698407390632 13.028453285180488 -0.9503318590207168 0 0 0
8129 1 18.938698407424607 13.028453285309327 -3.438631858972931 0 0 0
8193 1 17.177245077938466 11.783900299837 -2.1949297770450196 0 0 0
2668 1 1.354894227427259 0.6414195393777529 1.7142002004203278 0 0 0
2671 1 1.3499584664940238 3.114887858246585 1.5664514695286569 0 0 0
8398 1 3.0986467934136446 1.8132466207831908 0.4085515232299684 0 0 0
8399 1 3.0986467933338107 1.813246620847591 2.8968515234864554 0 0 0
8336 1 4.843948816502839 0.5901726443285514 1.830234872101986 0 0 0
8341 1 4.855495708549785 3.0849526614531513 1.5749192905704033 0 0 0
8270 1 8.388907348783473 0.6656039398656698 1.5467481874222564 0 0 0
8275 1 8.34566078448252 3.1376983059875303 1.5348736638393012 0 0 0
8335 1 6.618465213089282 1.8178221157704184 0.35209292788863883 0 0 0
8338 1 6.6184652130685 1.81782211584487 2.8403929281464446 0 0 0
8204 1 11.744344378112974 0.5790224641144576 1.2826829473629027 0 0 0
8209 1 11.916340703773987 3.049692730053847 1.4920460178814299 0 0 0
8269 1 10.091532891291168 1.8930439301631725 0.23196672973138424 0 0 0
8272 1 10.091532891520464 1.8930439300397424 2.720266730172997 0 0 0
8138 1 15.505040061134302 0.6014091510485045 1.2861657100411408 0 0 0
8143 1 15.380112130840912 3.0384620206868527 1.5006330335151654 0 0 0
8203 1 13.628179637474062 1.6484419323127106 0.1556740452951228 0 0 0
8206 1 13.62817963747937 1.6484419322861266 2.6439740454559506 0 0 0
8072 1 18.967456960868205 0.6630060095282494 1.5530899593826997 0 0 0
8077 1 18.943290872780846 3.140767943845995 1.5411882207944445 0 0 0
8137 1 17.216464119544742 1.8587168395466724 0.23778413877055193 0 0 0
8140 1 17.216464119601106 1.8587168396342224 2.7260841387730306 0 0 0
2679 1 1.3354212941778711 5.583016004363076 1.5447339655936072 0 0 0
8400 1 3.104755030048676 4.327149984512367 2.8008724282524775 0 0 0
8408 1 3.1047550300716034 4.32714998463719 0.31257242843788663 0 0 0
8409 1 3.091106205776031 6.823654904943315 0.2981911710990895 0 0 0
8410 1 3.091106205819494 6.823654904948275 2.786491171315257 0 0 0
8358 1 4.848610653275009 5.585744801228269 1.546087848438423 0 0 0
8292 1 8.37301033983345 5.588347895261179 1.5357816165390008 0 0 0
8339 1 6.5944813767764785 4.337357561361216 2.791629375032775 0 0 0
8356 1 6.594481376834667 4.3373575613566935 0.3033293755710914 0 0 0
8357 1 6.611383682853758 6.825164380939175 0.2950625841535119 0 0 0
8360 1 6.611383682789413 6.8251643809592135 2.7833625843394167 0 0 0
8226 1 11.908359269051973 5.55433520048297 1.5243853329501869 0 0 0
8273 1 10.146603533149237 4.331146915819593 2.7684218598681634 0 0 0
8290 1 10.14660353321224 4.3311469158191755 0.2801218599898368 0 0 0
8291 1 10.144771383462734 6.812596046046345 0.2885227691173697 0 0 0
8294 1 10.144771383434875 6.812596046049558 2.7768227694157264 0 0 0
8160 1 15.395810720008445 5.549804872696486 1.5252831382963095 0 0 0
8207 1 13.651410598377469 4.267158407514228 2.7521738133217566 0 0 0
8224 1 13.651410598380444 4.267158407552797 0.2638738135699589 0 0 0
8225 1 13.653898640812175 6.7935552557752 0.2852066744475126 0 0 0
8228 1 13.653898640850892 6.793555255771472 2.7735066747807693 0 0 0
8094 1 18.932856833278013 5.579355055038237 1.538583024566205 0 0 0
8141 1 17.148268603158204 4.318247075564446 2.772102971559971 0 0 0
8158 1 17.148268602952896 4.31824707559586 0.2838029717065403 0 0 0
8159 1 17.162973763988624 6.80388457134918 0.28988902726706206 0 0 0
8162 1 17.16297376400372 6.8038845713925955 2.7781890274061913 0 0 0
2682 1 1.328192900934725 8.066044017061511 1.5397853758593936 0 0 0
2691 1 1.3278282374053012 10.552256495053784 1.5385037510079402 0 0 0
8411 1 3.089517683202442 9.310227309551914 2.7829887920467056 0 0 0
8419 1 3.0895176832088973 9.310227309534422 0.29468879218991856 0 0 0
8363 1 4.851406417724163 8.069565049425218 1.5393520103202112 0 0 0
8381 1 4.8530208005426925 10.5530545579537 1.538045376244247 0 0 0
8297 1 8.379502260091083 8.064047701327667 1.5363644424073644 0 0 0
8315 1 8.37902481610102 10.54920187316967 1.5371021408747234 0 0 0
8361 1 6.6161004118460705 9.308845363480224 2.781820350352588 0 0 0
8379 1 6.616100411847223 9.308845363446675 0.29352035061311754 0 0 0
8231 1 11.901409748879196 8.051147437176514 1.5334555568883264 0 0 0
8249 1 11.89955361717002 10.543560187888035 1.53636830085266 0 0 0
8295 1 10.14133825171527 9.301475820101803 2.7800437009534 0 0 0
8313 1 10.141338251694107 9.301475820059826 0.2917437012102785 0 0 0
8165 1 15.409346113249669 8.04717996038602 1.5340006922355354 0 0 0
8183 1 15.415873184084802 10.53973130420243 1.5366516553459455 0 0 0
8229 1 13.656564168692766 9.294205407861545 2.77936044085196 0 0 0
8247 1 13.656564168721733 9.29420540785157 0.2910604411383325 0 0 0
8099 1 18.93408787686007 8.052252547354293 1.5378135897125014 0 0 0
8117 1 18.936662227265057 10.5388457530122 1.5378697451027734 0 0 0
8163 1 17.172772436962696 9.293361178609818 2.7808017785669263 0 0 0
8181 1 17.172772437030083 9.293361178690523 0.2925017788048925 0 0 0
2694 1 1.328555787504279 13.038686610965394 1.5382048358535936 0 0 0
8420 1 3.0904643093529054 11.795771221321953 0.29400227632396986 0 0 0
8421 1 3.090464309353557 11.79577122126463 2.7823022765208605 0 0 0
8385 1 4.853345061573876 13.038475743129439 1.537921026848726 0 0 0
8319 1 8.377651457975565 13.03639176859059 1.5375767602793544 0 0 0
8380 1 6.616137234783954 11.794260413830983 0.2935085282607306 0 0 0
8383 1 6.616137234784394 11.794260413784393 2.7818085284558074 0 0 0
8253 1 11.89908708593333 13.033470037980498 1.537379624140588 0 0 0
8314 1 10.139373086310123 11.790626055143475 0.2929800372646676 0 0 0
8317 1 10.139373086287712 11.790626055062859 2.7812800375634428 0 0 0
8187 1 15.418572401725207 13.030389205995016 1.537524333210514 0 0 0
8248 1 13.658415930178604 11.786663366203255 0.2928640186140843 0 0 0
8251 1 13.658415930183537 11.786663366233855 2.7811640187713835 0 0 0
8121 1 18.93869840743439 13.028453285384678 1.5379681410226176 0 0 0
8182 1 17.177245077957696 11.783900299847712 0.2933702227749317 0 0 0
8185 1 17.177245078013737 11.78390029989235 2.7816702229416403 0 0 0
2665 1 1.3548942274106703 0.6414195392767974 6.690800200431039 0 0 0
2666 1 1.3548942274656774 0.6414195394008653 4.202500200389149 0 0 0
2667 1 1.3499584664227557 3.1148878582067745 6.5430514694642525 0 0 0
2670 1 1.3499584665051194 3.1148878581139154 4.0547514694849776 0 0 0
8395 1 3.098646793470298 1.8132466208881983 5.385151523193504 0 0 0
8330 1 4.843948816515798 0.5901726443172581 6.806834872112308 0 0 0
8331 1 4.843948816539714 0.59017264466093 4.318534872284114 0 0 0
8334 1 4.8554957086068 3.0849526614246168 6.551519290549237 0 0 0
8340 1 4.855495708474562 3.084952661191603 4.063219290622334 0 0 0
8264 1 8.388907348825283 0.6656039398158794 6.523348187423166 0 0 0
8265 1 8.388907348723519 0.6656039401521867 4.035048187451028 0 0 0
8268 1 8.345660784512654 3.1376983059842245 6.511473663726901 0 0 0
8274 1 8.345660784630825 3.137698305674553 4.023173663760039 0 0 0
8329 1 6.618465212973675 1.8178221158344063 5.32869292780878 0 0 0
8198 1 11.744344377956581 0.5790224640905284 6.259282947357767 0 0 0
8199 1 11.744344377945193 0.5790224643869085 3.7709829472725573 0 0 0
8202 1 11.916340703757886 3.0496927300329832 6.468646017942179 0 0 0
8208 1 11.916340703620472 3.0496927298364427 3.980346017875776 0 0 0
8263 1 10.091532891308868 1.893043930165007 5.208566729573259 0 0 0
8132 1 15.505040061231227 0.6014091510320634 6.26276571006095 0 0 0
8133 1 15.505040061186373 0.6014091510777544 3.774465710058888 0 0 0
8136 1 15.380112130844378 3.038462020689818 6.477233033484927 0 0 0
8142 1 15.380112130874489 3.03846202054666 3.988933033504743 0 0 0
8197 1 13.62817963750601 1.6484419322835575 5.132274045295224 0 0 0
8066 1 18.967456960890605 0.6630060095058427 6.529689959466217 0 0 0
8067 1 18.967456960997207 0.6630060095339667 4.041389959397563 0 0 0
8070 1 18.9432908727793 3.140767943791675 6.517788220775139 0 0 0
8076 1 18.94329087293802 3.1407679435720897 4.02948822040993 0 0 0
8131 1 17.2164641196283 1.8587168396011624 5.214384138689265 0 0 0
2672 1 1.335421294240943 5.5830160043405135 6.521333965646992 0 0 0
2673 1 1.3354212942064945 5.583016004518284 4.033033965685802 0 0 0
8401 1 3.1047550299780062 4.327149984605402 5.289172428413073 0 0 0
8402 1 3.091106205717166 6.823654904964597 5.274791171108353 0 0 0
8344 1 4.848610653282604 5.585744801224312 6.522687848461245 0 0 0
8345 1 4.848610653198646 5.585744801486756 4.034387848423037 0 0 0
8278 1 8.373010339841784 5.588347895237564 6.512381616567401 0 0 0
8279 1 8.373010339918006 5.588347895614485 4.0240816165048905 0 0 0
8342 1 6.594481376800565 4.337357561331745 5.27992937552437 0 0 0
8343 1 6.6113836828080945 6.825164380927658 5.271662584095891 0 0 0
8212 1 11.908359269059586 5.554335200423787 6.500985332898223 0 0 0
8213 1 11.908359269061288 5.554335200716104 4.012685332946404 0 0 0
8276 1 10.146603533191705 4.331146915826914 5.256721859948817 0 0 0
8277 1 10.14477138346407 6.812596046013351 5.265122769119274 0 0 0
8146 1 15.395810720032534 5.549804872644088 6.501883138261816 0 0 0
8147 1 15.395810720028965 5.54980487291087 4.013583138368546 0 0 0
8210 1 13.651410598351191 4.267158407572875 5.240473813642597 0 0 0
8211 1 13.65389864091484 6.793555255714528 5.261806674535729 0 0 0
8080 1 18.93285683322199 5.579355055055697 6.5151830245551245 0 0 0
8081 1 18.932856833314833 5.579355055249705 4.026883024545263 0 0 0
8144 1 17.148268602994033 4.318247075649892 5.260402971694805 0 0 0
8145 1 17.16297376395075 6.803884571366654 5.26648902727829 0 0 0
2674 1 1.3281929008985391 8.066044017029252 6.516385375937699 0 0 0
2681 1 1.3281929009367264 8.066044016906815 4.028085375887363 0 0 0
2683 1 1.3278282373425783 10.552256495049871 6.515103750911874 0 0 0
2684 1 1.3278282374095571 10.552256495145508 4.026803750945454 0 0 0
8412 1 3.0895176832436237 9.310227309536437 5.271288792213404 0 0 0
8348 1 4.851406417675677 8.069565049436477 6.515952010297642 0 0 0
8362 1 4.851406417734487 8.069565049244959 4.027652010284859 0 0 0
8366 1 4.853020800468343 10.553054557963236 6.514645376163963 0 0 0
8367 1 4.853020800487167 10.55305455818318 4.026345376288494 0 0 0
8282 1 8.379502260117821 8.064047701317564 6.512964442397122 0 0 0
8296 1 8.379502260103028 8.064047701049544 4.024664442397773 0 0 0
8300 1 8.37902481607439 10.54920187315083 6.513702140902571 0 0 0
8301 1 8.379024816127686 10.549201873433535 4.025402140908618 0 0 0
8364 1 6.616100411862108 9.308845363419753 5.27012035062329 0 0 0
8216 1 11.90140974885476 8.051147437121006 6.510055556921233 0 0 0
8230 1 11.901409748861951 8.051147436876887 4.021755556867032 0 0 0
8234 1 11.899553617191657 10.543560187942331 6.512968300793776 0 0 0
8235 1 11.899553617175837 10.543560188163799 4.024668300858628 0 0 0
8298 1 10.141338251717611 9.301475820070516 5.268343701195545 0 0 0
8150 1 15.40934611317917 8.047179960335626 6.510600692283122 0 0 0
8164 1 15.409346113253232 8.047179960129371 4.022300692296691 0 0 0
8168 1 15.415873184091552 10.539731304181867 6.51325165535417 0 0 0
8169 1 15.41587318412254 10.539731304395554 4.02495165540033 0 0 0
8232 1 13.656564168710203 9.294205407868189 5.2676604411824774 0 0 0
8084 1 18.93408787686447 8.052252547385201 6.514413589767948 0 0 0
8098 1 18.934087876829107 8.05225254715872 4.026113589659829 0 0 0
8102 1 18.936662227279474 10.538845752997528 6.514469745110341 0 0 0
8103 1 18.93666222729105 10.538845753096272 4.026169745092299 0 0 0
8166 1 17.172772436984236 9.293361178640994 5.269101778738674 0 0 0
2685 1 1.3285557875061758 13.03868661098447 6.514804835836357 0 0 0
2693 1 1.3285557874675198 13.03868661082482 4.026504835930896 0 0 0
8413 1 3.0904643093749034 11.795771221256178 5.270602276276112 0 0 0
8369 1 4.853345061523987 13.038475743098312 6.514521026861528 0 0 0
8384 1 4.853345061530757 13.03847574284061 4.026221026841586 0 0 0
8303 1 8.377651457945149 13.036391768632964 6.514176760214871 0 0 0
8318 1 8.377651458011648 13.036391768364563 4.025876760263792 0 0 0
8365 1 6.616137234748141 11.794260413804174 5.270108528234986 0 0 0
8237 1 11.899087086004991 13.033470037999 6.513979624045192 0 0 0
8252 1 11.899087085955896 13.033470037733979 4.025679624086061 0 0 0
8299 1 10.139373086329341 11.790626055045577 5.269580037167688 0 0 0
8171 1 15.418572401747138 13.030389206003825 6.514124333198112 0 0 0
8186 1 15.4185724016844 13.030389205736766 4.0258243332134676 0 0 0
8233 1 13.658415930177032 11.786663366265135 5.269464018562961 0 0 0
8105 1 18.938698407396426 13.028453285285828 6.514568140989814 0 0 0
8120 1 18.9386984074321 13.028453285192738 4.026268141020009 0 0 0
8167 1 17.17724507792507 11.783900299827845 5.2699702227727165 0 0 0
3006 1 1.3289667133270116 15.52543999832846 -5.926763921485939 0 0 0
8785 1 3.090982457048177 14.282035980208983 -7.1709920111883445 0 0 1
8789 1 3.09101317513432 16.768982370239392 -7.170980825120852 0 0 1
8800 1 3.090982457068938 14.282035980254449 -4.682692011097479 0 0 0
8801 1 3.0910131751351124 16.76898237027193 -4.682680825311096 0 0 0
8747 1 4.853115090858106 15.525176539958192 -5.926919420154639 0 0 0
8681 1 8.376637406759192 15.524051529489581 -5.927060895068692 0 0 0
8719 1 6.6153855932854935 14.281030335201919 -7.171218156765348 0 0 1
8725 1 6.614712115644278 16.7684247231374 -7.171089067557124 0 0 1
8744 1 6.615385593256017 14.281030335202583 -4.682918156601815 0 0 0
8745 1 6.6147121156172295 16.76842472320463 -4.682789067753915 0 0 0
8615 1 11.898717841855555 15.522331686117791 -5.927119853646367 0 0 0
8653 1 10.138265863745493 14.279138387697738 -7.171396610604816 0 0 1
8659 1 10.137523914884438 16.767342034866253 -7.171157975954515 0 0 1
8678 1 10.138265863783753 14.279138387657397 -4.683096610491325 0 0 0
8679 1 10.13752391492615 16.767342034893268 -4.6828579762494 0 0 0
8549 1 15.419538327632319 15.520136179425098 -5.927046558635166 0 0 0
8587 1 13.659156498722021 14.276632266420062 -7.1714040634257765 0 0 1
8593 1 13.659215223181441 16.76572045051379 -7.171149859097932 0 0 1
8612 1 13.659156498689187 14.276632266408274 -4.683104063276054 0 0 0
8613 1 13.659215223259968 16.765720450493212 -4.682849859362803 0 0 0
8483 1 18.93994577149603 15.518365036856432 -5.926863201621162 0 0 0
8521 1 17.17922050243043 14.274166793893839 -7.171198293221387 0 0 1
8527 1 17.180030448097344 16.76391218262497 -7.171057889615323 0 0 1
8546 1 17.17922050248034 14.274166793915985 -4.6828982931770975 0 0 0
8547 1 17.180030448108337 16.763912182628086 -4.682757889771428 0 0 0
3015 1 1.3291000636716432 18.012626928348684 -5.926779366851671 0 0 0
3017 1 1.3291242709760023 20.50018559406613 -5.926782582898053 0 0 0
8790 1 3.0908709846654063 19.25639414131474 -7.170961313536812 0 0 1
8811 1 3.0908709846773967 19.256394141240776 -4.682661313424031 0 0 0
8765 1 4.852752984751188 18.012506373317116 -5.926860461654052 0 0 0
8769 1 4.852414155753241 20.50017629782071 -5.926823999429283 0 0 0
8699 1 8.375928966079147 18.011887035700212 -5.926923985389411 0 0 0
8703 1 8.375385467029094 20.499846971934073 -5.92685409059325 0 0 0
8726 1 6.614179870286643 19.256123407072025 -7.171014363700532 0 0 1
8766 1 6.614179870275067 19.256123407030817 -4.682714363538971 0 0 0
8633 1 11.898280232453784 18.01082147970776 -5.9269441335234605 0 0 0
8637 1 11.897817836735285 20.49919743360436 -5.926861967540366 0 0 0
8660 1 10.136938025919914 19.255483817824746 -7.171044041991076 0 0 1
8700 1 10.13693802586599 19.25548381782429 -4.682744041758217 0 0 0
8567 1 15.419733809377023 18.009355906580506 -5.926907180238569 0 0 0
8571 1 15.4195891398331 20.498267609342978 -5.926843376774638 0 0 0
8594 1 13.658964002408483 19.254453331109918 -7.17103717262068 0 0 1
8634 1 13.658964002379115 19.254453331166847 -4.68273717247896 0 0 0
8501 1 18.940562990103945 18.008014970968972 -5.92682449976482 0 0 0
8505 1 18.940773595535266 20.497351422834917 -5.926804105559646 0 0 0
8528 1 17.18025002381792 19.253234516390886 -7.170993676267248 0 0 1
8568 1 17.180250023802735 19.253234516419145 -4.682693676133768 0 0 0
3022 1 1.32912344871045 22.988020597797945 -5.926783129372203 0 0 0
8798 1 3.090712021604308 21.744120230395076 -7.170948229979403 0 0 1
8799 1 3.0905824022774664 24.23206875783876 -7.170940890859458 0 0 1
8812 1 3.090712021566615 21.744120230325354 -4.682648230054628 0 0 0
8818 1 3.090582402216932 24.232068757937157 -4.6826408907929435 0 0 0
8779 1 4.852136754507461 22.988070324484383 -5.926804079100331 0 0 0
8713 1 8.374943306948749 22.98791831339347 -5.9268187507929975 0 0 0
8741 1 6.613756520884209 21.744015679058666 -7.170974543119078 0 0 1
8742 1 6.6134182972987805 24.232057602018873 -7.170954018382397 0 0 1
8767 1 6.6137565208875015 21.74401567907846 -4.682674543272628 0 0 0
8780 1 6.613418297318201 24.23205760207227 -4.682654018307874 0 0 0
8647 1 11.89737281576419 22.987551811635466 -5.926822172205785 0 0 0
8675 1 10.136437914659298 21.743655754341948 -7.170988270923296 0 0 1
8676 1 10.136006859772976 24.231883710080325 -7.170960629061098 0 0 1
8701 1 10.136437914613053 21.743655754345802 -4.682688271055404 0 0 0
8714 1 10.136006859776787 24.231883710183457 -4.682660628888898 0 0 0
8581 1 15.419309611487035 22.987000483293325 -5.926812833429012 0 0 0
8609 1 13.658599479100104 21.743032159783123 -7.17098416111797 0 0 1
8610 1 13.658216423062253 24.23154138186255 -7.170958408381321 0 0 1
8635 1 13.658599479069274 21.74303215979025 -4.682684161207554 0 0 0
8648 1 13.658216423013066 24.23154138189761 -4.682658408284967 0 0 0
8515 1 18.94076246549685 22.986426290128858 -5.926793657392904 0 0 0
8543 1 17.18017785303702 21.74226416278864 -7.170962963621544 0 0 1
8544 1 17.179981357862594 24.231096648004467 -7.170947922879799 0 0 1
8569 1 17.18017785304014 21.742264162796776 -4.682662963670078 0 0 0
8582 1 17.179981357905618 24.231096648039337 -4.682647922784194 0 0 0
3024 1 1.3291279607456195 25.476057202364352 -5.9267831542962925 0 0 0
3340 1 1.3291450491044383 27.96424280098782 -5.926783111904439 0 0 0
8810 1 3.0904888874766954 26.720181612338322 -7.170937028014895 0 0 1
8819 1 3.0904888876106194 26.720181612351745 -4.682637027968947 0 0 0
8783 1 4.851920757783849 25.476130887438607 -5.926793702839006 0 0 0
9151 1 4.851757880742328 27.964320044467417 -5.926788413614987 0 0 0
8717 1 8.374580299937026 25.4760894809638 -5.926800964043471 0 0 0
8764 1 6.613150668702505 26.720221054837175 -7.170943597248587 0 0 1
8781 1 6.61315066868084 26.720221054822915 -4.682643597308607 0 0 0
9085 1 8.374287245458031 27.9643457139621 -5.926792031633363 0 0 0
8651 1 11.89697137427087 25.47591640306314 -5.926802553643561 0 0 0
8698 1 10.135643329420628 26.72016980003449 -7.1709468464283725 0 0 1
8715 1 10.135643329344092 26.720169800013917 -4.682646846518364 0 0 0
9019 1 11.896628152530617 27.964300363773418 -5.926792799398771 0 0 0
8585 1 15.418998262658615 25.475625724196515 -5.926797864975377 0 0 0
8632 1 13.657861841352423 26.720017806929278 -7.170945695772049 0 0 1
8649 1 13.657861841330446 26.720017806923092 -4.682645695727723 0 0 0
8953 1 15.418707032534625 27.96418234243327 -5.926790448368164 0 0 0
8519 1 18.940652581175524 25.47530009342832 -5.926788373911301 0 0 0
8566 1 17.179752461394962 26.71979375972556 -7.170940472946381 0 0 1
8583 1 17.17975246145375 26.71979375973517 -4.682640472937723 0 0 0
8887 1 18.94051444190456 27.964024292175996 -5.926785719043148 0 0 0
2999 1 1.3289667133389764 15.525439998309288 -0.950163921514744 0 0 0
3005 1 1.3289667133615644 15.525439998230066 -3.4384639214678154 0 0 0
8791 1 3.090982457023641 14.282035980228564 -2.1943920111738167 0 0 0
8802 1 3.091013175153349 16.768982370236316 -2.19438082510434 0 0 0
8732 1 4.853115090881988 15.525176539929795 -0.9503194200644153 0 0 0
8746 1 4.853115090896313 15.5251765398249 -3.4386194200335676 0 0 0
8666 1 8.376637406781555 15.524051529446664 -0.9504608951211587 0 0 0
8680 1 8.376637406695343 15.52405152923082 -3.4387608950563737 0 0 0
8728 1 6.615385593221526 14.28103033518442 -2.1946181567944243 0 0 0
8748 1 6.614712115635125 16.76842472309731 -2.1944890675796636 0 0 0
8600 1 11.898717841896694 15.522331686060353 -0.950519853554947 0 0 0
8614 1 11.898717841861528 15.522331685868023 -3.4388198536160237 0 0 0
8662 1 10.138265863799496 14.279138387669821 -2.194796610630961 0 0 0
8682 1 10.137523914830647 16.76734203483974 -2.194557976000263 0 0 0
8534 1 15.41953832766502 15.520136179360765 -0.9504465586072607 0 0 0
8548 1 15.419538327606487 15.520136179146494 -3.4387465585419354 0 0 0
8596 1 13.659156498684737 14.276632266404325 -2.194804063452649 0 0 0
8616 1 13.659215223194444 16.76572045053195 -2.194549859129224 0 0 0
8468 1 18.93994577155516 15.518365036842535 -0.9502632016104279 0 0 0
8482 1 18.939945771537403 15.518365036724518 -3.438563201578975 0 0 0
8530 1 17.179220502407276 14.274166793843683 -2.194598293242929 0 0 0
8550 1 17.18003044812674 16.763912182615094 -2.194457889604222 0 0 0
3007 1 1.3291000636777364 18.012626928337028 -0.9501793668588746 0 0 0
3008 1 1.329100063705866 18.012626928380886 -3.4384793668868396 0 0 0
3010 1 1.329124270976442 20.50018559407407 -0.9501825828292647 0 0 0
3016 1 1.329124270957436 20.500185593951745 -3.438482582853869 0 0 0
8803 1 3.0908709846918225 19.256394141272843 -2.194361313622541 0 0 0
8750 1 4.852752984783087 18.012506373281326 -0.9502604617044839 0 0 0
8751 1 4.8527529847703486 18.012506373435144 -3.4385604616265404 0 0 0
8755 1 4.852414155783778 20.500176297837797 -0.9502239995301541 0 0 0
8768 1 4.852414155798692 20.500176297714418 -3.4385239994534484 0 0 0
8684 1 8.375928966095119 18.01188703568701 -0.9503239853869287 0 0 0
8685 1 8.375928966094277 18.011887035872892 -3.4386239853267244 0 0 0
8689 1 8.375385467008217 20.49984697198301 -0.950254090503614 0 0 0
8702 1 8.37538546707431 20.499846971834035 -3.4385540905577088 0 0 0
8749 1 6.614179870264783 19.25612340705672 -2.19441436370253 0 0 0
8618 1 11.89828023251054 18.010821479672735 -0.9503441334833642 0 0 0
8619 1 11.89828023243267 18.01082147992196 -3.4386441334709 0 0 0
8623 1 11.897817836705372 20.499197433567858 -0.95026196754328 0 0 0
8636 1 11.897817836716566 20.499197433449325 -3.4385619675415153 0 0 0
8683 1 10.136938025884113 19.255483817808706 -2.194444041936537 0 0 0
8552 1 15.419733809416238 18.00935590651559 -0.9503071802106768 0 0 0
8553 1 15.41973380943851 18.00935590674197 -3.4386071802093237 0 0 0
8557 1 15.419589139808123 20.498267609312993 -0.9502433767534026 0 0 0
8570 1 15.419589139817866 20.498267609248884 -3.438543376769745 0 0 0
8617 1 13.658964002417077 19.254453331128467 -2.1944371726173766 0 0 0
8486 1 18.940562990171195 18.00801497094807 -0.9502244998632708 0 0 0
8487 1 18.940562990174026 18.00801497108209 -3.4385244997921376 0 0 0
8491 1 18.94077359554737 20.497351422824988 -0.9502041054955002 0 0 0
8504 1 18.940773595496708 20.49735142277637 -3.4385041054730276 0 0 0
8551 1 17.180250023830457 19.253234516403587 -2.194393676227382 0 0 0
3018 1 1.3291234487523558 22.98802059777552 -0.9501831293786351 0 0 0
3019 1 1.3291234487388983 22.9880205978329 -3.438483129392265 0 0 0
8813 1 3.090712021563343 21.744120230361112 -2.194348229916512 0 0 0
8814 1 3.0905824022971404 24.23206875787573 -2.194340890840107 0 0 0
8772 1 4.852136754538829 22.98807032450378 -0.9502040790667224 0 0 0
8773 1 4.852136754488567 22.988070324634243 -3.4385040790334425 0 0 0
8706 1 8.37494330696308 22.987918313373594 -0.9502187507551969 0 0 0
8707 1 8.374943306972717 22.98791831355072 -3.438518750777349 0 0 0
8770 1 6.613756520827061 21.744015679076455 -2.1943745430825974 0 0 0
8771 1 6.613418297280122 24.232057602019545 -2.1943540184388555 0 0 0
8640 1 11.897372815728946 22.987551811567045 -0.9502221721238328 0 0 0
8641 1 11.897372815757729 22.987551811631057 -3.4385221721325046 0 0 0
8704 1 10.13643791470542 21.743655754357068 -2.194388270904411 0 0 0
8705 1 10.136006859813257 24.231883710153166 -2.1943606289824755 0 0 0
8574 1 15.419309611427732 22.98700048330571 -0.9502128333725479 0 0 0
8575 1 15.4193096114829 22.987000483366913 -3.438512833385314 0 0 0
8638 1 13.658599479101483 21.743032159771406 -2.194384161083542 0 0 0
8639 1 13.658216423041496 24.23154138188624 -2.194358408369139 0 0 0
8508 1 18.940762465405232 22.98642629013675 -0.9501936572490591 0 0 0
8509 1 18.940762465437402 22.98642629020725 -3.4384936573625944 0 0 0
8572 1 17.180177853061604 21.74226416280899 -2.194362963645966 0 0 0
8573 1 17.179981357895063 24.231096648046112 -2.1943479228461604 0 0 0
3021 1 1.3291279607274462 25.476057202301153 -0.9501831542365413 0 0 0
3023 1 1.3291279607466804 25.476057202334136 -3.4384831543143 0 0 0
3331 1 1.3291450490933985 27.96424280094725 -0.9501831118502623 0 0 0
3332 1 1.329145049112798 27.964242800941097 -3.438483111976658 0 0 0
8820 1 3.0904888875183256 26.720181612330883 -2.194337028025883 0 0 0
8777 1 4.851920757812641 25.47613088744379 -0.9501937027833237 0 0 0
8782 1 4.851920757824286 25.476130887367397 -3.438493702881138 0 0 0
9134 1 4.851757880838703 27.964320044459065 -0.9501884135960225 0 0 0
9135 1 4.851757880775068 27.964320044515325 -3.438488413649972 0 0 0
8711 1 8.374580299957895 25.476089480893304 -0.9502009640008489 0 0 0
8716 1 8.374580299968535 25.4760894808291 -3.438500964057719 0 0 0
8784 1 6.613150668676016 26.72022105487836 -2.1943435972125096 0 0 0
9068 1 8.374287245427219 27.964345713968854 -0.950192031496645 0 0 0
9069 1 8.374287245433914 27.964345714005194 -3.4384920315460326 0 0 0
8645 1 11.896971374297243 25.475916402997704 -0.9502025535987966 0 0 0
8650 1 11.89697137427202 25.475916402958646 -3.4385025535902987 0 0 0
8718 1 10.135643329381473 26.72016979999066 -2.194346846383813 0 0 0
9002 1 11.896628152556003 27.96430036370357 -0.9501927993422862 0 0 0
9003 1 11.896628152569445 27.964300363857177 -3.438492799371558 0 0 0
8579 1 15.41899826261148 25.47562572418867 -0.9501978649896634 0 0 0
8584 1 15.418998262640486 25.47562572413003 -3.438497865005294 0 0 0
8652 1 13.657861841370929 26.720017806915532 -2.1943456957133938 0 0 0
8936 1 15.41870703253788 27.964182342465815 -0.950190448359604 0 0 0
8937 1 15.418707032470232 27.964182342491608 -3.438490448410368 0 0 0
8513 1 18.940652581171136 25.475300093369853 -0.9501883738897258 0 0 0
8518 1 18.940652581146736 25.47530009341553 -3.4384883739855723 0 0 0
8586 1 17.179752461433836 26.71979375972171 -2.194340472897094 0 0 0
8870 1 18.940514441968304 27.964024292208652 -0.9501857190033488 0 0 0
8871 1 18.940514441920485 27.96402429219272 -3.4384857190207816 0 0 0
2998 1 1.328966713336991 15.525439998244913 1.5381360784967852 0 0 0
8786 1 3.090982457080238 14.282035980246745 2.7822079887878544 0 0 0
8792 1 3.0909824570646514 14.282035980227947 0.29390798895873504 0 0 0
8793 1 3.0910131751312124 16.768982370242835 0.2939191746900127 0 0 0
8794 1 3.0910131751360663 16.768982370286096 2.782219174801864 0 0 0
8731 1 4.853115090873872 15.525176539806575 1.5379805798368056 0 0 0
8665 1 8.376637406745635 15.52405152927605 1.537839104933181 0 0 0
8720 1 6.615385593264089 14.281030335196744 2.7819818432053856 0 0 0
8729 1 6.615385593278637 14.281030335201052 0.2936818434285593 0 0 0
8730 1 6.6147121156513915 16.76842472313103 0.2938109322437579 0 0 0
8733 1 6.614712115602864 16.76842472322749 2.782110932462978 0 0 0
8599 1 11.898717841840705 15.52233168589728 1.5377801463805905 0 0 0
8654 1 10.13826586376023 14.279138387665785 2.7818033893178593 0 0 0
8663 1 10.138265863742626 14.279138387685945 0.29350338957974176 0 0 0
8664 1 10.137523914891466 16.767342034837533 0.29374202383091297 0 0 0
8667 1 10.137523914909185 16.7673420349227 2.782042023978114 0 0 0
8533 1 15.419538327654106 15.520136179272086 1.5378534413685503 0 0 0
8588 1 13.659156498715978 14.276632266409809 2.781795936535111 0 0 0
8597 1 13.659156498713536 14.276632266422302 0.2934959368050247 0 0 0
8598 1 13.65921522318332 16.765720450492065 0.29375014074587896 0 0 0
8601 1 13.659215223258899 16.76572045049274 2.78205014081863 0 0 0
8467 1 18.939945771497065 15.518365036784676 1.538036798348877 0 0 0
8522 1 17.179220502509928 14.274166793922355 2.782001706707315 0 0 0
8531 1 17.179220502424702 14.274166793899305 0.29370170691785186 0 0 0
8532 1 17.18003044809893 16.763912182632172 0.2938421102466751 0 0 0
8535 1 17.18003044809839 16.763912182685512 2.7821421103577926 0 0 0
3001 1 1.329100063675224 18.012626928425522 1.5381206331266783 0 0 0
3009 1 1.329124270955565 20.50018559398372 1.5381174171314616 0 0 0
8795 1 3.0908709846870583 19.256394141236974 2.782238686462243 0 0 0
8804 1 3.0908709846677573 19.256394141317095 0.2939386865220982 0 0 0
8736 1 4.852752984748298 18.0125063734546 1.5380395383396948 0 0 0
8754 1 4.852414155732114 20.500176297724774 1.538076000548693 0 0 0
8670 1 8.375928966076614 18.011887035893537 1.5379760146024508 0 0 0
8688 1 8.375385467033942 20.499846971782727 1.5380459094298173 0 0 0
8734 1 6.614179870268067 19.25612340701618 2.782185636292994 0 0 0
8752 1 6.614179870273439 19.25612340708189 0.2938856364278769 0 0 0
8604 1 11.89828023245633 18.010821479890893 1.5379558664983095 0 0 0
8622 1 11.897817836751694 20.499197433446493 1.5380380324554954 0 0 0
8668 1 10.136938025883222 19.25548381782679 2.782155958087485 0 0 0
8686 1 10.136938025904213 19.25548381783945 0.29385595820153254 0 0 0
8538 1 15.419733809375398 18.009355906737518 1.5379928197819308 0 0 0
8556 1 15.41958913983898 20.498267609202085 1.5380566232367519 0 0 0
8602 1 13.658964002368576 19.254453331151378 2.782162827375829 0 0 0
8620 1 13.658964002425646 19.254453331115776 0.29386282756417553 0 0 0
8472 1 18.940562990107995 18.008014971056898 1.5380755002366373 0 0 0
8490 1 18.94077359553437 20.497351422740763 1.5380958944430663 0 0 0
8536 1 17.180250023774917 19.253234516405 2.782206323757584 0 0 0
8554 1 17.18025002381519 19.253234516404344 0.293906323840356 0 0 0
3012 1 1.3291234486907944 22.988020597836304 1.5381168706611013 0 0 0
8805 1 3.0907120215809027 21.74412023039515 0.29395176995777195 0 0 0
8806 1 3.090712021532088 21.744120230332538 2.7822517700366087 0 0 0
8807 1 3.0905824022009187 24.232068757932076 2.782259109176032 0 0 0
8815 1 3.0905824022833155 24.232068757837474 0.29395910917919865 0 0 0
8759 1 4.8521367544918 22.988070324578054 1.5380959209523182 0 0 0
8693 1 8.374943306963738 22.987918313511827 1.538081249250068 0 0 0
8753 1 6.61375652088765 21.744015679051746 0.29392545678396514 0 0 0
8756 1 6.613756520877559 21.74401567906727 2.782225456857051 0 0 0
8757 1 6.613418297305905 24.23205760206114 2.782245981613598 0 0 0
8774 1 6.613418297308658 24.232057602015516 0.2939459817554144 0 0 0
8627 1 11.89737281579053 22.987551811756017 1.538077827833198 0 0 0
8687 1 10.136437914681087 21.743655754333272 0.29391172894304035 0 0 0
8690 1 10.136437914635357 21.74365575434781 2.782211729102693 0 0 0
8691 1 10.136006859802517 24.231883710146647 2.7822393710200357 0 0 0
8708 1 10.13600685978062 24.231883710083945 0.293939371111161 0 0 0
8561 1 15.419309611481399 22.987000483382147 1.538087166611081 0 0 0
8621 1 13.658599479115356 21.74303215978083 0.2939158387606119 0 0 0
8624 1 13.65859947906732 21.743032159766013 2.7822158389417484 0 0 0
8625 1 13.658216423033402 24.23154138187146 2.782241591625184 0 0 0
8642 1 13.658216423055308 24.23154138187019 0.29394159177243684 0 0 0
8495 1 18.940762465492227 22.986426290157887 1.538106342647817 0 0 0
8555 1 17.180177853036515 21.74226416279286 0.2939370362983022 0 0 0
8558 1 17.180177853046803 21.74226416277969 2.7822370364265154 0 0 0
8559 1 17.179981357901582 24.23109664799454 2.7822520771647596 0 0 0
8576 1 17.179981357856608 24.231096648031166 0.29395207720215627 0 0 0
3020 1 1.329127960741627 25.4760572023526 1.5381168457236194 0 0 0
3327 1 1.3291450491092356 27.96424280097866 1.5381168881326226 0 0 0
8816 1 3.0904888874831737 26.720181612337402 0.293962971999701 0 0 0
8817 1 3.090488887603041 26.72018161234823 2.782262972081231 0 0 0
8776 1 4.851920757778978 25.476130887388116 1.5381062971895447 0 0 0
9125 1 4.851757880745497 27.964320044486804 1.5381115864169421 0 0 0
8710 1 8.374580299928008 25.476089480855098 1.5380990360098357 0 0 0
8775 1 6.613150668700166 26.720221054830485 0.29395640271875456 0 0 0
8778 1 6.613150668678298 26.720221054825235 2.782256402770851 0 0 0
9059 1 8.374287245450855 27.96434571401652 1.538107968413259 0 0 0
8644 1 11.896971374296825 25.475916402970597 1.5380974463994985 0 0 0
8709 1 10.135643329416025 26.720169800009003 0.29395315354942714 0 0 0
8712 1 10.1356433293447 26.72016980000917 2.782253153580749 0 0 0
8993 1 11.896628152533692 27.96430036384331 1.538107200677875 0 0 0
8578 1 15.41899826265896 25.475625724114604 1.5381021350459343 0 0 0
8643 1 13.657861841358292 26.720017806912686 0.29395430418402246 0 0 0
8646 1 13.657861841359844 26.720017806964993 2.7822543043563117 0 0 0
8927 1 15.418707032551362 27.96418234250085 1.5381095516750103 0 0 0
8512 1 18.940652581185596 25.475300093377907 1.5381116261032202 0 0 0
8577 1 17.179752461396035 26.71979375970952 0.2939595270327936 0 0 0
8580 1 17.17975246145792 26.71979375972708 2.7822595271205137 0 0 0
8861 1 18.940514441910707 27.964024292189073 1.5381142809976818 0 0 0
2995 1 1.3289667133527394 15.525439998221405 6.514736078492912 0 0 0
2996 1 1.3289667133819663 15.52543999833359 4.026436078518586 0 0 0
8787 1 3.09098245703305 14.28203598021919 5.270507988936083 0 0 0
8788 1 3.091013175163664 16.768982370244977 5.27051917477424 0 0 0
8723 1 4.853115090876015 15.525176539780142 6.514580579921739 0 0 0
8724 1 4.853115090893289 15.525176539996293 4.026280579979991 0 0 0
8657 1 8.376637406784775 15.524051529261943 6.514439104878197 0 0 0
8658 1 8.376637406676293 15.524051529486039 4.026139104952043 0 0 0
8721 1 6.615385593230525 14.28103033520432 5.270281843445814 0 0 0
8722 1 6.614712115606765 16.768424723124266 5.270410932243069 0 0 0
8591 1 11.898717841883126 15.52233168585518 6.514380146406378 0 0 0
8592 1 11.898717841847322 15.522331686087698 4.026080146393222 0 0 0
8655 1 10.138265863789876 14.27913838770631 5.270103389567321 0 0 0
8656 1 10.137523914822404 16.76734203485006 5.270342023762209 0 0 0
8525 1 15.41953832767766 15.520136179222073 6.51445344138606 0 0 0
8526 1 15.419538327645245 15.520136179350555 4.0261534414809805 0 0 0
8589 1 13.659156498719394 14.276632266424325 5.270095936758377 0 0 0
8590 1 13.65921522317623 16.765720450504066 5.27035014066999 0 0 0
8459 1 18.939945771554616 15.51836503677908 6.514636798380065 0 0 0
8460 1 18.939945771522403 15.518365036824301 4.026336798406945 0 0 0
8523 1 17.179220502416545 14.27416679386984 5.270301706865231 0 0 0
8524 1 17.180030448131095 16.763912182631085 5.270442110263582 0 0 0
2997 1 1.3291000636935473 18.012626928414026 6.514720633160017 0 0 0
3000 1 1.3291000637204222 18.012626928283172 4.026420633101496 0 0 0
3002 1 1.3291242709927413 20.500185593990416 6.514717417127617 0 0 0
3003 1 1.3291242709466071 20.50018559399206 4.026417417134637 0 0 0
8796 1 3.0908709846994413 19.256394141276505 5.270538686448777 0 0 0
8727 1 4.852752984768826 18.012506373435677 6.514639538316214 0 0 0
8735 1 4.852752984755269 18.012506373315436 4.026339538362651 0 0 0
8739 1 4.8524141557883915 20.50017629770896 6.514676000468766 0 0 0
8740 1 4.852414155790947 20.500176297832265 4.026376000540608 0 0 0
8661 1 8.375928966093078 18.011887035893906 6.514576014643216 0 0 0
8669 1 8.375928966098586 18.011887035692446 4.026276014662412 0 0 0
8673 1 8.37538546701709 20.49984697182282 6.514645909465996 0 0 0
8674 1 8.375385467081022 20.499846971972584 4.026345909444556 0 0 0
8737 1 6.614179870267356 19.256123407061697 5.27048563643461 0 0 0
8595 1 11.898280232511524 18.010821479864596 6.514555866488573 0 0 0
8603 1 11.898280232430972 18.01082147973381 4.026255866508169 0 0 0
8607 1 11.89781783669307 20.49919743342332 6.5146380324411615 0 0 0
8608 1 11.897817836706352 20.499197433607513 4.026338032468982 0 0 0
8671 1 10.136938025898607 19.255483817817165 5.270455958223385 0 0 0
8529 1 15.419733809421446 18.00935590666944 6.514592819801697 0 0 0
8537 1 15.419733809397993 18.009355906594593 4.026292819789032 0 0 0
8541 1 15.419589139798504 20.498267609145394 6.514656623210203 0 0 0
8542 1 15.419589139811723 20.498267609344975 4.026356623223774 0 0 0
8605 1 13.658964002390997 19.25445333113435 5.270462827537834 0 0 0
8463 1 18.940562990169667 18.008014971027965 6.514675500176802 0 0 0
8471 1 18.940562990145917 18.00801497102015 4.026375500218188 0 0 0
8475 1 18.940773595556518 20.497351422723284 6.514695894445813 0 0 0
8476 1 18.940773595505355 20.497351422826764 4.026395894515905 0 0 0
8539 1 17.180250023826368 19.253234516405445 5.270506323892278 0 0 0
3004 1 1.329123448748919 22.988020597816877 6.514716870620651 0 0 0
3011 1 1.3291234487221109 22.988020597789866 4.026416870614029 0 0 0
8797 1 3.0907120215446104 21.744120230341686 5.2705517699925455 0 0 0
8808 1 3.090582402274245 24.232068757889447 5.270559109205642 0 0 0
8743 1 4.852136754522807 22.98807032459201 6.514695920902731 0 0 0
8758 1 4.852136754464831 22.988070324540587 4.026395920958121 0 0 0
8677 1 8.374943306937922 22.98791831351026 6.514681249222411 0 0 0
8692 1 8.374943306946776 22.987918313416433 4.026381249215919 0 0 0
8738 1 6.613756520822808 21.74401567905943 5.27052545677383 0 0 0
8760 1 6.613418297259527 24.23205760203607 5.270545981651226 0 0 0
8611 1 11.897372815732679 22.987551811684572 6.5146778278611235 0 0 0
8626 1 11.89737281578323 22.98755181148447 4.026377827847054 0 0 0
8672 1 10.136437914696016 21.743655754351483 5.270511728931461 0 0 0
8694 1 10.13600685983526 24.231883710149216 5.270539371109148 0 0 0
8545 1 15.419309611426351 22.987000483370718 6.514687166604901 0 0 0
8560 1 15.419309611494407 22.987000483202642 4.026387166600136 0 0 0
8606 1 13.658599479094994 21.743032159739702 5.27051583877401 0 0 0
8628 1 13.658216423052437 24.231541381890064 5.2705415916973495 0 0 0
8479 1 18.940762465420296 22.986426290154196 6.514706342732844 0 0 0
8494 1 18.940762465445356 22.986426290123475 4.0264063426343935 0 0 0
8540 1 17.180177853072188 21.742264162764318 5.270537036227359 0 0 0
8562 1 17.17998135789437 24.231096648020507 5.270552077209425 0 0 0
3013 1 1.3291279607063655 25.476057202294907 6.514716845732254 0 0 0
3014 1 1.3291279607261588 25.476057202348382 4.0264168456971206 0 0 0
3325 1 1.329145049081521 27.96424280094407 6.514716888128049 0 0 0
3326 1 1.3291450491293495 27.964242800970666 4.026416888045944 0 0 0
8809 1 3.090488887507085 26.720181612317777 5.270562971932289 0 0 0
8762 1 4.851920757811028 25.476130887398433 6.514706297179978 0 0 0
8763 1 4.851920757818318 25.47613088741193 4.026406297115741 0 0 0
9122 1 4.851757880825317 27.96432004446906 6.514711586400014 0 0 0
9124 1 4.851757880772977 27.964320044483866 4.0264115863484955 0 0 0
8696 1 8.374580299947377 25.476089480804767 6.514699035950469 0 0 0
8697 1 8.37458029997445 25.476089480916777 4.02639903595475 0 0 0
8761 1 6.613150668667557 26.72022105486797 5.270556402699933 0 0 0
9056 1 8.374287245427201 27.964345714027075 6.514707968448084 0 0 0
9058 1 8.374287245426066 27.964345713948468 4.026407968429469 0 0 0
8630 1 11.896971374316172 25.4759164029236 6.514697446333506 0 0 0
8631 1 11.896971374299753 25.475916403080465 4.026397446411248 0 0 0
8695 1 10.135643329373226 26.72016979998595 5.270553153498862 0 0 0
8990 1 11.89662815256298 27.964300363791594 6.514707200598147 0 0 0
8992 1 11.896628152560018 27.964300363814584 4.026407200616096 0 0 0
8564 1 15.418998262628824 25.47562572410555 6.5147021349649235 0 0 0
8565 1 15.418998262651614 25.475625724197908 4.026402134988807 0 0 0
8629 1 13.657861841397986 26.720017806945112 5.270554304197836 0 0 0
8924 1 15.418707032557752 27.964182342523465 6.514709551636454 0 0 0
8926 1 15.418707032495512 27.964182342475446 4.0264095516100324 0 0 0
8498 1 18.940652581153937 25.475300093337253 6.514711626088975 0 0 0
8499 1 18.940652581137684 25.475300093421176 4.0264116260159115 0 0 0
8563 1 17.179752461444828 26.71979375969863 5.270559527034589 0 0 0
8858 1 18.940514441969512 27.964024292242947 6.514714280971619 0 0 0
8860 1 18.940514441899133 27.964024292189396 4.026414280957347 0 0 0
3342 1 1.3291725995564871 30.452538300810033 -5.926783087586831 0 0 0
9187 1 3.09042739841149 29.208418138247612 -7.170935054614775 0 0 1
9202 1 3.0904273984341386 29.208418138185575 -4.682635054692327 0 0 0
9155 1 4.851639377774672 30.45260806071637 -5.926785746501759 0 0 0
9089 1 8.374057607389554 30.45267066414847 -5.926787554563161 0 0 0
9121 1 6.612943464004518 29.208481799044065 -7.17093834318628 0 0 1
9152 1 6.6129434640669835 29.20848179904501 -4.682638343173538 0 0 0
9023 1 11.896348839879145 30.452703938916777 -5.92678793413331 0 0 0
9055 1 10.135347006523885 29.2085072300803 -7.17093996042092 0 0 1
9086 1 10.13534700658899 29.208507230038467 -4.682639960373111 0 0 0
8957 1 15.418459620842645 30.452693387531532 -5.926786757565027 0 0 0
8989 1 13.65755831273435 29.208477918905647 -7.170939375511043 0 0 1
9020 1 13.65755831281658 29.2084779188703 -4.682639375407311 0 0 0
8891 1 18.94038307546104 30.452640529899785 -5.926784393783829 0 0 0
8923 1 17.179537806973993 29.208396266854514 -7.170936765221814 0 0 1
8954 1 17.179537806877086 29.208396266785428 -4.682636765246372 0 0 0
3351 1 1.3292054607852366 32.9409126753133 -5.92678308003629 0 0 0
9191 1 3.0903912190279215 31.696746760734086 -7.170934064754223 0 0 1
9192 1 3.0903733909905484 34.185141581327656 -7.170933573451689 0 0 1
9203 1 3.0903912189923277 31.696746760753726 -4.682634064758812 0 0 0
9211 1 3.0903733908745794 34.18514158126861 -4.682633573563685 0 0 0
9171 1 4.851557044650032 32.94096996087054 -5.926784412931786 0 0 0
9105 1 8.373884479380408 32.94104841643171 -5.926785314155003 0 0 0
9130 1 6.612788211133066 31.696817875280182 -7.170935712890085 0 0 1
9131 1 6.612676795109755 34.18520982762724 -7.170934394561292 0 0 1
9153 1 6.612788211158156 31.696817875307985 -4.682635712906521 0 0 0
9172 1 6.612676795110463 34.18520982768836 -4.6826343946977484 0 0 0
9039 1 11.896132240378275 32.941124205542216 -5.926785501559911 0 0 0
9064 1 10.135114932196513 31.69688622614318 -7.170936516050144 0 0 1
9065 1 10.134941149956086 34.18529688779754 -7.170934794053716 0 0 1
9087 1 10.135114932193414 31.696886226136296 -4.682636515975556 0 0 0
9106 1 10.134941149928533 34.185296887784716 -4.682634794113037 0 0 0
8973 1 15.418263283859702 32.94117417598092 -5.9267849127375385 0 0 0
8998 1 13.657313808125801 31.696929581766927 -7.170936221026382 0 0 1
8999 1 13.657127152636575 34.18537712763662 -7.170934645730047 0 0 1
9021 1 13.657313808118307 31.696929581757896 -4.682636221073854 0 0 0
9040 1 13.65712715266847 34.18537712761554 -4.68263464578027 0 0 0
8907 1 18.94027265857516 32.941182022617035 -5.9267837337310585 0 0 0
8932 1 17.17935736327922 31.696933127247185 -7.170934918610568 0 0 1
8933 1 17.179216199500743 34.18542606979643 -7.170933994414443 0 0 1
8955 1 17.179357363275763 31.696933127252958 -4.682634918640048 0 0 0
8974 1 17.179216199526127 34.18542606985645 -4.682633994426963 0 0 0
3353 1 1.3292385958844153 35.429340911174286 -5.926783081802461 0 0 0
3358 1 1.3292684295101667 37.917803375263276 -5.926783077340175 0 0 0
9200 1 3.0903677488780694 36.673581383671845 -7.170933325236919 0 0 1
9212 1 3.090367748874391 36.67358138364138 -4.68263332515038 0 0 0
9175 1 4.851503182879047 35.42938460244586 -5.926783746423998 0 0 0
9183 1 4.8514707568409206 37.917834585029794 -5.926783410760957 0 0 0
9109 1 8.373759933663386 35.429464762466786 -5.926784194425005 0 0 0
9117 1 8.37367529714657 37.917907811351846 -5.926783635097175 0 0 0
9148 1 6.6126011013318875 36.67364107788315 -7.170933734135496 0 0 1
9173 1 6.6126011013484485 36.67364107782198 -4.682633734050643 0 0 0
9043 1 11.895972386035142 35.429557646357445 -5.926784285573758 0 0 0
9051 1 11.895860601521237 37.91800114089325 -5.9267836786307795 0 0 0
9082 1 10.134817473097465 36.67373050239525 -7.170933931759894 0 0 1
9107 1 10.134817473027873 36.67373050235136 -4.682633931766646 0 0 0
8977 1 15.418116023894546 35.42963584506765 -5.926783992534354 0 0 0
8985 1 15.418011276317664 37.91808671131812 -5.926783531377817 0 0 0
9016 1 13.656991913115286 36.673823390023074 -7.170933857557568 0 0 1
9041 1 13.656991913055583 36.67382339002356 -4.682633857517207 0 0 0
8911 1 18.940186455660246 35.429674592319685 -5.926783405283467 0 0 0
8919 1 18.940122709023097 37.918137527279384 -5.926783239915943 0 0 0
8950 1 17.17911182071946 36.67389153407959 -7.17093353465196 0 0 1
8975 1 17.179111820673313 36.6738915341283 -4.682633534647414 0 0 0
3360 1 1.3292930941673835 40.40628539779128 -5.926783076905644 0 0 0
9201 1 3.0903693979476885 39.162049410406944 -7.170933200351958 0 0 1
9216 1 3.090369397967612 39.162049410396136 -4.6826332005227265 0 0 0
9578 1 3.090374800276951 41.6505331469228 -7.170933140548717 0 0 1
9587 1 3.090374800329888 41.650533146998704 -4.682633140484999 0 0 0
9186 1 4.851453640679872 40.406306267707166 -5.926783245085447 0 0 0
9120 1 8.373621829118242 40.40636814847765 -5.926783355974805 0 0 0
9149 1 6.61255322983921 39.1620981590279 -7.170933406738728 0 0 1
9184 1 6.612553229891121 39.1620981589897 -4.6826334068813 0 0 0
9512 1 6.612525934125238 41.65057071816976 -7.170933242257528 0 0 1
9527 1 6.612525934145934 41.65057071814514 -4.682633242110892 0 0 0
9054 1 11.895787225697068 40.40645218101369 -5.926783376789649 0 0 0
9083 1 10.134734592301594 39.162179984012354 -7.17093350451279 0 0 1
9118 1 10.134734592330478 39.162179984010976 -4.68263350462666 0 0 0
9446 1 10.134683175835006 41.65063986905244 -7.1709332900323846 0 0 1
9461 1 10.134683175818408 41.65063986907108 -4.68263328999582 0 0 0
8988 1 15.417940856406776 40.406532797422706 -5.926783302495383 0 0 0
9017 1 13.656899240488833 39.162270384286266 -7.170933464587721 0 0 1
9052 1 13.65689924046747 39.16227038425855 -4.682633464727537 0 0 0
9380 1 13.656839803715872 41.65071945486381 -7.17093326869617 0 0 1
9395 1 13.656839803732412 41.650719454832114 -4.682633268552595 0 0 0
8922 1 18.94007778651391 40.40658454958457 -5.926783156922525 0 0 0
8951 1 17.179038538829033 39.16234161628073 -7.170933302497419 0 0 1
8986 1 17.179038538857867 39.162341616245875 -4.682633302641706 0 0 0
9314 1 17.178989864227567 41.65078476176685 -7.170933186685229 0 0 1
9329 1 17.17898986424799 41.65078476175116 -4.682633186644858 0 0 0
3334 1 1.3291725995833459 30.452538300837766 -0.950183087500153 0 0 0
3341 1 1.3291725995772758 30.452538300894098 -3.4384830875170698 0 0 0
9193 1 3.0904273984028876 29.208418138209545 -2.194335054609339 0 0 0
9139 1 4.851639377738935 30.452608060743664 -0.9501857464325763 0 0 0
9154 1 4.851639377739297 30.45260806071732 -3.4384857463754135 0 0 0
9073 1 8.374057607397601 30.452670664157818 -0.9501875544724813 0 0 0
9088 1 8.374057607459399 30.452670664127336 -3.438487554510989 0 0 0
9133 1 6.612943464061528 29.208481799118495 -2.194338343133555 0 0 0
9007 1 11.896348839863512 30.452703938938157 -0.9501879341039342 0 0 0
9022 1 11.896348839900396 30.452703938857173 -3.4384879340655883 0 0 0
9067 1 10.13534700658713 29.20850723000764 -2.1943399603937848 0 0 0
8941 1 15.418459620839071 30.452693387532875 -0.9501867574436071 0 0 0
8956 1 15.418459620781176 30.452693387454147 -3.4384867575271207 0 0 0
9001 1 13.657558312761138 29.208477918912546 -2.1943393754519622 0 0 0
8875 1 18.940383075499554 30.452640529900457 -0.950184393768271 0 0 0
8890 1 18.940383075452793 30.452640529886562 -3.438484393785866 0 0 0
8935 1 17.179537806876503 29.20839626678623 -2.1943367653273587 0 0 0
3343 1 1.3292054607637696 32.94091267530925 -0.9501830799295723 0 0 0
3344 1 1.329205460778791 32.94091267524933 -3.4384830800026482 0 0 0
9204 1 3.090391219049789 31.696746760742727 -2.1943340647537743 0 0 0
9205 1 3.090373390951061 34.185141581266926 -2.194333573498203 0 0 0
9158 1 4.851557044619224 32.94096996087642 -0.9501844128481809 0 0 0
9159 1 4.851557044626327 32.940969960848136 -3.438484412880664 0 0 0
9092 1 8.373884479434052 32.94104841640074 -0.9501853140695192 0 0 0
9093 1 8.373884479385508 32.94104841638466 -3.4384853141730582 0 0 0
9156 1 6.6127882111115195 31.69681787534322 -2.1943357129208567 0 0 0
9157 1 6.612676795121974 34.18520982763169 -2.194334394619029 0 0 0
9026 1 11.896132240398357 32.941124205567554 -0.950185501512181 0 0 0
9027 1 11.896132240439359 32.94112420550622 -3.4384855015324174 0 0 0
9090 1 10.135114932195181 31.696886226125617 -2.194336515951848 0 0 0
9091 1 10.134941149988233 34.185296887799375 -2.1943347940410045 0 0 0
8960 1 15.418263283852978 32.94117417594516 -0.9501849126898199 0 0 0
8961 1 15.4182632839366 32.94117417598168 -3.438484912667435 0 0 0
9024 1 13.65731380813916 31.696929581809734 -2.1943362210817288 0 0 0
9025 1 13.657127152627028 34.18537712757312 -2.1943346457456965 0 0 0
8894 1 18.940272658552274 32.94118202256133 -0.9501837336271036 0 0 0
8895 1 18.94027265862438 32.941182022548325 -3.4384837337318475 0 0 0
8958 1 17.179357363278584 31.69693312725779 -2.1943349185822982 0 0 0
8959 1 17.179216199539752 34.18542606982445 -2.194333994311403 0 0 0
3346 1 1.3292385959011064 35.429340911172474 -0.950183081780875 0 0 0
3352 1 1.3292385958548785 35.429340911241546 -3.43848308179107 0 0 0
3354 1 1.329268429599446 37.91780337521465 -0.9501830773163821 0 0 0
3355 1 1.3292684296228676 37.91780337514803 -3.4384830773278736 0 0 0
9213 1 3.090367748874509 36.67358138365398 -2.1943333251865633 0 0 0
9163 1 4.851503182906246 35.429384602449595 -0.9501837464934093 0 0 0
9174 1 4.851503182860173 35.42938460254459 -3.438483746469992 0 0 0
9178 1 4.851470756804705 37.91783458502421 -0.9501834107743614 0 0 0
9179 1 4.851470756862069 37.91783458488499 -3.4384834107304325 0 0 0
9097 1 8.373759933634839 35.42946476252449 -0.9501841944682476 0 0 0
9108 1 8.373759933624386 35.42946476251877 -3.4384841944751305 0 0 0
9112 1 8.37367529708831 37.91790781129541 -0.9501836350732579 0 0 0
9113 1 8.373675297100446 37.9179078112239 -3.438483635105517 0 0 0
9176 1 6.612601101316849 36.67364107783798 -2.194333734110107 0 0 0
9031 1 11.895972386121414 35.42955764636596 -0.9501842855606514 0 0 0
9042 1 11.895972386077181 35.42955764634907 -3.4384842855307594 0 0 0
9046 1 11.895860601520802 37.91800114088533 -0.9501836786517655 0 0 0
9047 1 11.895860601524182 37.9180011408336 -3.438483678601265 0 0 0
9110 1 10.134817473103581 36.673730502421066 -2.194333931795439 0 0 0
8965 1 15.41811602386242 35.42963584506302 -0.9501839925706289 0 0 0
8976 1 15.418116023903755 35.429635845139785 -3.438483992607813 0 0 0
8980 1 15.418011276325203 37.91808671131703 -0.9501835314317896 0 0 0
8981 1 15.418011276401433 37.91808671121731 -3.438483531396217 0 0 0
9044 1 13.656991913055604 36.67382339004165 -2.194333857515426 0 0 0
8899 1 18.940186455564717 35.42967459237472 -0.9501834052722721 0 0 0
8910 1 18.940186455626225 35.429674592361174 -3.438483405283037 0 0 0
8914 1 18.940122708996093 37.91813752735462 -0.9501832399158363 0 0 0
8915 1 18.940122709002466 37.91813752730736 -3.4384832399312377 0 0 0
8978 1 17.179111820750506 36.67389153412973 -2.1943335346883956 0 0 0
3357 1 1.3292930941755448 40.40628539773146 -0.9501830768991097 0 0 0
3359 1 1.3292930941984857 40.406285397924066 -3.4384830768954724 0 0 0
9214 1 3.09036939795487 39.16204941037249 -2.194333200350681 0 0 0
9588 1 3.090374800224583 41.650533146927344 -2.1943331405702566 0 0 0
9182 1 4.851453640695494 40.406306267674466 -0.9501832451044302 0 0 0
9185 1 4.851453640649563 40.406306267897186 -3.438483245059564 0 0 0
9116 1 8.373621829094729 40.40636814845243 -0.9501833559442192 0 0 0
9119 1 8.37362182913495 40.4063681486309 -3.4384833559899373 0 0 0
9177 1 6.612553229830391 39.162098158985096 -2.1943334067548586 0 0 0
9528 1 6.612525934107938 41.65057071814949 -2.1943332422520285 0 0 0
9050 1 11.895787225633132 40.40645218101094 -0.9501833767603919 0 0 0
9053 1 11.895787225586554 40.40645218111134 -3.4384833767808725 0 0 0
9111 1 10.134734592264598 39.16217998400584 -2.1943335044124503 0 0 0
9462 1 10.134683175760003 41.65063986906946 -2.194333290025568 0 0 0
8984 1 15.417940856430278 40.40653279743567 -0.9501833025016236 0 0 0
8987 1 15.417940856376191 40.40653279750151 -3.43848330249922 0 0 0
9045 1 13.656899240508272 39.16227038427968 -2.1943334645560135 0 0 0
9396 1 13.656839803685425 41.650719454841486 -2.194333268649409 0 0 0
8918 1 18.940077786516245 40.40658454957574 -0.950183156890314 0 0 0
8921 1 18.940077786464833 40.406584549677696 -3.438483156871041 0 0 0
8979 1 17.179038538808086 39.16234161628513 -2.1943333024994436 0 0 0
9330 1 17.178989864286617 41.65078476170825 -2.1943331866827105 0 0 0
3333 1 1.3291725995650299 30.452538300856226 1.5381169124201854 0 0 0
9188 1 3.0904273984443966 29.208418138196365 2.7822649453586417 0 0 0
9194 1 3.0904273984261055 29.20841813824456 0.2939649454002823 0 0 0
9138 1 4.851639377801177 30.45260806072195 1.538114253545613 0 0 0
9072 1 8.374057607375725 30.452670664122998 1.5381124454639292 0 0 0
9123 1 6.612943464050419 29.208481799036583 2.7822616568287284 0 0 0
9136 1 6.612943464010008 29.20848179905229 0.2939616568977904 0 0 0
9006 1 11.896348839866405 30.452703938888664 1.538112065897329 0 0 0
9057 1 10.135347006578357 29.208507230045818 2.7822600395958452 0 0 0
9070 1 10.135347006513822 29.208507230075476 0.29396003967059636 0 0 0
8940 1 15.418459620829406 30.45269338751111 1.5381132424666337 0 0 0
8991 1 13.6575583128093 29.208477918887194 2.7822606245499006 0 0 0
9004 1 13.657558312737976 29.208477918907114 0.2939606245907392 0 0 0
8874 1 18.940383075474116 30.45264052990272 1.5381156062341312 0 0 0
8925 1 17.17953780689695 29.208396266783062 2.7822632347522513 0 0 0
8938 1 17.179537806971148 29.208396266847725 0.29396323484296777 0 0 0
3336 1 1.3292054607823598 32.94091267523597 1.5381169199935565 0 0 0
9195 1 3.0903912190325133 31.69674676074181 0.2939659353125643 0 0 0
9196 1 3.090391218999965 31.696746760769194 2.782265935225285 0 0 0
9197 1 3.090373390852006 34.185141581290914 2.7822664265469133 0 0 0
9206 1 3.0903733909746456 34.185141581324324 0.2939664264863326 0 0 0
9143 1 4.85155704463301 32.940969960843304 1.5381155870755219 0 0 0
9077 1 8.373884479393938 32.94104841642842 1.5381146858898822 0 0 0
9137 1 6.612788211142369 31.69681787528835 0.2939642871340276 0 0 0
9140 1 6.612788211146233 31.696817875317084 2.7822642871058467 0 0 0
9141 1 6.612676795114583 34.18520982769755 2.782265605368642 0 0 0
9160 1 6.612676795131706 34.18520982762937 0.2939656054240416 0 0 0
9011 1 11.896132240373744 32.941124205550665 1.5381144984759534 0 0 0
9071 1 10.135114932199482 31.696886226149314 0.2939634840269338 0 0 0
9074 1 10.135114932184797 31.69688622615141 2.782263484048806 0 0 0
9075 1 10.134941149927638 34.18529688781273 2.7822652059361315 0 0 0
9094 1 10.134941149961145 34.18529688781716 0.2939652059488569 0 0 0
8945 1 15.418263283861764 32.94117417597443 1.538115087295741 0 0 0
9005 1 13.657313808128619 31.6969295817683 0.29396377899566023 0 0 0
9008 1 13.65731380809314 31.6969295817655 2.7822637789388156 0 0 0
9009 1 13.657127152649052 34.18537712759665 2.7822653542840885 0 0 0
9028 1 13.65712715263388 34.18537712763901 0.2939653542898557 0 0 0
8879 1 18.940272658571963 32.94118202259157 1.5381162663267025 0 0 0
8939 1 17.1793573632896 31.696933127243156 0.29396508142043876 0 0 0
8942 1 17.179357363287835 31.696933127247597 2.782265081394409 0 0 0
8943 1 17.179216199539372 34.18542606985654 2.7822660056379513 0 0 0
8962 1 17.179216199502427 34.185426069800286 0.2939660055958921 0 0 0
3345 1 1.3292385958816861 35.429340911283745 1.5381169182035466 0 0 0
3348 1 1.3292684295041477 37.91780337513611 1.538116922648554 0 0 0
9207 1 3.090367748869194 36.67358138367537 0.2939666748826449 0 0 0
9208 1 3.0903677488695935 36.67358138363679 2.7822666747373925 0 0 0
9162 1 4.851503182876573 35.42938460253149 1.5381162536215607 0 0 0
9167 1 4.851470756822895 37.91783458492677 1.5381165892295476 0 0 0
9096 1 8.373759933690952 35.42946476255062 1.5381158055751483 0 0 0
9101 1 8.373675297129134 37.917907811257024 1.5381163648981726 0 0 0
9161 1 6.6126011013393455 36.67364107787281 0.2939662659729973 0 0 0
9164 1 6.61260110132994 36.673641077830915 2.782266265889052 0 0 0
9030 1 11.895972386036197 35.42955764641086 1.5381157144570121 0 0 0
9035 1 11.895860601537466 37.918001140818646 1.5381163213942135 0 0 0
9095 1 10.134817473106851 36.67373050242299 0.29396606831683963 0 0 0
9098 1 10.134817473036914 36.67373050236605 2.782266068212824 0 0 0
8964 1 15.418116023885347 35.42963584509715 1.5381160074833413 0 0 0
8969 1 15.418011276325426 37.91808671124993 1.53811646861703 0 0 0
9029 1 13.656991913120553 36.67382339002793 0.2939661425344595 0 0 0
9032 1 13.656991913063774 36.67382339003314 2.7822661424714883 0 0 0
8898 1 18.940186455672624 35.42967459237974 1.5381165947188116 0 0 0
8903 1 18.94012270903879 37.91813752720107 1.5381167600783734 0 0 0
8963 1 17.17911182072353 36.67389153407221 0.29396646540411386 0 0 0
8966 1 17.179111820678575 36.67389153412462 2.782266465279021 0 0 0
3356 1 1.3292930941748797 40.40628539793492 1.5381169231276794 0 0 0
9209 1 3.0903693979832285 39.16204941039104 2.782266799627078 0 0 0
9215 1 3.090369397945559 39.16204941041458 0.29396679951883015 0 0 0
9580 1 3.0903748002661566 41.65053314693926 0.2939668596500219 0 0 0
9581 1 3.090374800334829 41.65053314697248 2.7822668593944906 0 0 0
9181 1 4.8514536406664845 40.40630626784755 1.5381167549500483 0 0 0
9115 1 8.373621829125879 40.406368148602006 1.5381166440666252 0 0 0
9165 1 6.612553229884633 39.162098158992094 2.7822665932612884 0 0 0
9180 1 6.612553229839088 39.16209815901208 0.2939665931454477 0 0 0
9515 1 6.612525934104914 41.650570718167074 0.2939667579248571 0 0 0
9516 1 6.612525934144436 41.65057071810982 2.7822667577520517 0 0 0
9049 1 11.895787225680575 40.40645218110124 1.5381166232163757 0 0 0
9099 1 10.134734592316525 39.1621799840005 2.7822664955055822 0 0 0
9114 1 10.134734592283055 39.162179984012425 0.293966495420874 0 0 0
9449 1 10.134683175837258 41.65063986904495 0.29396671008203645 0 0 0
9450 1 10.134683175834386 41.650639869069366 2.7822667099053295 0 0 0
8983 1 15.417940856429757 40.406532797509044 1.5381166975084473 0 0 0
9033 1 13.65689924047656 39.16227038426747 2.782266535355763 0 0 0
9048 1 13.656899240493384 39.162270384293315 0.2939665353399347 0 0 0
9383 1 13.656839803714243 41.65071945487033 0.29396673150068336 0 0 0
9384 1 13.656839803729785 41.65071945482816 2.7822667313712537 0 0 0
8917 1 18.94007778649919 40.40658454968332 1.5381168431022427 0 0 0
8967 1 17.179038538866084 39.1623416162453 2.7822666974552606 0 0 0
8982 1 17.17903853884426 39.1623416162628 0.2939666974593382 0 0 0
9317 1 17.178989864236723 41.65078476175078 0.2939668134190057 0 0 0
9318 1 17.178989864238865 41.65078476175267 2.7822668132667414 0 0 0
3328 1 1.3291725995732546 30.452538300903804 6.514716912460082 0 0 0
3329 1 1.3291725995720098 30.452538300877887 4.026416912460841 0 0 0
9189 1 3.0904273983983273 29.208418138225994 5.2705649453485055 0 0 0
9128 1 4.851639377743016 30.45260806072808 6.5147142535335645 0 0 0
9129 1 4.8516393777445685 30.452608060736164 4.026414253616002 0 0 0
9062 1 8.374057607381094 30.452670664136097 6.514712445486561 0 0 0
9063 1 8.374057607412697 30.45267066417226 4.026412445505134 0 0 0
9126 1 6.612943464045586 29.208481799100984 5.270561656880082 0 0 0
8996 1 11.89634883987991 30.452703938903706 6.514712065855354 0 0 0
8997 1 11.896348839891582 30.452703938913956 4.026412065922055 0 0 0
9060 1 10.135347006580021 29.20850723002101 5.2705600396394 0 0 0
8930 1 15.418459620820203 30.452693387497355 6.514713242493285 0 0 0
8931 1 15.418459620809287 30.452693387503462 4.026413242479218 0 0 0
8994 1 13.657558312776189 29.208477918934513 5.27056062458462 0 0 0
8864 1 18.940383075517158 30.452640529913715 6.514715606223041 0 0 0
8865 1 18.94038307546023 30.45264052987836 4.026415606224619 0 0 0
8928 1 17.17953780689629 29.20839626680435 5.270563234693478 0 0 0
3330 1 1.32920546077279 32.94091267524634 6.514716920048205 0 0 0
3335 1 1.329205460763562 32.94091267533728 4.02641692001641 0 0 0
9190 1 3.0903912190575853 31.696746760766047 5.270565935249232 0 0 0
9198 1 3.09037339093878 34.18514158127444 5.270566426415063 0 0 0
9132 1 4.851557044601289 32.94096996081865 6.514715587133914 0 0 0
9142 1 4.851557044622645 32.94096996092585 4.026415587103165 0 0 0
9066 1 8.373884479424364 32.94104841638639 6.514714685864138 0 0 0
9076 1 8.3738844793696 32.94104841641315 4.026414685813175 0 0 0
9127 1 6.612788211077399 31.69681787535797 5.270564287064696 0 0 0
9144 1 6.612676795115297 34.18520982763991 5.270565605290932 0 0 0
9000 1 11.8961322403951 32.941124205566005 6.514714498467509 0 0 0
9010 1 11.896132240424263 32.94112420554132 4.026414498482262 0 0 0
9061 1 10.13511493219132 31.696886226120082 5.270563484003138 0 0 0
9078 1 10.134941149978523 34.18529688782072 5.270565205933303 0 0 0
8934 1 15.418263283840734 32.9411741759259 6.514715087289468 0 0 0
8944 1 15.418263283944421 32.941174175973806 4.026415087353269 0 0 0
8995 1 13.65731380812439 31.696929581799488 5.270563778892879 0 0 0
9012 1 13.6571271526307 34.18537712757105 5.2705653542125255 0 0 0
8868 1 18.940272658564446 32.94118202253435 6.514716266350327 0 0 0
8878 1 18.94027265862869 32.9411820225857 4.026416266285511 0 0 0
8929 1 17.17935736327991 31.69693312724445 5.270565081388563 0 0 0
8946 1 17.17921619953032 34.18542606982923 5.270566005640305 0 0 0
3337 1 1.3292385958892814 35.42934091128218 6.514716918230629 0 0 0
3338 1 1.3292385958421984 35.429340911146205 4.026416918205519 0 0 0
3339 1 1.3292684295808717 37.91780337507763 6.514716922676664 0 0 0
3347 1 1.3292684295994521 37.91780337527851 4.0264169226683775 0 0 0
9199 1 3.0903677488539967 36.673581383664036 5.270566674902652 0 0 0
9146 1 4.8515031829007444 35.42938460253662 6.514716253483868 0 0 0
9147 1 4.85150318286274 35.42938460248266 4.026416253526872 0 0 0
9150 1 4.851470756807168 37.91783458491963 6.514716589207822 0 0 0
9166 1 4.851470756840902 37.91783458499861 4.026416589259131 0 0 0
9080 1 8.37375993362761 35.42946476259469 6.514715805524804 0 0 0
9081 1 8.37375993360821 35.42946476248442 4.026415805530386 0 0 0
9084 1 8.373675297093632 37.91790781120784 6.514716364910861 0 0 0
9100 1 8.373675297071843 37.91790781132286 4.026416364908167 0 0 0
9145 1 6.6126011013214745 36.67364107785542 5.2705662659284895 0 0 0
9014 1 11.895972386121095 35.42955764641358 6.514715714418116 0 0 0
9015 1 11.895972386095305 35.42955764633159 4.026415714469654 0 0 0
9018 1 11.89586060152168 37.91800114079309 6.514716321342048 0 0 0
9034 1 11.895860601521422 37.918001140905126 4.026416321407439 0 0 0
9079 1 10.13481747308867 36.67373050242202 5.270566068239423 0 0 0
8948 1 15.418116023857202 35.429635845104634 6.514716007391309 0 0 0
8949 1 15.41811602389888 35.4296358450907 4.026416007388718 0 0 0
8952 1 15.418011276312102 37.91808671125819 6.51471646855486 0 0 0
8968 1 15.418011276423005 37.91808671129167 4.026416468595648 0 0 0
9013 1 13.656991913063672 36.67382339004578 5.270566142508477 0 0 0
8882 1 18.940186455560482 35.42967459243114 6.514716594709664 0 0 0
8883 1 18.9401864556245 35.42967459232252 4.026416594712295 0 0 0
8886 1 18.940122708978564 37.91813752727506 6.51471676007196 0 0 0
8902 1 18.940122708996807 37.918137527374846 4.026416760073812 0 0 0
8947 1 17.179111820734686 36.673891534124806 5.270566465353727 0 0 0
3349 1 1.329293094182793 40.40628539788721 6.514716923069399 0 0 0
3350 1 1.329293094197787 40.40628539773843 4.026416923084889 0 0 0
9210 1 3.090369397954009 39.16204941034957 5.270566799498413 0 0 0
9577 1 3.0903748002424027 41.65053314692054 5.270566859557942 0 0 0
9169 1 4.851453640689728 40.4063062678193 6.514716754876806 0 0 0
9170 1 4.85145364067726 40.406306267723764 4.026416754945939 0 0 0
9103 1 8.373621829120706 40.40636814856493 6.51471664405292 0 0 0
9104 1 8.373621829157885 40.406368148493115 4.026416644030706 0 0 0
9168 1 6.612553229837579 39.16209815896783 5.270566593117388 0 0 0
9511 1 6.6125259341210585 41.65057071812437 5.270566757886098 0 0 0
9037 1 11.895787225625398 40.40645218108804 6.514716623215698 0 0 0
9038 1 11.895787225567577 40.40645218098269 4.026416623212696 0 0 0
9102 1 10.13473459226644 39.162179983982575 5.270566495449565 0 0 0
9445 1 10.134683175775722 41.65063986908812 5.270566710125499 0 0 0
8971 1 15.417940856435058 40.40653279753912 6.514716697488689 0 0 0
8972 1 15.417940856387585 40.40653279740497 4.026416697485915 0 0 0
9036 1 13.656899240504517 39.1622703842777 5.270566535330816 0 0 0
9379 1 13.656839803692606 41.650719454821754 5.270566731422847 0 0 0
8905 1 18.940077786511225 40.40658454969036 6.514716843081239 0 0 0
8906 1 18.940077786453582 40.40658454960285 4.0264168431313 0 0 0
8970 1 17.179038538821032 39.162341616284486 5.2705666974248 0 0 0
9313 1 17.178989864269937 41.65078476173347 5.270566813436175 0 0 0
3670 1 1.3293120962599274 42.89477666404776 -5.926783076097598 0 0 0
9579 1 3.090381618089112 44.139023838721265 -7.1709331044076645 0 0 1
9598 1 3.0903816181407384 44.139023838734005 -4.682633104563304 0 0 0
9547 1 4.851446817191508 42.894789588759075 -5.9267831610028106 0 0 0
9481 1 8.373591414531868 42.89483870796819 -5.926783216094832 0 0 0
9513 1 6.612512999528579 44.139051268506925 -7.170933156480222 0 0 1
9548 1 6.612512999478753 44.13905126850932 -4.682633156623511 0 0 0
9415 1 11.895742891675972 42.894908798137386 -5.926783224060697 0 0 0
9447 1 10.134654712831633 44.13910612182623 -7.170933179629853 0 0 1
9482 1 10.134654712847134 44.13910612177469 -4.6826331797951735 0 0 0
9349 1 15.417896646733046 42.894978170317884 -5.926783183653925 0 0 0
9381 1 13.656804951605311 44.1391713406179 -7.170933166930978 0 0 1
9416 1 13.656804951623144 44.139171340591886 -4.682633167019121 0 0 0
9283 1 18.940047704452045 42.895024887921146 -5.926783112081002 0 0 0
9315 1 17.178959680219478 44.13922647365563 -7.170933124784262 0 0 1
9350 1 17.178959680156932 44.139226473676736 -4.682633124853833 0 0 0
3672 1 1.329325826037276 45.383270424233636 -5.926783071429618 0 0 0
3679 1 1.3293351278270877 47.871762664057336 -5.926783068677071 0 0 0
9585 1 3.0903884379434783 46.62751582343909 -7.170933086138801 0 0 1
9599 1 3.0903884379470408 46.62751582345617 -4.6826330859063 0 0 0
9551 1 4.85144641198802 45.38327761695296 -5.926783113953251 0 0 0
9565 1 4.851449588687191 47.8717659603019 -5.926783089147709 0 0 0
9485 1 8.373577064836574 45.38331448304385 -5.926783139961449 0 0 0
9499 1 8.373573155389074 47.87179214521457 -5.926783099021903 0 0 0
9524 1 6.6125094187743505 46.62753475632911 -7.17093311039754 0 0 1
9549 1 6.612509418695161 46.62753475637499 -4.682633110234368 0 0 0
9419 1 11.895719329465251 45.38336945254137 -5.926783143292897 0 0 0
9433 1 11.895709741529894 47.871832927684196 -5.926783096730647 0 0 0
9458 1 10.134642006368862 46.627575887685865 -7.170933119518987 0 0 1
9483 1 10.134642006330877 46.627575887634706 -4.682633119377008 0 0 0
9353 1 15.41787144719439 45.38342529256028 -5.9267831224949115 0 0 0
9367 1 15.417859325835382 47.87187540913966 -5.926783086239179 0 0 0
9392 1 13.656787322959257 46.6276262676136 -7.170933111234694 0 0 1
9417 1 13.656787322993106 46.62762626760945 -4.682633111090236 0 0 0
9287 1 18.940028787683577 45.383464321371825 -5.926783084290942 0 0 0
9301 1 18.940017917269724 47.871906120131946 -5.926783066346951 0 0 0
9326 1 17.17894274194905 46.62766999094138 -7.17093309008325 0 0 1
9351 1 17.1789427419397 46.62766999097489 -4.682633089976283 0 0 0
3681 1 1.3293409795716515 50.360251323840785 -5.926783066038311 0 0 0
9586 1 3.0903945119969927 49.116005808669804 -7.170933074438944 0 0 1
9596 1 3.0903995248008687 51.604492183799884 -7.170933065929825 0 0 1
9607 1 3.090394511976562 49.116005808647195 -4.682633074546471 0 0 0
9608 1 3.0903995247758824 51.60449218374861 -4.682633065699378 0 0 0
9569 1 4.851454405359326 50.360252146834156 -5.926783074099933 0 0 0
9503 1 8.373575437418083 50.36026965548528 -5.926783078005903 0 0 0
9525 1 6.612511398035639 49.116018053022096 -7.170933084153986 0 0 1
9544 1 6.612516240126383 51.604499449704555 -7.170933070422989 0 0 1
9566 1 6.612511398031341 49.11601805300912 -4.682633084282124 0 0 0
9567 1 6.612516240049004 51.60449944967241 -4.682633070189499 0 0 0
9437 1 11.89570887291717 50.36029828063855 -5.926783076249486 0 0 0
9459 1 10.134639366282839 49.11604723373213 -7.170933086119986 0 0 1
9478 1 10.134642557561278 51.604518939675245 -7.170933072023454 0 0 1
9500 1 10.134639366257574 49.11604723376278 -4.682633086283645 0 0 0
9501 1 10.13464255758307 51.60451893966634 -4.682633071823616 0 0 0
9371 1 15.41785566326571 50.36032891281825 -5.926783068336965 0 0 0
9393 1 13.656781036773767 49.116084091302604 -7.17093308078554 0 0 1
9412 1 13.656781653340296 51.60454443652236 -7.170933067776463 0 0 1
9434 1 13.656781036763432 49.1160840913661 -4.682633080889858 0 0 0
9435 1 13.656781653342344 51.60454443657261 -4.682633067604867 0 0 0
9305 1 18.940012584484247 50.3603518318882 -5.926783058656218 0 0 0
9327 1 17.178934827250046 49.116116930030515 -7.170933068473484 0 0 1
9346 1 17.17893269479178 51.60456782800678 -7.170933059184619 0 0 1
9368 1 17.17893482720678 49.116116930010726 -4.68263306862998 0 0 0
9369 1 17.178932694785605 51.60456782801753 -4.682633058996112 0 0 0
3684 1 1.3293443084770793 52.84873565146199 -5.9267830606160326 0 0 0
3996 1 1.3293459025998156 55.33721569787492 -5.926783054762562 0 0 0
9597 1 3.09040342293595 54.09297444866191 -7.170933060722391 0 0 1
9612 1 3.090403422952279 54.092974448718 -4.682633060881554 0 0 0
9575 1 4.851459613923882 52.84873503821727 -5.9267830636615635 0 0 0
9935 1 4.851464483973405 55.33721436555254 -5.926783061396991 0 0 0
9509 1 8.37358088719737 52.84874591087086 -5.9267830655562745 0 0 0
9545 1 6.612522140994677 54.092978207899755 -7.170933063085564 0 0 1
9576 1 6.612522141071711 54.09297820785265 -4.6826330632734345 0 0 0
9869 1 8.37358750110052 55.33722043108855 -5.926783062758183 0 0 0
9443 1 11.895712898004435 52.84876479469349 -5.926783065521941 0 0 0
9479 1 10.134648621949673 54.09299028936159 -7.170933061457125 0 0 1
9510 1 10.13464862194728 54.09299028938071 -4.682633061619697 0 0 0
9803 1 11.895719187376722 55.337231950867675 -5.926783060789347 0 0 0
9377 1 15.417857035008755 52.8487856656509 -5.9267830609804255 0 0 0
9413 1 13.656786002749845 54.09300682960019 -7.170933060164974 0 0 1
9444 1 13.656786002786225 54.09300682959141 -4.6826330602560775 0 0 0
9737 1 15.417861028695187 55.33724524393624 -5.926783055696891 0 0 0
9311 1 18.94001085360923 52.84880189337716 -5.92678305217965 0 0 0
9347 1 17.178933965427028 54.09302255755165 -7.170933055812632 0 0 1
9378 1 17.178933965420114 54.093022557515404 -4.682633055899595 0 0 0
9671 1 18.940011284563294 55.33725608462491 -5.926783050160539 0 0 0
3661 1 1.3293120962537242 42.8947766641052 -0.9501830760623208 0 0 0
3662 1 1.32931209622764 42.894776663883 -3.4384830760935174 0 0 0
9589 1 3.090381618059157 44.13902383873717 -2.194333104351551 0 0 0
9530 1 4.85144681715361 42.894789588781954 -0.9501831610290742 0 0 0
9531 1 4.851446817177894 42.89478958859865 -3.4384831610116113 0 0 0
9464 1 8.373591414582007 42.894838707981116 -0.9501832161054145 0 0 0
9465 1 8.373591414570946 42.89483870787686 -3.4384832161034002 0 0 0
9529 1 6.612512999527114 44.13905126847719 -2.194333156485765 0 0 0
9398 1 11.895742891718417 42.894908798201456 -0.9501832240589814 0 0 0
9399 1 11.895742891672326 42.89490879803007 -3.4384832241230576 0 0 0
9463 1 10.134654712835623 44.13910612182128 -2.194333179645401 0 0 0
9332 1 15.417896646797605 42.89497817037446 -0.9501831835919371 0 0 0
9333 1 15.41789664675665 42.89497817023482 -3.438483183602875 0 0 0
9397 1 13.656804951606235 44.13917134059615 -2.1943331669166435 0 0 0
9266 1 18.940047704438985 42.895024887867315 -0.9501831121135045 0 0 0
9267 1 18.940047704425528 42.89502488779194 -3.43848311208946 0 0 0
9331 1 17.178959680157433 44.13922647358249 -2.1943331247417306 0 0 0
3664 1 1.3293258260237937 45.38327042432474 -0.950183071437874 0 0 0
3671 1 1.3293258260253535 45.383270424498285 -3.438483071446416 0 0 0
3673 1 1.3293351277698446 47.87176266405149 -0.950183068666072 0 0 0
3674 1 1.3293351278324033 47.87176266382577 -3.4384830687358026 0 0 0
9600 1 3.0903884379431843 46.62751582341533 -2.1943330861073984 0 0 0
9535 1 4.851446412027658 45.383277616964946 -0.9501831139949879 0 0 0
9550 1 4.851446411957441 45.383277617190835 -3.438483113923179 0 0 0
9554 1 4.851449588678775 47.87176596032783 -0.9501830891715508 0 0 0
9555 1 4.851449588637736 47.87176596011501 -3.4384830892101537 0 0 0
9469 1 8.37357706486917 45.38331448306547 -0.9501831398697231 0 0 0
9484 1 8.373577064840834 45.38331448323401 -3.438483139912922 0 0 0
9488 1 8.373573155368492 47.87179214527404 -0.9501830989778444 0 0 0
9489 1 8.373573155440095 47.87179214499437 -3.438483099043502 0 0 0
9552 1 6.61250941873325 46.627534756360205 -2.1943331104145027 0 0 0
9403 1 11.895719329458034 45.38336945255818 -0.9501831432747917 0 0 0
9418 1 11.895719329476702 45.383369452702745 -3.43848314323864 0 0 0
9422 1 11.895709741414436 47.87183292768491 -0.9501830966774851 0 0 0
9423 1 11.89570974151499 47.87183292746037 -3.438483096697478 0 0 0
9486 1 10.134642006341647 46.62757588770094 -2.1943331194837175 0 0 0
9337 1 15.41787144725461 45.38342529253296 -0.9501831224758944 0 0 0
9352 1 15.417871447255243 45.383425292709276 -3.4384831225356973 0 0 0
9356 1 15.417859325805813 47.87187540913842 -0.9501830862051873 0 0 0
9357 1 15.41785932581955 47.871875409057125 -3.4384830862581874 0 0 0
9420 1 13.656787323047302 46.62762626758184 -2.194333111232397 0 0 0
9271 1 18.94002878770246 45.383464321368294 -0.9501830842679074 0 0 0
9286 1 18.94002878766039 45.38346432146418 -3.43848308431686 0 0 0
9290 1 18.94001791728163 47.87190612012166 -0.9501830664053648 0 0 0
9291 1 18.940017917237334 47.87190612001612 -3.438483066413129 0 0 0
9354 1 17.178942741923898 46.62766999095576 -2.194333090079644 0 0 0
3676 1 1.3293409795801918 50.360251323838845 -0.9501830660059506 0 0 0
3680 1 1.329340979535475 50.36025132395715 -3.4384830661272594 0 0 0
9601 1 3.090394512023651 49.116005808593286 -2.1943330744578926 0 0 0
9609 1 3.0903995248089013 51.604492183745904 -2.194333065855157 0 0 0
9559 1 4.851454405296759 50.36025214677535 -0.9501830740556405 0 0 0
9568 1 4.851454405375489 50.3602521469406 -3.4384830741100276 0 0 0
9493 1 8.373575437422506 50.360269655459454 -0.9501830779735717 0 0 0
9502 1 8.373575437430262 50.36026965569575 -3.4384830780189994 0 0 0
9553 1 6.612511398090074 49.11601805304782 -2.1943330841451294 0 0 0
9570 1 6.612516240081215 51.60449944969956 -2.1943330703546478 0 0 0
9427 1 11.895708872904173 50.36029828068882 -0.9501830761856249 0 0 0
9436 1 11.895708872880931 50.360298280857926 -3.4384830762221954 0 0 0
9487 1 10.134639366297407 49.11604723376853 -2.194333086091887 0 0 0
9504 1 10.134642557597086 51.604518939654874 -2.1943330720145395 0 0 0
9361 1 15.41785566322492 50.36032891281931 -0.9501830683852978 0 0 0
9370 1 15.41785566325864 50.3603289129341 -3.438483068407841 0 0 0
9421 1 13.656781036747544 49.11608409136556 -2.194333080738778 0 0 0
9438 1 13.656781653344508 51.60454443659727 -2.1943330677538406 0 0 0
9295 1 18.940012584484478 50.36035183185457 -0.9501830585891754 0 0 0
9304 1 18.94001258454102 50.36035183197975 -3.438483058623625 0 0 0
9355 1 17.17893482722417 49.11611693003619 -2.1943330685228335 0 0 0
9372 1 17.178932694813472 51.60456782798053 -2.194333059156831 0 0 0
3682 1 1.3293443085050347 52.84873565141296 -0.9501830604846123 0 0 0
3683 1 1.3293443084667338 52.8487356512454 -3.438483060609297 0 0 0
3989 1 1.3293459026444128 55.33721569788156 -0.9501830547149923 0 0 0
3995 1 1.3293459026284036 55.337215698050315 -3.438483054679377 0 0 0
9610 1 3.090403422989688 54.09297444874403 -2.1943330606608984 0 0 0
9572 1 4.8514596139528265 52.84873503822929 -0.9501830635929892 0 0 0
9573 1 4.8514596139222705 52.84873503803215 -3.4384830636209514 0 0 0
9921 1 4.851464483967013 55.33721436558028 -0.9501830612859172 0 0 0
9934 1 4.8514644839755645 55.33721436568173 -3.438483061344021 0 0 0
9506 1 8.37358088727711 52.84874591087943 -0.950183065525184 0 0 0
9507 1 8.373580887199092 52.848745910647665 -3.4384830655419822 0 0 0
9571 1 6.6125221409725565 54.09297820791645 -2.1943330630713285 0 0 0
9855 1 8.373587501070173 55.337220431053744 -0.9501830627176074 0 0 0
9868 1 8.373587501089132 55.33722043120734 -3.4384830627495253 0 0 0
9440 1 11.895712898032738 52.84876479465515 -0.9501830655544217 0 0 0
9441 1 11.895712898033485 52.84876479451058 -3.4384830655451704 0 0 0
9505 1 10.134648621921635 54.09299028932594 -2.1943330613934506 0 0 0
9789 1 11.895719187334253 55.33723195082802 -0.9501830607187143 0 0 0
9802 1 11.895719187316065 55.337231951024776 -3.438483060748773 0 0 0
9374 1 15.417857035012108 52.848785665623936 -0.9501830609600893 0 0 0
9375 1 15.417857034977766 52.84878566550169 -3.438483060959633 0 0 0
9439 1 13.656786002736 54.09300682957976 -2.1943330602138387 0 0 0
9723 1 15.417861028676183 55.33724524394185 -0.9501830556771725 0 0 0
9736 1 15.417861028673006 55.33724524398364 -3.438483055666931 0 0 0
9308 1 18.940010853614478 52.848801893404975 -0.950183052128375 0 0 0
9309 1 18.940010853568698 52.84880189327354 -3.4384830521897434 0 0 0
9373 1 17.178933965461216 54.093022557487934 -2.1943330557503637 0 0 0
9657 1 18.94001128462901 55.3372560846092 -0.9501830501212388 0 0 0
9670 1 18.94001128463529 55.337256084688256 -3.43848305015304 0 0 0
3657 1 1.329312096254027 42.89477666385903 1.5381169239255756 0 0 0
9582 1 3.090381618141107 44.13902383874544 2.7822668956541743 0 0 0
9590 1 3.0903816180769517 44.13902383872337 0.2939668954503806 0 0 0
9519 1 4.85144681716012 42.894789588556755 1.5381168390261608 0 0 0
9453 1 8.373591414541938 42.894838707780195 1.5381167839093817 0 0 0
9517 1 6.61251299948073 44.1390512684725 2.78226684356008 0 0 0
9532 1 6.612512999531664 44.13905126849128 0.2939668433701272 0 0 0
9387 1 11.895742891684254 42.89490879800589 1.538116775920606 0 0 0
9451 1 10.134654712851326 44.13910612177372 2.782266820374681 0 0 0
9466 1 10.134654712835438 44.139106121804765 0.29396682023882903 0 0 0
9321 1 15.417896646737724 42.89497817019194 1.5381168163911145 0 0 0
9385 1 13.656804951610566 44.1391713406039 2.782266833124476 0 0 0
9400 1 13.656804951628118 44.1391713406185 0.2939668329586309 0 0 0
9255 1 18.940047704472036 42.89502488780715 1.5381168879368106 0 0 0
9319 1 17.178959680155916 44.13922647366552 2.782266875288396 0 0 0
9334 1 17.178959680213744 44.13922647362265 0.29396687514594044 0 0 0
3663 1 1.3293258260263066 45.38327042442975 1.538116928583642 0 0 0
3666 1 1.3293351278267387 47.871762663878506 1.5381169312993748 0 0 0
9591 1 3.0903884379454185 46.62751582343149 0.29396691406476594 0 0 0
9592 1 3.0903884379469413 46.62751582344676 2.78226691391662 0 0 0
9534 1 4.851446412000696 45.38327761710869 1.538116886046519 0 0 0
9539 1 4.8514495886609845 47.87176596009351 1.5381169108614479 0 0 0
9468 1 8.373577064844396 45.38331448320188 1.5381168600654183 0 0 0
9473 1 8.373573155380837 47.87179214502946 1.538116900977543 0 0 0
9533 1 6.612509418782893 46.627534756346954 0.2939668897984265 0 0 0
9536 1 6.61250941869541 46.62753475634698 2.782266889587656 0 0 0
9402 1 11.89571932947054 45.38336945272064 1.5381168567249275 0 0 0
9407 1 11.895709741516345 47.87183292753176 1.5381169032745683 0 0 0
9467 1 10.134642006343881 46.62757588769374 0.29396688062910975 0 0 0
9470 1 10.134642006312681 46.62757588763904 2.782266880478267 0 0 0
9336 1 15.417871447180996 45.38342529268326 1.5381168775288365 0 0 0
9341 1 15.417859325836181 47.871875409005405 1.5381169137685367 0 0 0
9401 1 13.65678732294837 46.627626267632664 0.29396688891493733 0 0 0
9404 1 13.656787323000023 46.62762626761284 2.7822668887908955 0 0 0
9270 1 18.94002878767767 45.38346432148619 1.5381169157283208 0 0 0
9275 1 18.940017917274936 47.8719061200319 1.5381169336008695 0 0 0
9335 1 17.178942741932275 46.627669990931935 0.29396691001230435 0 0 0
9338 1 17.178942741937274 46.627669990968 2.782266909912642 0 0 0
3675 1 1.3293409795872777 50.360251324044654 1.5381169339776266 0 0 0
9593 1 3.0903945119704668 49.116005808666436 2.7822669256574364 0 0 0
9602 1 3.0903945120042233 49.116005808645184 0.2939669253500402 0 0 0
9603 1 3.090399524807241 51.60449218382302 0.2939669342700682 0 0 0
9604 1 3.0903995247692024 51.60449218375758 2.782266934113152 0 0 0
9558 1 4.851454405356142 50.360252147043916 1.538116925924799 0 0 0
9492 1 8.373575437431393 50.36026965567694 1.5381169220290374 0 0 0
9537 1 6.612511398015903 49.11601805301653 2.7822669159292097 0 0 0
9556 1 6.612511398037426 49.116018053015296 0.29396691565846594 0 0 0
9557 1 6.612516240137025 51.604499449712755 0.29396692980814665 0 0 0
9560 1 6.612516240065022 51.60449944966416 2.7822669296501035 0 0 0
9426 1 11.895708872943736 50.36029828080113 1.5381169237890708 0 0 0
9471 1 10.134639366253896 49.11604723378121 2.7822669139020038 0 0 0
9490 1 10.134639366292248 49.116047233731656 0.29396691371595796 0 0 0
9491 1 10.134642557568315 51.60451893967389 0.2939669281939779 0 0 0
9494 1 10.134642557575951 51.6045189396653 2.7822669280516172 0 0 0
9360 1 15.417855663259894 50.36032891293825 1.5381169316646197 0 0 0
9405 1 13.656781036774401 49.116084091367796 2.7822669192740754 0 0 0
9424 1 13.656781036759648 49.116084091300145 0.29396691907460465 0 0 0
9425 1 13.656781653351182 51.60454443653601 0.29396693238835503 0 0 0
9428 1 13.656781653363106 51.60454443656611 2.7822669322814817 0 0 0
9294 1 18.94001258449458 50.360351831985625 1.5381169413518945 0 0 0
9339 1 17.178934827216736 49.11611693000515 2.7822669314680133 0 0 0
9358 1 17.178934827239722 49.11611693002886 0.29396693139566465 0 0 0
9359 1 17.17893269478938 51.6045678280075 0.2939669409514292 0 0 0
9362 1 17.178932694800544 51.60456782802557 2.7822669409333654 0 0 0
3678 1 1.3293443084716567 52.84873565131538 1.5381169393929823 0 0 0
3988 1 1.3293459025913072 55.33721569805545 1.53811694523926 0 0 0
9605 1 3.0904034229431407 54.09297444874713 2.782266939338663 0 0 0
9611 1 3.0904034229262267 54.09297444867069 0.2939669391268983 0 0 0
9563 1 4.851459613925909 52.84873503804363 1.538116936347128 0 0 0
9920 1 4.851464483954228 55.33721436572786 1.5381169386488551 0 0 0
9497 1 8.373580887199282 52.84874591070262 1.5381169344673338 0 0 0
9561 1 6.612522141059414 54.092978207867056 2.7822669369171567 0 0 0
9574 1 6.612522140995909 54.09297820788726 0.2939669367469909 0 0 0
9854 1 8.373587501087348 55.337220431237256 1.5381169372632524 0 0 0
9431 1 11.89571289801287 52.84876479453455 1.5381169344910992 0 0 0
9495 1 10.13464862195352 54.09299028939864 2.782266938565468 0 0 0
9508 1 10.134648621939055 54.09299028933615 0.2939669383805265 0 0 0
9788 1 11.895719187383738 55.33723195098629 1.5381169392180647 0 0 0
9365 1 15.417857035003488 52.848785665546984 1.5381169390168983 0 0 0
9429 1 13.65678600279442 54.09300682960679 2.7822669398517808 0 0 0
9442 1 13.656786002746976 54.09300682959967 0.2939669396866952 0 0 0
9722 1 15.417861028695405 55.33724524402425 1.5381169443133733 0 0 0
9299 1 18.94001085359675 52.848801893338994 1.5381169478359997 0 0 0
9363 1 17.178933965401995 54.09302255755804 2.782266944205118 0 0 0
9376 1 17.178933965410238 54.09302255755482 0.29396694408624097 0 0 0
9656 1 18.940011284571888 55.33725608469506 1.5381169498146736 0 0 0
3655 1 1.3293120962513276 42.89477666391936 6.514716923918038 0 0 0
3656 1 1.329312096241655 42.894776664042304 4.0264169239387 0 0 0
9583 1 3.090381618063148 44.1390238387313 5.270566895467749 0 0 0
9514 1 4.851446817162222 42.89478958859391 6.514716838935454 0 0 0
9518 1 4.851446817196649 42.894789588739236 4.026416838991669 0 0 0
9448 1 8.373591414587683 42.89483870782145 6.51471678388559 0 0 0
9452 1 8.37359141456769 42.894838707993344 4.026416783902199 0 0 0
9520 1 6.612512999531804 44.139051268448945 5.2705668433336506 0 0 0
9382 1 11.895742891722936 42.894908798055695 6.514716775941989 0 0 0
9386 1 11.895742891672429 42.8949087981528 4.026416775873586 0 0 0
9454 1 10.13465471282771 44.13910612181955 5.270566820170547 0 0 0
9316 1 15.417896646785586 42.89497817029601 6.5147168163774785 0 0 0
9320 1 15.41789664673875 42.894978170353625 4.02641681640912 0 0 0
9388 1 13.656804951574406 44.139171340601386 5.270566832942274 0 0 0
9250 1 18.94004770445372 42.89502488780042 6.514716887891573 0 0 0
9254 1 18.940047704425737 42.895024887919064 4.026416887925496 0 0 0
9322 1 17.178959680153973 44.13922647360544 5.27056687512808 0 0 0
3658 1 1.32932582602883 45.38327042452105 6.514716928551046 0 0 0
3659 1 1.329325826029834 45.38327042433255 4.026416928539789 0 0 0
3660 1 1.329335127775296 47.87176266387295 6.514716931342562 0 0 0
3665 1 1.3293351278597343 47.871762664056284 4.026416931288128 0 0 0
9584 1 3.090388437934621 46.627515823435054 5.2705669140650375 0 0 0
9522 1 4.851446412012866 45.38327761715264 6.514716886030691 0 0 0
9523 1 4.8514464119634635 45.38327761696493 4.026416886073589 0 0 0
9526 1 4.851449588660604 47.87176596013235 6.514716910788965 0 0 0
9538 1 4.851449588643576 47.87176596028799 4.026416910800149 0 0 0
9456 1 8.373577064863227 45.38331448324189 6.514716860109523 0 0 0
9457 1 8.373577064830013 45.383314483051166 4.0264168600756145 0 0 0
9460 1 8.373573155368677 47.871792145082196 6.514716901016085 0 0 0
9472 1 8.373573155420027 47.87179214520623 4.026416900987583 0 0 0
9521 1 6.612509418732915 46.62753475634937 5.270566889766994 0 0 0
9390 1 11.895719329452902 45.38336945271216 6.514716856726577 0 0 0
9391 1 11.895719329474455 45.383369452564956 4.026416856757671 0 0 0
9394 1 11.895709741447817 47.87183292751246 6.5147169033196795 0 0 0
9406 1 11.895709741513402 47.87183292760726 4.026416903307347 0 0 0
9455 1 10.134642006328352 46.6275758877044 5.270566880677955 0 0 0
9324 1 15.417871447245881 45.383425292667404 6.514716877531127 0 0 0
9325 1 15.417871447247373 45.383425292577165 4.026416877480723 0 0 0
9328 1 15.417859325832993 47.871875409009405 6.5147169137789405 0 0 0
9340 1 15.417859325826592 47.87187540918119 4.02641691375097 0 0 0
9389 1 13.656787323063615 46.62762626758364 5.270566888906923 0 0 0
9258 1 18.94002878771597 45.38346432148427 6.514716915700403 0 0 0
9259 1 18.940028787656807 45.38346432136611 4.0264169156761564 0 0 0
9262 1 18.940017917296462 47.87190611999776 6.5147169336463815 0 0 0
9274 1 18.940017917231398 47.87190612010588 4.026416933585877 0 0 0
9323 1 17.17894274194223 46.62766999095781 5.27056691004222 0 0 0
3667 1 1.3293409795652464 50.360251324027026 6.514716933995984 0 0 0
3668 1 1.3293409795378686 50.360251323799226 4.026416933862272 0 0 0
9594 1 3.090394512020657 49.11600580859224 5.270566925351559 0 0 0
9595 1 3.0903995248022342 51.60449218375909 5.270566934312382 0 0 0
9542 1 4.851454405291821 50.360252146988856 6.514716925928966 0 0 0
9543 1 4.851454405371159 50.36025214674149 4.0264169258787215 0 0 0
9476 1 8.373575437414825 50.36026965565525 6.514716921991243 0 0 0
9477 1 8.37357543742742 50.36026965550728 4.026416921957611 0 0 0
9540 1 6.612511398065386 49.116018053025094 5.270566915638708 0 0 0
9541 1 6.612516240087299 51.60449944970712 5.270566929798697 0 0 0
9410 1 11.895708872894666 50.36029828083426 6.5147169237991625 0 0 0
9411 1 11.895708872883745 50.36029828067322 4.026416923759988 0 0 0
9474 1 10.134639366289138 49.116047233763695 5.270566913710123 0 0 0
9475 1 10.134642557601245 51.60451893968614 5.270566928123195 0 0 0
9344 1 15.417855663215203 50.36032891296475 6.514716931619113 0 0 0
9345 1 15.417855663267249 50.360328912812214 4.026416931598109 0 0 0
9408 1 13.656781036752461 49.116084091356434 5.270566919104115 0 0 0
9409 1 13.656781653337507 51.60454443660738 5.270566932352616 0 0 0
9278 1 18.94001258448913 50.360351831935176 6.514716941389457 0 0 0
9279 1 18.94001258453146 50.360351831885275 4.026416941345772 0 0 0
9342 1 17.178934827248888 49.11611693002868 5.27056693136556 0 0 0
9343 1 17.178932694820965 51.60456782799746 5.270566940916225 0 0 0
3669 1 1.3293443085043046 52.84873565124514 6.514716939482677 0 0 0
3677 1 1.329344308458601 52.84873565145228 4.026416939387861 0 0 0
3985 1 1.329345902660247 55.33721569804777 6.514716945293388 0 0 0
3986 1 1.3293459026330587 55.337215697902344 4.026416945320601 0 0 0
9606 1 3.090403422996753 54.092974448752706 5.270566939120101 0 0 0
9546 1 4.851459613948757 52.84873503804118 6.514716936373225 0 0 0
9562 1 4.851459613918201 52.84873503823077 4.026416936373629 0 0 0
9914 1 4.851464483967963 55.33721436575574 6.514716938687072 0 0 0
9915 1 4.851464483972401 55.33721436553194 4.026416938650615 0 0 0
9480 1 8.373580887273114 52.84874591071974 6.5147169344544755 0 0 0
9496 1 8.373580887202623 52.848745910851484 4.026416934477038 0 0 0
9564 1 6.61252214096011 54.092978207925924 5.270566936734837 0 0 0
9848 1 8.373587501086545 55.337220431217766 6.514716937258113 0 0 0
9849 1 8.373587501087014 55.33722043104717 4.026416937249564 0 0 0
9414 1 11.895712898048279 52.84876479450811 6.514716934405541 0 0 0
9430 1 11.89571289804368 52.84876479465339 4.026416934459136 0 0 0
9498 1 10.134648621940523 54.092990289355114 5.270566938403547 0 0 0
9782 1 11.895719187359724 55.337231950954845 6.514716939265268 0 0 0
9783 1 11.89571918731745 55.33723195089623 4.026416939238543 0 0 0
9348 1 15.417857035017882 52.84878566554327 6.5147169390202375 0 0 0
9364 1 15.417857034998894 52.84878566562948 4.026416939043751 0 0 0
9432 1 13.656786002755679 54.09300682958218 5.270566939655242 0 0 0
9716 1 15.417861028660933 55.337245244044894 6.514716944348937 0 0 0
9717 1 15.417861028672503 55.33724524392808 4.026416944340951 0 0 0
9282 1 18.940010853616602 52.84880189332303 6.5147169478441915 0 0 0
9298 1 18.94001085357378 52.84880189338388 4.026416947813356 0 0 0
9366 1 17.178933965455858 54.093022557529075 5.270566944149536 0 0 0
9650 1 18.94001128462137 55.33725608465384 6.514716949885023 0 0 0
9651 1 18.940011284629307 55.3372560846462 4.026416949836281 0 0 0
4006 1 1.3293463773883252 57.825691947804444 -5.926783051560571 0 0 0
9980 1 3.0904062979011373 56.58145277302798 -7.17093305689667 0 0 1
9981 1 3.0904083058831646 59.069927668901265 -7.170933055261798 0 0 1
9989 1 3.090406297852184 56.58145277304662 -4.682633056760007 0 0 0
9999 1 3.0904083058914886 59.069927668856025 -4.682633055363942 0 0 0
9954 1 4.851468654119067 57.825690366063924 -5.926783059314332 0 0 0
9888 1 8.37359405050823 57.825693143284354 -5.926783064761159 0 0 0
9916 1 6.612527996106321 56.58145420601473 -7.170933063492958 0 0 1
9917 1 6.612533207812739 59.0699276744336 -7.170933062063731 0 0 1
9933 1 6.612527996035236 56.58145420597599 -4.682633063287489 0 0 0
9955 1 6.612533207792011 59.069927674413385 -4.6826330622137 0 0 0
9822 1 11.895726052536721 57.82569939228765 -5.926783063995722 0 0 0
9850 1 10.134655620951136 56.58146092986655 -7.170933064778039 0 0 1
9851 1 10.134662384874938 59.06993073930238 -7.170933064074172 0 0 1
9867 1 10.134655621023414 56.58146092985683 -4.682633064687984 0 0 0
9889 1 10.134662384863791 59.06993073929029 -4.682633064223405 0 0 0
9756 1 15.417866043841165 57.82570711124149 -5.926783056224323 0 0 0
9784 1 13.656791943058842 56.581470790830544 -7.170933059143146 0 0 1
9785 1 13.656798125576241 59.06993588317391 -7.1709330605495305 0 0 1
9801 1 13.656791943097682 56.581470790821825 -4.682633059037285 0 0 0
9823 1 13.656798125572484 59.069935883176676 -4.682633060580271 0 0 0
9690 1 18.940012862269366 57.825713847322454 -5.926783045077092 0 0 0
9718 1 17.178936971145546 56.581480642950154 -7.170933051223665 0 0 1
9719 1 17.178940620875814 59.06994146349042 -7.17093305049683 0 0 1
9735 1 17.17893697122711 56.58148064292584 -4.682633051188453 0 0 0
9757 1 17.178940620827543 59.06994146348944 -4.682633050507121 0 0 0
4008 1 1.3293461928515247 60.3141650730864 -5.9267830514000535 0 0 0
9987 1 3.090409633177747 61.55839978589585 -7.170933057498766 0 0 1
10000 1 3.0904096331601085 61.55839978589928 -4.68263305736641 0 0 0
9958 1 4.8514719979067875 60.3141635217507 -5.926783060164199 0 0 0
9892 1 8.373599867949034 60.31416420088853 -5.926783065292256 0 0 0
9930 1 6.612537508911593 61.5583990055547 -7.170933063591055 0 0 1
9956 1 6.612537508885679 61.55839900556873 -4.6826330634693925 0 0 0
9826 1 11.89573250425725 60.31416688962073 -5.926783062044835 0 0 0
9864 1 10.134668305450981 61.55839973870233 -7.170933066027047 0 0 1
9890 1 10.134668305440396 61.55839973869715 -4.682633065920899 0 0 0
9760 1 15.417871090523395 60.31417072644209 -5.926783055652779 0 0 0
9798 1 13.656803792695799 61.558401743734905 -7.170933061634676 0 0 1
9824 1 13.656803792696984 61.55840174373909 -4.682633061518632 0 0 0
9694 1 18.940014912465145 60.31417449344706 -5.92678304721083 0 0 0
9732 1 17.178944239194937 61.55840438499382 -7.170933053804629 0 0 1
9758 1 17.178944239199055 61.55840438500258 -4.682633053825373 0 0 0
4015 1 1.3293456717768921 62.80263577357507 -5.926783051420194 0 0 0
4017 1 1.3293450225446937 65.29110469349803 -5.926783055808216 0 0 0
9988 1 3.090410445567638 64.04686977652665 -7.170933056858925 0 0 1
10006 1 3.0904104455815022 64.04686977651782 -4.682633056832917 0 0 0
9970 1 4.8514745350083235 62.80263440436979 -5.926783061134621 0 0 0
9974 1 4.851476362719167 65.29110357004662 -5.9267830638834615 0 0 0
9904 1 8.373604666680228 62.80263385883318 -5.926783066503578 0 0 0
9908 1 8.37360840024704 65.29110240986799 -5.926783068031289 0 0 0
9931 1 6.612540858190459 64.04686864828393 -7.170933065573222 0 0 1
9971 1 6.6125408581568745 64.04686864824616 -4.6826330655759385 0 0 0
9838 1 11.895738049501677 62.80263430705967 -5.926783065316872 0 0 0
9842 1 11.895742506231986 65.29110158262034 -5.926783069032633 0 0 0
9865 1 10.134673137069646 64.04686802140152 -7.170933066654228 0 0 1
9905 1 10.134673137093696 64.04686802139786 -4.682633066728383 0 0 0
9772 1 15.417875624739848 62.80263560656938 -5.926783059600105 0 0 0
9776 1 15.417879396267953 65.29110135146142 -5.926783066001327 0 0 0
9799 1 13.656808573545314 64.04686809289062 -7.17093306381814 0 0 1
9839 1 13.656808573517983 64.04686809291299 -4.6826330637799485 0 0 0
9706 1 18.940017003776603 62.80263734153633 -5.926783052151008 0 0 0
9710 1 18.940018902927644 65.29110178493131 -5.926783061417952 0 0 0
9733 1 17.178947461902936 64.04686884007602 -7.1709330592504035 0 0 1
9773 1 17.178947461964327 64.04686884015186 -4.682633059180614 0 0 0
4020 1 1.3293443737248274 67.77957237656923 -5.9267830609410375 0 0 0
9998 1 3.0904108906091348 66.53533822446633 -7.170933061159543 0 0 1
10007 1 3.0904108906167567 66.53533822446391 -4.682633061020449 0 0 0
10369 1 3.090411095024566 69.02380561454346 -7.170933065164631 0 0 1
10384 1 3.090411095045294 69.02380561449374 -4.682633065135627 0 0 0
9978 1 4.851477611086239 67.77957150422459 -5.926783066771162 0 0 0
9912 1 8.373611151201379 67.77957013186706 -5.9267830719706 0 0 0
9952 1 6.612543332110298 66.53533702386207 -7.1709330671056195 0 0 1
9972 1 6.612543332136801 66.53533702380992 -4.68263306700859 0 0 0
10303 1 6.612545061929842 69.02380450422713 -7.170933071936886 0 0 1
10328 1 6.612545061965884 69.02380450417736 -4.682633071971988 0 0 0
9846 1 11.895745893079836 67.77956869319371 -5.926783075839575 0 0 0
9886 1 10.134676854810984 66.5353357200993 -7.170933072375484 0 0 1
9906 1 10.13467685478895 66.53533572012263 -4.682633072216525 0 0 0
10237 1 10.134679568263065 69.02380296680832 -7.170933076912457 0 0 1
10262 1 10.134679568313613 69.02380296681855 -4.682633076859059 0 0 0
9780 1 15.417882353345153 67.77956764534349 -5.926783074007581 0 0 0
9820 1 13.656812362169909 66.53533472299532 -7.170933072479021 0 0 1
9840 1 13.656812362139167 66.5353347229719 -4.682633072501616 0 0 0
10171 1 13.656815208116274 69.02380148810138 -7.170933078122406 0 0 1
10196 1 13.656815208115486 69.02380148802855 -4.682633078021103 0 0 0
9714 1 18.940020497716894 67.77956731888443 -5.926783068863097 0 0 0
9754 1 17.178950127175405 66.53533434955088 -7.1709330688214745 0 0 1
9774 1 17.178950127141565 66.53533434950356 -4.682633068825109 0 0 0
10105 1 17.178952207750292 69.0238005393579 -7.1709330748711375 0 0 1
10130 1 17.178952207716584 69.02380053927287 -4.682633074669198 0 0 0
3997 1 1.3293463774127643 57.82569194777359 -0.9501830516077147 0 0 0
3998 1 1.3293463773588032 57.82569194768222 -3.4384830516095373 0 0 0
9990 1 3.090406297893864 56.58145277303353 -2.1943330569512027 0 0 0
9991 1 3.0904083058646505 59.06992766889765 -2.19433305522192 0 0 0
9938 1 4.851468654129649 57.82569036606424 -0.9501830593121071 0 0 0
9939 1 4.851468654134314 57.825690365889535 -3.4384830593412694 0 0 0
9872 1 8.373594050533411 57.825693143287424 -0.9501830647820383 0 0 0
9873 1 8.373594050563451 57.8256931431882 -3.4384830648012064 0 0 0
9936 1 6.612527996032595 56.58145420596554 -2.194333063466414 0 0 0
9937 1 6.612533207808783 59.06992767446571 -2.1943330620430115 0 0 0
9806 1 11.895726052531577 57.8256993923951 -0.950183064015784 0 0 0
9807 1 11.895726052487687 57.82569939230137 -3.4384830640303097 0 0 0
9870 1 10.13465562099067 56.581460929876584 -2.194333064825906 0 0 0
9871 1 10.134662384851987 59.069930739287365 -2.1943330640720715 0 0 0
9740 1 15.417866043842773 57.82570711120861 -0.9501830562630874 0 0 0
9741 1 15.417866043827821 57.82570711119291 -3.4384830561947406 0 0 0
9804 1 13.656791943042784 56.58147079083777 -2.194333059080279 0 0 0
9805 1 13.65679812554465 59.06993588321508 -2.1943330605399542 0 0 0
9674 1 18.940012862306805 57.82571384738264 -0.9501830451397273 0 0 0
9675 1 18.940012862241712 57.82571384734897 -3.438483045146146 0 0 0
9738 1 17.17893697122462 56.58148064293762 -2.1943330512358736 0 0 0
9739 1 17.178940620846546 59.069941463515434 -2.1943330505159677 0 0 0
4000 1 1.3293461928178256 60.3141650730697 -0.950183051418073 0 0 0
4007 1 1.329346192894499 60.31416507317633 -3.438483051446818 0 0 0
10001 1 3.0904096331569804 61.558399785894544 -2.1943330573978264 0 0 0
9943 1 4.851471997843748 60.314163521803486 -0.9501830601377829 0 0 0
9957 1 4.851471997829268 60.314163521898635 -3.4384830601526506 0 0 0
9877 1 8.373599867936962 60.314164200907136 -0.9501830652720392 0 0 0
9891 1 8.373599867944094 60.314164200959176 -3.4384830652573597 0 0 0
9959 1 6.61253750885469 61.55839900554163 -2.1943330635069227 0 0 0
9811 1 11.895732504185196 60.314166889593395 -0.9501830620747975 0 0 0
9825 1 11.895732504200094 60.31416688972957 -3.438483062041766 0 0 0
9893 1 10.134668305472193 61.55839973865116 -2.194333066023325 0 0 0
9745 1 15.417871090512879 60.31417072644254 -0.9501830556724176 0 0 0
9759 1 15.417871090558824 60.314170726480775 -3.4384830556318837 0 0 0
9827 1 13.656803792707384 61.558401743692066 -2.1943330615840324 0 0 0
9679 1 18.940014912388026 60.31417449347118 -0.9501830471942716 0 0 0
9693 1 18.940014912453826 60.31417449349425 -3.438483047260186 0 0 0
9761 1 17.178944239198763 61.55840438499818 -2.1943330537608583 0 0 0
4009 1 1.3293456717522119 62.802635773610476 -0.950183051396898 0 0 0
4010 1 1.3293456717709824 62.8026357735918 -3.4384830514926885 0 0 0
4012 1 1.3293450225853531 65.2911046934714 -0.9501830557850068 0 0 0
4016 1 1.329345022550253 65.29110469352057 -3.438483055846078 0 0 0
10002 1 3.090410445578635 64.04686977655662 -2.1943330567730315 0 0 0
9961 1 4.851474534991466 62.80263440443519 -0.9501830610856805 0 0 0
9962 1 4.851474534966735 62.802634404306744 -3.438483061125248 0 0 0
9966 1 4.851476362755093 65.29110356999952 -0.9501830637882944 0 0 0
9973 1 4.851476362759451 65.29110357015307 -3.4384830638820505 0 0 0
9895 1 8.373604666676593 62.80263385879403 -0.9501830665414569 0 0 0
9896 1 8.373604666700947 62.80263385875842 -3.4384830665526263 0 0 0
9900 1 8.3736084002469 65.29110240995621 -0.9501830679960189 0 0 0
9907 1 8.373608400196057 65.29110240997504 -3.4384830681058522 0 0 0
9960 1 6.612540858206071 64.04686864828827 -2.1943330654805706 0 0 0
9829 1 11.89573804948409 62.80263430701447 -0.9501830652876602 0 0 0
9830 1 11.895738049535153 62.80263430697075 -3.4384830653557956 0 0 0
9834 1 11.895742506247528 65.291101582636 -0.9501830690157284 0 0 0
9841 1 11.895742506199031 65.29110158267488 -3.438483069098821 0 0 0
9894 1 10.134673137113547 64.04686802144936 -2.1943330666467205 0 0 0
9763 1 15.417875624699608 62.802635606584865 -0.950183059515425 0 0 0
9764 1 15.417875624700445 62.80263560655752 -3.438483059622642 0 0 0
9768 1 15.41787939622536 65.29110135147327 -0.9501830658715835 0 0 0
9775 1 15.417879396267017 65.291101351464 -3.438483066008107 0 0 0
9828 1 13.656808573559307 64.04686809287155 -2.1943330637194642 0 0 0
9697 1 18.94001700374588 62.8026373415918 -0.9501830521519663 0 0 0
9698 1 18.940017003838257 62.8026373416857 -3.4384830521418817 0 0 0
9702 1 18.94001890291714 65.29110178490569 -0.9501830614188465 0 0 0
9709 1 18.940018902897435 65.29110178489562 -3.4384830614484283 0 0 0
9762 1 17.178947461940318 64.0468688401513 -2.1943330592186228 0 0 0
4018 1 1.3293443736873496 67.77957237655374 -0.9501830609141128 0 0 0
4019 1 1.3293443737404285 67.77957237654431 -3.4384830610107677 0 0 0
10008 1 3.0904108906749563 66.53533822452138 -2.1943330611220113 0 0 0
10375 1 3.0904110950312496 69.02380561459528 -2.1943330652029296 0 0 0
9976 1 4.8514776110766045 67.77957150423666 -0.9501830666655281 0 0 0
9977 1 4.851477611093268 67.77957150420616 -3.4384830667578514 0 0 0
9910 1 8.373611151254513 67.779570131977 -0.9501830719273238 0 0 0
9911 1 8.37361115120498 67.77957013190631 -3.438483072077873 0 0 0
9975 1 6.612543332137524 66.53533702388339 -2.1943330670904593 0 0 0
10312 1 6.612545061981799 69.02380450423793 -2.194333071914474 0 0 0
9844 1 11.895745893098931 67.77956869322705 -0.9501830757820636 0 0 0
9845 1 11.895745893068462 67.7795686931974 -3.438483075851106 0 0 0
9909 1 10.13467685476568 66.5353357201164 -2.1943330722517658 0 0 0
10246 1 10.134679568260255 69.02380296678122 -2.194333076944678 0 0 0
9778 1 15.417882353362245 67.77956764536559 -0.9501830739951785 0 0 0
9779 1 15.417882353317895 67.77956764538142 -3.438483074116118 0 0 0
9843 1 13.656812362192275 66.53533472300205 -2.194333072525979 0 0 0
10180 1 13.656815208126444 69.023801488053 -2.1943330781001187 0 0 0
9712 1 18.940020497768263 67.77956731889532 -0.9501830688362306 0 0 0
9713 1 18.940020497712176 67.77956731894602 -3.4384830689618666 0 0 0
9777 1 17.178950127161027 66.53533434949826 -2.194333068759403 0 0 0
10114 1 17.178952207756982 69.02380053933777 -2.1943330748189553 0 0 0
3991 1 1.329346377387057 57.82569194766176 1.5381169484403874 0 0 0
9982 1 3.090406297882606 56.58145277302898 0.29396694322149963 0 0 0
9983 1 3.0904062978555773 56.58145277306168 2.7822669431058924 0 0 0
9984 1 3.0904083058983303 59.0699276688648 2.7822669448109534 0 0 0
9992 1 3.0904083058784053 59.06992766886881 0.2939669445972136 0 0 0
9925 1 4.851468654123482 57.825690365904144 1.5381169406898316 0 0 0
9859 1 8.373594050490889 57.82569314313515 1.538116935233692 0 0 0
9919 1 6.612527996082848 56.581454206009376 0.2939669366796726 0 0 0
9922 1 6.6125279960285 56.58145420597313 2.782266936599996 0 0 0
9923 1 6.612533207809205 59.06992767442106 2.7822669379308937 0 0 0
9940 1 6.612533207800991 59.069927674428484 0.2939669377988047 0 0 0
9793 1 11.895726052519704 57.825699392175075 1.5381169359850282 0 0 0
9853 1 10.134655620947125 56.58146092984866 0.29396693535338037 0 0 0
9856 1 10.134655621006644 56.581460929849484 2.7822669352011022 0 0 0
9857 1 10.134662384839464 59.06993073928773 2.782266935902032 0 0 0
9874 1 10.134662384854154 59.069930739299686 0.2939669357974342 0 0 0
9727 1 15.417866043833135 57.825707111164505 1.5381169437382738 0 0 0
9787 1 13.656791943072285 56.581470790824035 0.2939669409242566 0 0 0
9790 1 13.656791943100705 56.58147079082264 2.782266940861291 0 0 0
9791 1 13.656798125551736 59.06993588318331 2.782266939508958 0 0 0
9808 1 13.656798125569104 59.06993588316838 0.293966939336126 0 0 0
9661 1 18.940012862269644 57.825713847297045 1.5381169548926479 0 0 0
9721 1 17.178936971152645 56.581480642944314 0.2939669487940733 0 0 0
9724 1 17.1789369712372 56.58148064294829 2.7822669487482385 0 0 0
9725 1 17.1789406208123 59.06994146348538 2.7822669495216483 0 0 0
9742 1 17.178940620855883 59.06994146348858 0.2939669494281574 0 0 0
3999 1 1.3293461928294712 60.3141650731737 1.5381169485790112 0 0 0
9993 1 3.0904096331593367 61.55839978588084 0.2939669426023231 0 0 0
9994 1 3.0904096331457365 61.55839978588631 2.782266942568254 0 0 0
9942 1 4.851471997904861 60.314163521858 1.5381169398519645 0 0 0
9876 1 8.373599867942197 60.314164200995684 1.538116934723231 0 0 0
9941 1 6.612537508903276 61.55839900556544 0.29396693649985367 0 0 0
9944 1 6.612537508908154 61.5583990055635 2.782266936448912 0 0 0
9810 1 11.895732504244858 60.31416688970106 1.5381169379586472 0 0 0
9875 1 10.134668305438867 61.55839973870637 0.29396693406012653 0 0 0
9878 1 10.134668305443718 61.558399738677906 2.782266934028851 0 0 0
9744 1 15.417871090510673 60.31417072647557 1.5381169443398972 0 0 0
9809 1 13.656803792700059 61.558401743743836 0.29396693838407695 0 0 0
9812 1 13.65680379268562 61.558401743731714 2.7822669384638528 0 0 0
9678 1 18.940014912442017 60.31417449342262 1.5381169527752196 0 0 0
9743 1 17.178944239192756 61.558404384991036 0.29396694616533015 0 0 0
9746 1 17.178944239182847 61.55840438497653 2.7822669462068546 0 0 0
4002 1 1.3293456717744732 62.80263577349082 1.538116948576153 0 0 0
4011 1 1.329345022560997 65.29110469353432 1.5381169441722162 0 0 0
9995 1 3.09041044557541 64.04686977650478 2.7822669432698643 0 0 0
10003 1 3.090410445582312 64.04686977652429 0.29396694307017446 0 0 0
9947 1 4.851474535003664 62.80263440425754 1.538116938903606 0 0 0
9965 1 4.851476362715418 65.29110357012681 1.5381169361496803 0 0 0
9881 1 8.373604666693145 62.80263385875033 1.5381169335305973 0 0 0
9899 1 8.37360840024762 65.29110240992252 1.538116931955926 0 0 0
9945 1 6.612540858161874 64.04686864825771 2.782266934532564 0 0 0
9963 1 6.612540858177743 64.04686864827148 0.29396693437005544 0 0 0
9815 1 11.89573804950649 62.80263430700257 1.538116934706723 0 0 0
9833 1 11.895742506232338 65.29110158266488 1.538116930990462 0 0 0
9879 1 10.134673137100796 64.04686802140041 2.7822669333726546 0 0 0
9897 1 10.134673137084018 64.04686802139838 0.29396693329297624 0 0 0
9749 1 15.417875624731375 62.80263560655968 1.5381169404277195 0 0 0
9767 1 15.417879396271413 65.29110135145143 1.5381169340764773 0 0 0
9813 1 13.656808573511427 64.04686809291125 2.7822669363047314 0 0 0
9831 1 13.65680857355669 64.04686809290418 0.2939669361470836 0 0 0
9683 1 18.940017003761874 62.802637341581665 1.5381169478563768 0 0 0
9701 1 18.940018902927942 65.29110178486921 1.5381169385812907 0 0 0
9747 1 17.1789474619744 64.0468688401592 2.782266940836653 0 0 0
9765 1 17.17894746189818 64.04686884007877 0.2939669407777713 0 0 0
4014 1 1.3293443737061008 67.77957237655552 1.5381169390569034 0 0 0
10004 1 3.0904108906180845 66.53533822448239 0.2939669388682073 0 0 0
10005 1 3.0904108906140766 66.53533822448213 2.7822669389842165 0 0 0
10370 1 3.090411095038855 69.02380561449786 2.7822669349025424 0 0 0
10376 1 3.090411095021807 69.02380561455782 0.29396693480668973 0 0 0
9969 1 4.851477611088024 67.77957150419705 1.5381169332405917 0 0 0
9903 1 8.373611151210879 67.7795701318442 1.5381169280075555 0 0 0
9964 1 6.612543332103291 66.53533702386694 0.2939669329111555 0 0 0
9967 1 6.612543332172276 66.53533702382282 2.782266932997873 0 0 0
10304 1 6.612545061962701 69.02380450418576 2.7822669280739785 0 0 0
10313 1 6.612545061920042 69.02380450422262 0.2939669280138284 0 0 0
9837 1 11.895745893076095 67.7795686931935 1.5381169241256678 0 0 0
9898 1 10.134676854802603 66.53533572010991 0.2939669276464565 0 0 0
9901 1 10.13467685478254 66.53533572010942 2.782266927781362 0 0 0
10238 1 10.134679568311638 69.02380296682023 2.7822669231445536 0 0 0
10247 1 10.134679568270025 69.02380296680754 0.2939669230149182 0 0 0
9771 1 15.417882353354475 67.7795676453843 1.5381169259884868 0 0 0
9832 1 13.656812362178195 66.53533472301741 0.2939669274509984 0 0 0
9835 1 13.656812362137913 66.5353347229481 2.7822669275337732 0 0 0
10172 1 13.656815208098276 69.02380148801484 2.7822669219307734 0 0 0
10181 1 13.656815208125535 69.02380148807632 0.29396692184871626 0 0 0
9705 1 18.940020497720344 67.77956731900788 1.53811693115777 0 0 0
9766 1 17.178950127167454 66.53533434956431 0.2939669311095338 0 0 0
9769 1 17.178950127155424 66.5353343495263 2.782266931312228 0 0 0
10106 1 17.178952207711426 69.02380053929312 2.7822669252801555 0 0 0
10115 1 17.17895220775603 69.02380053935845 0.2939669252168849 0 0 0
3987 1 1.3293463774119563 57.82569194762888 6.514716948416493 0 0 0
3990 1 1.329346377365814 57.825691947809545 4.026416948402415 0 0 0
9979 1 3.0904062978994435 56.58145277305109 5.2705669431998805 0 0 0
9985 1 3.0904083058696825 59.069927668909706 5.270566944637017 0 0 0
9918 1 4.851468654135408 57.82569036592755 6.514716940699822 0 0 0
9924 1 4.851468654142083 57.82569036606735 4.026416940693079 0 0 0
9852 1 8.373594050544753 57.825693143160095 6.514716935219083 0 0 0
9858 1 8.373594050572176 57.82569314330542 4.026416935200979 0 0 0
9913 1 6.612527996028252 56.58145420598146 5.270566936674124 0 0 0
9926 1 6.612533207827274 59.069927674458434 5.270566937805048 0 0 0
9786 1 11.895726052535593 57.82569939228215 6.514716935967754 0 0 0
9792 1 11.895726052473144 57.82569939239655 4.0264169359643045 0 0 0
9847 1 10.13465562099378 56.58146092989847 5.270566935281321 0 0 0
9860 1 10.134662384860283 59.06993073925926 5.270566935793429 0 0 0
9720 1 15.417866043833188 57.82570711113878 6.514716943773167 0 0 0
9726 1 15.417866043822709 57.825707111273466 4.02641694378781 0 0 0
9781 1 13.656791943046812 56.58147079085675 5.270566940995161 0 0 0
9794 1 13.656798125537986 59.06993588319884 5.270566939365532 0 0 0
9654 1 18.940012862331127 57.82571384732897 6.514716954867071 0 0 0
9660 1 18.94001286224466 57.82571384737697 4.026416954859145 0 0 0
9715 1 17.178936971223568 56.581480642959264 5.270566948799158 0 0 0
9728 1 17.178940620831316 59.069941463488576 5.2705669494373995 0 0 0
3992 1 1.3293461928145751 60.31416507317471 6.514716948614232 0 0 0
3993 1 1.3293461928715342 60.31416507303595 4.026416948550287 0 0 0
9986 1 3.090409633157733 61.55839978589212 5.270566942665652 0 0 0
9928 1 4.851471997873278 60.31416352193836 6.514716939845956 0 0 0
9929 1 4.851471997856656 60.314163521794136 4.026416939841671 0 0 0
9862 1 8.373599867956695 60.31416420100446 6.514716934739133 0 0 0
9863 1 8.37359986795449 60.314164200825225 4.026416934737259 0 0 0
9927 1 6.612537508892666 61.55839900553887 5.270566936563461 0 0 0
9796 1 11.895732504198675 60.31416688966645 6.514716937934817 0 0 0
9797 1 11.895732504205263 60.314166889616196 4.0264169379519235 0 0 0
9861 1 10.134668305472228 61.558399738626356 5.270566934032019 0 0 0
9730 1 15.41787109051575 60.314170726477776 6.51471694434922 0 0 0
9731 1 15.417871090541734 60.31417072641935 4.026416944365782 0 0 0
9795 1 13.656803792696573 61.55840174370427 5.270566938436754 0 0 0
9664 1 18.94001491237385 60.31417449343618 6.51471695282189 0 0 0
9665 1 18.94001491244978 60.31417449347406 4.026416952722359 0 0 0
9729 1 17.178944239191768 61.55840438497548 5.270566946195863 0 0 0
3994 1 1.329345671741538 62.80263577352379 6.514716948601382 0 0 0
4001 1 1.3293456717537342 62.80263577362197 4.026416948510116 0 0 0
4003 1 1.329345022584203 65.29110469352355 6.514716944208309 0 0 0
4004 1 1.3293450225653771 65.29110469348997 4.026416944126387 0 0 0
9996 1 3.0904104455600896 64.04686977655199 5.270566943081454 0 0 0
9932 1 4.851474535012705 62.8026344043379 6.514716938872262 0 0 0
9946 1 4.851474534978455 62.80263440439334 4.02641693887436 0 0 0
9950 1 4.851476362747104 65.29110357005932 6.514716936161881 0 0 0
9951 1 4.851476362765518 65.29110357010268 4.026416936103681 0 0 0
9866 1 8.37360466667394 62.80263385871006 6.514716933416202 0 0 0
9880 1 8.373604666706024 62.80263385884518 4.026416933450695 0 0 0
9884 1 8.37360840026362 65.29110241002152 6.514716932013272 0 0 0
9885 1 8.373608400198371 65.29110240992648 4.026416931864632 0 0 0
9948 1 6.612540858222386 64.04686864829155 5.2705669343897 0 0 0
9800 1 11.89573804946413 62.80263430696277 6.5147169347039835 0 0 0
9814 1 11.895738049528843 62.80263430702677 4.026416934662329 0 0 0
9818 1 11.895742506233695 65.29110158266633 6.514716930970123 0 0 0
9819 1 11.895742506218568 65.2911015826488 4.026416930901026 0 0 0
9882 1 10.134673137092294 64.04686802144863 5.270566933253871 0 0 0
9734 1 15.417875624685067 62.80263560657393 6.514716940457574 0 0 0
9748 1 15.41787562469562 62.80263560655376 4.026416940387229 0 0 0
9752 1 15.417879396240682 65.29110135145544 6.5147169340917115 0 0 0
9753 1 15.41787939625681 65.29110135148343 4.026416934015613 0 0 0
9816 1 13.656808573554963 64.04686809287936 5.270566936241099 0 0 0
9668 1 18.94001700372568 62.80263734164565 6.514716947856231 0 0 0
9682 1 18.940017003822266 62.802637341623814 4.026416947863361 0 0 0
9686 1 18.94001890291597 65.29110178485134 6.514716938590969 0 0 0
9687 1 18.94001890290889 65.29110178499961 4.0264169385539175 0 0 0
9750 1 17.178947461955186 64.04686884015372 5.270566940783708 0 0 0
4005 1 1.3293443736786905 67.77957237653975 6.514716939086236 0 0 0
4013 1 1.329344373722597 67.77957237655222 4.026416938994578 0 0 0
9997 1 3.0904108906686756 66.53533822453059 5.270566938883973 0 0 0
10371 1 3.0904110950306865 69.02380561458817 5.270566934751763 0 0 0
9953 1 4.8514776110761035 67.77957150419786 6.51471693333071 0 0 0
9968 1 4.851477611105733 67.77957150423855 4.026416933241626 0 0 0
9887 1 8.373611151280702 67.77957013194147 6.514716928074836 0 0 0
9902 1 8.373611151207838 67.77957013195336 4.026416927936587 0 0 0
9949 1 6.612543332173567 66.53533702388293 5.27056693292801 0 0 0
10305 1 6.612545061984041 69.02380450422866 5.270566928021942 0 0 0
9821 1 11.895745893101186 67.77956869322924 6.514716924232474 0 0 0
9836 1 11.895745893091885 67.77956869318903 4.026416924141811 0 0 0
9883 1 10.134676854774241 66.53533572011995 5.270566927744264 0 0 0
10239 1 10.13467956826321 69.02380296676596 5.270566923025965 0 0 0
9755 1 15.417882353349324 67.7795676454174 6.514716925989509 0 0 0
9770 1 15.417882353286995 67.77956764534076 4.0264169259082845 0 0 0
9817 1 13.65681236219054 66.53533472300124 5.270566927452716 0 0 0
10173 1 13.656815208103314 69.02380148804133 5.270566921924789 0 0 0
9689 1 18.940020497774125 67.77956731901116 6.514716931159263 0 0 0
9704 1 18.940020497737617 67.77956731884794 4.0264169310427755 0 0 0
9751 1 17.178950127164025 66.53533434952126 5.270566931144634 0 0 0
10107 1 17.17895220774941 69.0238005393365 5.270566925242496 0 0 0
4326 1 1.3293437988826038 70.26803924813088 -5.926783063912715 0 0 0
4335 1 1.3293433240112515 72.7565056320969 -5.926783067179715 0 0 0
10373 1 3.090411139256129 71.51227232709097 -7.170933067966679 0 0 1
10385 1 3.0904111392851004 71.51227232711061 -4.682633067893742 0 0 0
10331 1 4.8514784057922 70.26803860901973 -5.92678306884941 0 0 0
10349 1 4.851478869440745 72.75650519173134 -5.926783069128902 0 0 0
10265 1 8.373613071908643 70.2680372670293 -5.926783075896994 0 0 0
10283 1 8.373614332605154 72.75650400920597 -5.9267830729057716 0 0 0
10309 1 6.612546199382988 71.51227138356113 -7.170933071959172 0 0 1
10329 1 6.612546199349914 71.51227138359937 -4.682633071840084 0 0 0
10199 1 11.895748336217459 70.26803564450694 -5.926783079139971 0 0 0
10217 1 11.895750003146482 72.75650245702299 -5.926783079400252 0 0 0
10243 1 10.134681445005416 71.51226988270352 -7.170933077392517 0 0 1
10263 1 10.134681445079565 71.51226988274527 -4.682633077368547 0 0 0
10133 1 15.41788455045979 70.26803425881873 -5.926783080005392 0 0 0
10151 1 15.417886096565141 72.75650103176021 -5.9267830813657465 0 0 0
10177 1 13.656817233355765 71.51226829592308 -7.1709330814535654 0 0 1
10197 1 13.656817233347143 71.51226829595002 -4.682633081426419 0 0 0
10067 1 18.94002175869666 70.2680335498409 -5.926783075779394 0 0 0
10085 1 18.94002270331037 72.7565001868665 -5.926783075956961 0 0 0
10111 1 17.17895374565236 71.51226713219377 -7.170933079754021 0 0 1
10131 1 17.178953745632995 71.51226713220069 -4.6826330798360525 0 0 0
4337 1 1.3293429549315199 75.24497175932756 -5.926783061225142 0 0 0
10374 1 3.090411094213171 74.00073864111666 -7.170933065954713 0 0 1
10395 1 3.0904110942006007 74.00073864115711 -4.682633065893582 0 0 0
10353 1 4.85147910313146 75.24497147388519 -5.92678306190507 0 0 0
10287 1 8.373615103936674 75.24497050422683 -5.926783066141707 0 0 0
10310 1 6.612546893069017 74.00073789201981 -7.170933069195604 0 0 1
10350 1 6.61254689314021 74.00073789206623 -4.682633069075315 0 0 0
10221 1 11.89575106713173 75.24496915595395 -5.926783070869852 0 0 0
10244 1 10.134682665026286 74.00073656667945 -7.170933073153626 0 0 1
10284 1 10.134682665008734 74.00073656671067 -4.682633073012441 0 0 0
10155 1 15.417887124580172 75.24496786059788 -5.926783073084434 0 0 0
10178 1 13.656818595603939 74.0007350903004 -7.17093307726817 0 0 1
10218 1 13.656818595569064 74.00073509024175 -4.682633077120148 0 0 0
10089 1 18.940023374395523 75.24496702985793 -5.926783073332263 0 0 0
10112 1 17.178954825005256 74.00073392951731 -7.170933077106714 0 0 1
10152 1 17.178954824959924 74.00073392954052 -4.682633076944911 0 0 0
4342 1 1.3293426870520464 77.73343778548472 -5.926783053736983 0 0 0
10382 1 3.090411006850118 76.48920475121815 -7.170933056868002 0 0 1
10383 1 3.090410908408431 78.97767078261123 -7.17093305243866 0 0 1
10396 1 3.090411006882906 76.4892047512273 -4.68263305686481 0 0 0
10402 1 3.090410908371376 78.97767078258454 -4.682633052352611 0 0 0
10363 1 4.851479190511599 77.73343761316617 -5.926783054204961 0 0 0
10297 1 8.373615520587022 77.73343686501102 -5.926783058062652 0 0 0
10325 1 6.612547273663161 76.48920418701384 -7.170933058986572 0 0 1
10326 1 6.6125474389317835 78.97767037943204 -7.170933053348189 0 0 1
10351 1 6.612547273661172 76.4892041869462 -4.682633058988535 0 0 0
10364 1 6.61254743889579 78.9776703794397 -4.682633053345587 0 0 0
10231 1 11.895751690134755 77.73343577098014 -5.926783061678224 0 0 0
10259 1 10.134683394621925 76.48920310281073 -7.170933063313827 0 0 1
10260 1 10.134683779458722 78.97766954186137 -7.1709330573347145 0 0 1
10285 1 10.134683394596031 76.48920310273687 -4.682633063296037 0 0 0
10298 1 10.134683779426755 78.97766954181647 -4.6826330573068 0 0 0
10165 1 15.417887759910721 77.7334346829283 -5.926783064165344 0 0 0
10193 1 13.656819449687507 76.48920184094335 -7.170933067826531 0 0 1
10194 1 13.656819936632324 78.97766853437165 -7.1709330598665995 0 0 1
10219 1 13.6568194496691 76.48920184091855 -4.682633067845074 0 0 0
10232 1 13.656819936673905 78.97766853444078 -4.6826330597578965 0 0 0
10099 1 18.94002382504452 77.73343394837583 -5.926783065271353 0 0 0
10127 1 17.178955538290825 76.4892008050875 -7.170933070067723 0 0 1
10128 1 17.178955977202037 78.9776676756608 -7.170933060337447 0 0 1
10153 1 17.178955538268166 76.48920080509373 -4.682633070143819 0 0 0
10166 1 17.178955977244424 78.97766767563314 -4.68263306017168 0 0 0
4344 1 1.3293425064514273 80.22190381089221 -5.926783050562054 0 0 0
4660 1 1.3293423931000266 82.7103699269965 -5.926783042930364 0 0 0
10394 1 3.0904108175246376 81.46613679753749 -7.170933047488407 0 0 1
10403 1 3.090410817516737 81.46613679752265 -4.682633047529131 0 0 0
10367 1 4.851479186669563 80.2219037202276 -5.9267830520529134 0 0 0
10735 1 4.851479135658392 82.7103698925832 -5.92678304579978 0 0 0
10301 1 8.37361569951413 80.22190317157313 -5.9267830541168856 0 0 0
10348 1 6.61254747316096 81.46613652632632 -7.170933050971189 0 0 1
10365 1 6.612547473201403 81.46613652644722 -4.682633050954913 0 0 0
10669 1 8.37361573694017 82.71036951123742 -5.926783051595438 0 0 0
10235 1 11.895752003506123 80.2219023336298 -5.9267830572272775 0 0 0
10282 1 10.134683935278328 81.46613591140493 -7.1709330552416874 0 0 1
10299 1 10.134683935348598 81.46613591145213 -4.682633055159565 0 0 0
10603 1 11.895752118765309 82.71036890227417 -5.926783055391845 0 0 0
10169 1 15.417888113442569 80.22190147540867 -5.926783058955769 0 0 0
10216 1 13.656820170293322 81.46613514797255 -7.170933056219663 0 0 1
10233 1 13.656820170259948 81.46613514796572 -4.682633056323028 0 0 0
10537 1 15.417888273459484 82.71036825982013 -5.926783055453932 0 0 0
10103 1 18.94002410683051 80.22190087213413 -5.926783057705103 0 0 0
10150 1 17.178956217650608 81.46613448066519 -7.170933056734031 0 0 1
10167 1 17.178956217719303 81.46613448061805 -4.682633056873066 0 0 0
10471 1 18.940024269214458 82.71036779189456 -5.926783054523394 0 0 0
4319 1 1.3293437988225785 70.26803924815394 -0.950183063846857 0 0 0
4325 1 1.3293437988323693 70.26803924811375 -3.4384830639455615 0 0 0
4327 1 1.3293433239777408 72.75650563208097 -0.9501830672055672 0 0 0
4328 1 1.3293433240251398 72.7565056321678 -3.438483067270374 0 0 0
10386 1 3.0904111392156466 71.51227232709662 -2.1943330678758763 0 0 0
10316 1 4.851478405899215 70.26803860902879 -0.9501830687787644 0 0 0
10330 1 4.851478405864418 70.26803860901403 -3.4384830689098367 0 0 0
10334 1 4.851478869479584 72.75650519167445 -0.9501830691516265 0 0 0
10335 1 4.851478869462568 72.75650519177647 -3.4384830692398287 0 0 0
10250 1 8.373613071974106 70.26803726700244 -0.9501830758748462 0 0 0
10264 1 8.373613071949949 70.26803726706393 -3.43848307593868 0 0 0
10268 1 8.373614332536329 72.75650400922625 -0.9501830728548857 0 0 0
10269 1 8.373614332610869 72.75650400921195 -3.4384830729551834 0 0 0
10332 1 6.612546199376408 71.512271383605 -2.1943330719409464 0 0 0
10184 1 11.895748336229797 70.26803564454106 -0.9501830791353485 0 0 0
10198 1 11.895748336206111 70.26803564449393 -3.4384830792485213 0 0 0
10202 1 11.895750003102203 72.75650245701478 -0.950183079312778 0 0 0
10203 1 11.895750003160536 72.75650245707571 -3.4384830794470713 0 0 0
10266 1 10.134681445011728 71.51226988274709 -2.1943330774506786 0 0 0
10118 1 15.417884550470962 70.26803425880873 -0.9501830799521308 0 0 0
10132 1 15.417884550421743 70.26803425869184 -3.4384830800260873 0 0 0
10136 1 15.41788609656117 72.7565010317544 -0.9501830813421266 0 0 0
10137 1 15.417886096618739 72.75650103188742 -3.438483081383664 0 0 0
10200 1 13.65681723332863 71.51226829586463 -2.1943330813819526 0 0 0
10052 1 18.940021758718093 70.26803354985728 -0.9501830757759172 0 0 0
10066 1 18.940021758675616 70.2680335496875 -3.438483075875507 0 0 0
10070 1 18.94002270329308 72.75650018684298 -0.9501830760107371 0 0 0
10071 1 18.940022703290943 72.75650018703065 -3.4384830760527305 0 0 0
10134 1 17.17895374564007 71.51226713217596 -2.1943330797329077 0 0 0
4330 1 1.3293429549059208 75.2449717592615 -0.9501830613069913 0 0 0
4336 1 1.3293429549196227 75.24497175926342 -3.4384830613134474 0 0 0
10387 1 3.0904110942791867 74.00073864110824 -2.194333065958423 0 0 0
10339 1 4.851479103088692 75.2449714738686 -0.9501830618029189 0 0 0
10352 1 4.851479103088221 75.24497147382387 -3.4384830618825357 0 0 0
10273 1 8.373615103862164 75.24497050419782 -0.950183066105836 0 0 0
10286 1 8.373615103934357 75.24497050413913 -3.438483066196368 0 0 0
10333 1 6.612546893132437 74.00073789200398 -2.1943330691525187 0 0 0
10207 1 11.895751067100756 75.2449691559885 -0.9501830708220979 0 0 0
10220 1 11.89575106718941 75.24496915589273 -3.4384830708865306 0 0 0
10267 1 10.134682664974827 74.00073656669575 -2.1943330731125084 0 0 0
10141 1 15.417887124642023 75.2449678605703 -0.9501830729864137 0 0 0
10154 1 15.417887124581448 75.24496786050214 -3.4384830730650506 0 0 0
10201 1 13.65681859555363 74.00073509026781 -2.194333077311763 0 0 0
10075 1 18.94002337439488 75.24496702982418 -0.9501830732826761 0 0 0
10088 1 18.94002337437365 75.2449670296594 -3.438483073346063 0 0 0
10135 1 17.17895482498484 74.00073392951266 -2.194333077113334 0 0 0
4338 1 1.3293426870772522 77.7334377854239 -0.9501830536725869 0 0 0
4339 1 1.329342687005473 77.73343778548727 -3.4384830537139424 0 0 0
10397 1 3.090411006886105 76.48920475122932 -2.1943330568546813 0 0 0
10398 1 3.0904109083440603 78.97767078257897 -2.1943330524254203 0 0 0
10356 1 4.8514791905213706 77.73343761318982 -0.9501830541863971 0 0 0
10357 1 4.851479190545018 77.73343761321742 -3.4384830542412903 0 0 0
10290 1 8.373615520582684 77.73343686497256 -0.9501830579750398 0 0 0
10291 1 8.37361552062131 77.73343686494601 -3.4384830580377823 0 0 0
10354 1 6.612547273705575 76.48920418696255 -2.194333058948381 0 0 0
10355 1 6.612547438969168 78.97767037944182 -2.194333053355903 0 0 0
10224 1 11.895751690127746 77.73343577101163 -0.9501830617361142 0 0 0
10225 1 11.89575169014272 77.7334357710106 -3.4384830617663638 0 0 0
10288 1 10.134683394645434 76.48920310279206 -2.1943330632221603 0 0 0
10289 1 10.134683779429551 78.97766954187449 -2.1943330573285507 0 0 0
10158 1 15.417887759937123 77.73343468293913 -0.9501830641319138 0 0 0
10159 1 15.41788775993721 77.73343468304873 -3.4384830641609563 0 0 0
10222 1 13.656819449728452 76.48920184098544 -2.1943330677474955 0 0 0
10223 1 13.656819936678483 78.97766853439724 -2.1943330598194595 0 0 0
10092 1 18.94002382501983 77.73343394838163 -0.9501830651756807 0 0 0
10093 1 18.940023825052656 77.73343394857523 -3.438483065266341 0 0 0
10156 1 17.178955538283557 76.48920080515893 -2.194333070004693 0 0 0
10157 1 17.178955977190235 78.977667675628 -2.1943330603169406 0 0 0
4341 1 1.3293425064562994 80.22190381088778 -0.9501830505902056 0 0 0
4343 1 1.3293425064270072 80.22190381087665 -3.4384830506112958 0 0 0
4651 1 1.3293423930753558 82.71036992707714 -0.9501830428871817 0 0 0
4652 1 1.3293423930882378 82.71036992708501 -3.4384830429957156 0 0 0
10404 1 3.090410817496331 81.4661367975743 -2.1943330475735743 0 0 0
10361 1 4.851479186707435 80.22190372022688 -0.9501830520630967 0 0 0
10366 1 4.851479186698345 80.22190372021205 -3.438483052040612 0 0 0
10718 1 4.85147913569267 82.71036989254284 -0.95018304580734 0 0 0
10719 1 4.851479135687722 82.71036989259561 -3.4384830458490723 0 0 0
10295 1 8.37361569948892 80.22190317157622 -0.9501830540666636 0 0 0
10300 1 8.373615699463178 80.22190317158129 -3.4384830541301654 0 0 0
10368 1 6.6125474732328255 81.46613652640636 -2.1943330509545533 0 0 0
10652 1 8.373615736877026 82.71036951120725 -0.9501830515883007 0 0 0
10653 1 8.373615736836337 82.71036951123426 -3.438483051658355 0 0 0
10229 1 11.895752003562281 80.22190233357942 -0.9501830571999423 0 0 0
10234 1 11.895752003452126 80.22190233355883 -3.438483057238852 0 0 0
10302 1 10.134683935215214 81.46613591142889 -2.1943330552050857 0 0 0
10586 1 11.895752118852949 82.71036890224241 -0.9501830553191486 0 0 0
10587 1 11.895752118776544 82.71036890237816 -3.438483055344061 0 0 0
10163 1 15.41788811344012 80.2219014754194 -0.9501830589629704 0 0 0
10168 1 15.417888113488585 80.22190147532426 -3.4384830590590005 0 0 0
10236 1 13.656820170269755 81.46613514800245 -2.194333056305571 0 0 0
10520 1 15.417888273514645 82.71036825980765 -0.9501830553986294 0 0 0
10521 1 15.417888273487922 82.71036825987582 -3.4384830555747135 0 0 0
10097 1 18.94002410679012 80.22190087216015 -0.9501830576678839 0 0 0
10102 1 18.9400241068156 80.22190087199685 -3.438483057713482 0 0 0
10170 1 17.178956217621593 81.46613448065179 -2.194333056768579 0 0 0
10454 1 18.940024269215535 82.71036779187753 -0.9501830545465566 0 0 0
10455 1 18.94002426926517 82.71036779199528 -3.438483054530027 0 0 0
4318 1 1.3293437988832923 70.26803924810727 1.5381169360667017 0 0 0
4321 1 1.3293433240111128 72.75650563213523 1.538116932830463 0 0 0
10377 1 3.0904111392644276 71.51227232710794 0.2939669319873707 0 0 0
10378 1 3.0904111392810485 71.51227232712456 2.782266932146581 0 0 0
10315 1 4.851478405789793 70.26803860903493 1.5381169311540934 0 0 0
10320 1 4.851478869454116 72.75650519175134 1.5381169308553153 0 0 0
10249 1 8.373613071915514 70.26803726705432 1.5381169240587482 0 0 0
10254 1 8.373614332620756 72.75650400920652 1.5381169270953863 0 0 0
10314 1 6.612546199383054 71.51227138355 0.2939669279915916 0 0 0
10317 1 6.6125461993448855 71.51227138358277 2.7822669281687946 0 0 0
10183 1 11.895748336238679 70.26803564448547 1.5381169208222694 0 0 0
10188 1 11.895750003162398 72.75650245707178 1.538116920608171 0 0 0
10248 1 10.134681445041192 71.51226988273017 0.29396692256289847 0 0 0
10251 1 10.134681445109525 71.51226988273288 2.782266922655005 0 0 0
10117 1 15.417884550445589 70.26803425874971 1.5381169200079194 0 0 0
10122 1 15.41788609655592 72.75650103186608 1.53811691862065 0 0 0
10182 1 13.65681723335963 71.51226829589729 0.2939669184720636 0 0 0
10185 1 13.656817233346468 71.51226829593935 2.7822669186646385 0 0 0
10051 1 18.94002175871375 70.26803354971362 1.5381169242379313 0 0 0
10056 1 18.940022703316274 72.7565001870104 1.5381169240164445 0 0 0
10116 1 17.178953745638122 71.5122671322014 0.2939669201086103 0 0 0
10119 1 17.178953745648453 71.51226713219855 2.7822669202865797 0 0 0
4329 1 1.3293429549340856 75.24497175928425 1.538116938748761 0 0 0
10379 1 3.0904110941980316 74.00073864115998 2.782266934088218 0 0 0
10388 1 3.0904110942301344 74.0007386411167 0.293966934065057 0 0 0
10338 1 4.851479103125907 75.24497147386182 1.5381169381252213 0 0 0
10272 1 8.373615103902017 75.24497050422303 1.5381169338748462 0 0 0
10318 1 6.612546893143657 74.00073789205234 2.782266930941968 0 0 0
10336 1 6.612546893077505 74.00073789199978 0.2939669308029669 0 0 0
10206 1 11.895751067117713 75.24496915591676 1.5381169291473238 0 0 0
10252 1 10.134682665011907 74.00073656673185 2.7822669269587568 0 0 0
10270 1 10.134682665014125 74.0007365667025 0.29396692686265746 0 0 0
10140 1 15.417887124596405 75.24496786050129 1.5381169269240926 0 0 0
10186 1 13.656818595567804 74.0007350902587 2.782266922852548 0 0 0
10204 1 13.656818595581946 74.00073509029224 0.2939669227675166 0 0 0
10074 1 18.94002337438763 75.24496702970774 1.5381169266596397 0 0 0
10120 1 17.17895482497992 74.00073392955746 2.782266922943155 0 0 0
10138 1 17.178954824997906 74.00073392952005 0.29396692299741634 0 0 0
4332 1 1.3293426870500447 77.73343778553941 1.5381169462860342 0 0 0
10389 1 3.090411006857131 76.48920475121334 0.2939669430898269 0 0 0
10390 1 3.0904110068811237 76.4892047512347 2.782266943193707 0 0 0
10391 1 3.090410908363853 78.97767078260226 2.782266947603296 0 0 0
10399 1 3.0904109083967173 78.97767078260662 0.2939669475811969 0 0 0
10343 1 4.85147919049774 77.73343761321938 1.5381169458141761 0 0 0
10277 1 8.373615520564664 77.73343686503749 1.5381169419188965 0 0 0
10337 1 6.612547273642979 76.48920418702043 0.29396694098996784 0 0 0
10340 1 6.612547273624135 76.48920418695225 2.782266941061073 0 0 0
10341 1 6.6125474389020935 78.97767037943714 2.782266946659404 0 0 0
10358 1 6.612547438924385 78.97767037944207 0.29396694666652445 0 0 0
10211 1 11.89575169013691 77.73343577101545 1.5381169382879047 0 0 0
10271 1 10.134683394615255 76.48920310283107 0.2939669366554506 0 0 0
10274 1 10.134683394579298 76.4892031027613 2.7822669367375816 0 0 0
10275 1 10.134683779445774 78.97766954181272 2.7822669426294855 0 0 0
10292 1 10.134683779455852 78.97766954185215 0.2939669426461586 0 0 0
10145 1 15.417887759935361 77.733434683029 1.5381169358098263 0 0 0
10205 1 13.656819449689932 76.48920184094086 0.293966932085367 0 0 0
10208 1 13.656819449681455 76.48920184090284 2.7822669322347338 0 0 0
10209 1 13.656819936674443 78.97766853440801 2.782266940163023 0 0 0
10226 1 13.656819936628752 78.97766853434479 0.2939669401441248 0 0 0
10079 1 18.940023825011554 77.73343394853569 1.5381169347268597 0 0 0
10139 1 17.17895553829867 76.48920080509716 0.29396692979399003 0 0 0
10142 1 17.178955538254215 76.48920080510803 2.782266929983232 0 0 0
10143 1 17.178955977208076 78.9776676756822 2.7822669396909436 0 0 0
10160 1 17.178955977197496 78.9776676756678 0.29396693973608956 0 0 0
4340 1 1.32934250645152 80.22190381085859 1.5381169494404257 0 0 0
4647 1 1.3293423930894765 82.71036992705629 1.5381169570683269 0 0 0
10400 1 3.090410817517554 81.46613679754064 0.29396695241704085 0 0 0
10401 1 3.0904108175266596 81.46613679750969 2.7822669525005743 0 0 0
10360 1 4.851479186664805 80.22190372021258 1.5381169479150518 0 0 0
10709 1 4.851479135659014 82.71036989260638 1.5381169542115092 0 0 0
10294 1 8.373615699537172 80.22190317155123 1.5381169459004993 0 0 0
10359 1 6.6125474731650815 81.4661365263383 0.29396694898454445 0 0 0
10362 1 6.612547473205046 81.46613652643624 2.7822669490871204 0 0 0
10643 1 8.373615736940351 82.71036951125441 1.5381169483909447 0 0 0
10228 1 11.895752003509978 80.22190233355605 1.5381169427680677 0 0 0
10293 1 10.134683935293868 81.46613591141573 0.29396694471933293 0 0 0
10296 1 10.134683935369797 81.46613591144923 2.7822669448853423 0 0 0
10577 1 11.89575211878273 82.71036890231527 1.5381169446232255 0 0 0
10162 1 15.41788811342456 80.22190147531505 1.5381169409957558 0 0 0
10227 1 13.656820170296648 81.46613514795051 0.2939669437083626 0 0 0
10230 1 13.656820170263213 81.46613514795683 2.782266943756824 0 0 0
10511 1 15.417888273479457 82.71036825990245 1.5381169445340557 0 0 0
10096 1 18.940024106804476 80.22190087201726 1.538116942292271 0 0 0
10161 1 17.178956217653084 81.46613448066596 0.2939669431278165 0 0 0
10164 1 17.178956217691717 81.4661344806356 2.7822669432405744 0 0 0
10445 1 18.94002426923305 82.71036779201391 1.538116945509587 0 0 0
4315 1 1.329343798821088 70.26803924812504 6.514716936156573 0 0 0
4316 1 1.3293437988472907 70.26803924811438 4.026416936046852 0 0 0
4317 1 1.3293433239791637 72.75650563211082 6.514716932792144 0 0 0
4320 1 1.3293433240373511 72.7565056321137 4.026416932727521 0 0 0
10372 1 3.090411139218513 71.51227232710087 5.270566932100017 0 0 0
10307 1 4.851478405909091 70.26803860903983 6.514716931229787 0 0 0
10308 1 4.851478405838733 70.26803860900267 4.026416931091945 0 0 0
10311 1 4.851478869476358 72.75650519170166 6.514716930849754 0 0 0
10319 1 4.851478869467856 72.75650519176406 4.026416930776116 0 0 0
10241 1 8.37361307195336 70.2680372670025 6.514716924132504 0 0 0
10242 1 8.373613071947199 70.26803726705134 4.026416924030054 0 0 0
10245 1 8.37361433253172 72.75650400923779 6.514716927110596 0 0 0
10253 1 8.37361433260958 72.75650400921982 4.026416927022755 0 0 0
10306 1 6.612546199379145 71.51227138361243 5.270566928025185 0 0 0
10175 1 11.895748336225626 70.26803564451977 6.514716920894189 0 0 0
10176 1 11.895748336206665 70.26803564450009 4.026416920734255 0 0 0
10179 1 11.895750003084277 72.75650245704823 6.514716920662139 0 0 0
10187 1 11.895750003165256 72.75650245704234 4.02641692054868 0 0 0
10240 1 10.134681444997897 71.51226988271964 5.270566922505113 0 0 0
10109 1 15.417884550458986 70.26803425875417 6.514716920048171 0 0 0
10110 1 15.41788455041509 70.26803425877365 4.026416919987628 0 0 0
10113 1 15.417886096596838 72.75650103184618 6.514716918638751 0 0 0
10121 1 15.417886096623944 72.75650103181283 4.026416918590171 0 0 0
10174 1 13.656817233313276 71.51226829586918 5.270566918537497 0 0 0
10043 1 18.940021758743743 70.26803354972455 6.514716924217716 0 0 0
10044 1 18.94002175870709 70.26803354981509 4.0264169241374095 0 0 0
10047 1 18.940022703314067 72.75650018699096 6.514716923981386 0 0 0
10055 1 18.94002270331334 72.75650018688546 4.026416923940059 0 0 0
10108 1 17.178953745683508 71.51226713219106 5.2705669201283145 0 0 0
4322 1 1.3293429548974482 75.24497175923285 6.514716938697253 0 0 0
4323 1 1.3293429549172027 75.24497175932038 4.026416938673995 0 0 0
10380 1 3.0904110942519614 74.0007386411149 5.27056693404108 0 0 0
10323 1 4.851479103075894 75.24497147384716 6.514716938160499 0 0 0
10324 1 4.8514791030805124 75.24497147384209 4.026416938117739 0 0 0
10257 1 8.373615103875617 75.24497050417418 6.514716933874934 0 0 0
10258 1 8.37361510392893 75.24497050416902 4.026416933783844 0 0 0
10321 1 6.612546893148496 74.00073789200903 5.270566930806817 0 0 0
10191 1 11.895751067092288 75.24496915594172 6.514716929186977 0 0 0
10192 1 11.895751067160617 75.24496915594807 4.0264169291151095 0 0 0
10255 1 10.134682664973804 74.00073656668047 5.270566926877112 0 0 0
10125 1 15.417887124668582 75.24496786048398 6.5147169270086716 0 0 0
10126 1 15.417887124609873 75.2449678606037 4.026416926924228 0 0 0
10189 1 13.656818595564058 74.0007350902728 5.27056692273384 0 0 0
10059 1 18.940023374376107 75.24496702969833 6.51471692671977 0 0 0
10060 1 18.940023374384015 75.2449670298599 4.026416926638992 0 0 0
10123 1 17.178954825022995 74.00073392952854 5.270566922973453 0 0 0
4324 1 1.3293426870559768 77.73343778548603 6.514716946320569 0 0 0
4331 1 1.3293426870055254 77.73343778544371 4.0264169462997135 0 0 0
10381 1 3.0904110068721833 76.48920475123855 5.270566943089955 0 0 0
10392 1 3.0904109083550995 78.97767078258445 5.2705669476236565 0 0 0
10327 1 4.851479190527535 77.73343761322089 6.514716945806563 0 0 0
10342 1 4.851479190524901 77.73343761321061 4.026416945773153 0 0 0
10261 1 8.373615520589704 77.73343686498798 6.514716942048956 0 0 0
10276 1 8.373615520632468 77.73343686491451 4.026416941965387 0 0 0
10322 1 6.612547273699182 76.48920418696804 5.270566941026413 0 0 0
10344 1 6.6125474389889645 78.9776703794362 5.270566946652909 0 0 0
10195 1 11.895751690128465 77.73343577106547 6.514716938284607 0 0 0
10210 1 11.895751690128945 77.73343577096534 4.026416938257836 0 0 0
10256 1 10.13468339463357 76.48920310282321 5.270566936731352 0 0 0
10278 1 10.134683779445773 78.977669541867 5.2705669427237 0 0 0
10129 1 15.417887759937898 77.73343468303841 6.514716935891618 0 0 0
10144 1 15.417887759941348 77.73343468297455 4.02641693583095 0 0 0
10190 1 13.65681944972501 76.48920184097129 5.270566932162833 0 0 0
10212 1 13.656819936678422 78.97766853434854 5.270566940256844 0 0 0
10063 1 18.940023824978137 77.7334339485575 6.514716934807555 0 0 0
10078 1 18.940023825003546 77.73343394847299 4.026416934729307 0 0 0
10124 1 17.178955538264187 76.48920080519304 5.2705669298571625 0 0 0
10146 1 17.178955977163216 78.97766767566345 5.270566939809559 0 0 0
4333 1 1.3293425064727122 80.22190381082687 6.514716949407077 0 0 0
4334 1 1.32934250642814 80.22190381094823 4.0264169493938216 0 0 0
4645 1 1.329342393082158 82.71036992712447 6.514716957109289 0 0 0
4646 1 1.3293423930830435 82.71036992703269 4.026416957000925 0 0 0
10393 1 3.090410817518285 81.46613679755399 5.270566952387607 0 0 0
10346 1 4.8514791867106934 80.22190372018699 6.5147169479904985 0 0 0
10347 1 4.851479186707917 80.22190372025011 4.026416947956916 0 0 0
10706 1 4.851479135666183 82.710369892559 6.514716954184112 0 0 0
10708 1 4.851479135684097 82.71036989257803 4.026416954150537 0 0 0
10280 1 8.37361569950948 80.2219031715259 6.514716945924509 0 0 0
10281 1 8.373615699497444 80.22190317158753 4.026416945868364 0 0 0
10345 1 6.612547473231715 81.46613652639911 5.270566949028664 0 0 0
10640 1 8.373615736864776 82.71036951122338 6.514716948449989 0 0 0
10642 1 8.37361573684105 82.71036951120284 4.026416948361471 0 0 0
10214 1 11.895752003561855 80.22190233352548 6.514716942826907 0 0 0
10215 1 11.895752003474923 80.22190233358977 4.0264169427731185 0 0 0
10279 1 10.13468393522477 81.466135911426 5.2705669447796035 0 0 0
10574 1 11.895752118830151 82.71036890227889 6.514716944684674 0 0 0
10576 1 11.895752118758457 82.71036890233214 4.02641694465179 0 0 0
10148 1 15.417888113440295 80.22190147531775 6.514716941100594 0 0 0
10149 1 15.417888113452873 80.22190147541158 4.026416940953038 0 0 0
10213 1 13.656820170274415 81.46613514797939 5.27056694364286 0 0 0
10508 1 15.417888273514288 82.71036825988615 6.514716944594356 0 0 0
10510 1 15.417888273477397 82.71036825978055 4.026416944426307 0 0 0
10082 1 18.94002410678026 80.22190087203863 6.514716942339281 0 0 0
10083 1 18.940024106779227 80.22190087214013 4.026416942280876 0 0 0
10147 1 17.178956217597875 81.46613448066745 5.270566943129927 0 0 0
10442 1 18.940024269208017 82.71036779199879 6.514716945445753 0 0 0
10444 1 18.940024269271593 82.71036779186267 4.0264169454599985 0 0 0
4662 1 1.329342328042971 85.1988363373779 -5.926783040554013 0 0 0
10771 1 3.090410737622027 83.9546027552681 -7.170933041739646 0 0 1
10775 1 3.090410675783894 86.44306830046521 -7.170933040382369 0 0 1
10786 1 3.090410737649302 83.9546027552495 -4.682633041688676 0 0 0
10787 1 3.090410675850625 86.44306830046344 -4.68263304032765 0 0 0
10739 1 4.851479066751132 85.19883633807818 -5.926783042539987 0 0 0
10673 1 8.373615689422525 85.1988360892497 -5.926783045128991 0 0 0
10705 1 6.612547434268673 83.95460258462245 -7.170933046287441 0 0 1
10714 1 6.612547358719514 86.44306820409523 -7.17093304143713 0 0 1
10736 1 6.612547434237247 83.95460258462687 -4.682633046276443 0 0 0
10737 1 6.612547358749387 86.44306820412595 -4.682633041452979 0 0 0
10607 1 11.895752112721686 85.19883566985622 -5.926783048552549 0 0 0
10639 1 10.134683953273589 83.95460215849654 -7.1709330513254725 0 0 1
10648 1 10.134683891688052 86.44306792562297 -7.170933043344218 0 0 1
10670 1 10.134683953317325 83.95460215843973 -4.682633051258541 0 0 0
10671 1 10.134683891634287 86.44306792559708 -4.682633043296649 0 0 0
10541 1 15.417888311553284 85.19883521486922 -5.926783052657116 0 0 0
10573 1 13.656820241588187 83.95460160858923 -7.170933055090672 0 0 1
10582 1 13.656820216915808 86.44306755358625 -7.170933046466001 0 0 1
10604 1 13.656820241539638 83.95460160859487 -4.682633055031763 0 0 0
10605 1 13.656820216932122 86.44306755364607 -4.682633046466996 0 0 0
10475 1 18.940024347292148 85.19883486781842 -5.926783053916794 0 0 0
10507 1 17.17895632466717 83.95460111432885 -7.170933054910669 0 0 1
10516 1 17.17895634985751 86.44306720358777 -7.17093304919161 0 0 1
10538 1 17.1789563246628 83.954601114321 -4.682633054751275 0 0 0
10539 1 17.1789563497846 86.44306720358827 -4.682633049229714 0 0 0
4671 1 1.3293422967167718 87.68730383947677 -5.926783038157212 0 0 0
10776 1 3.0904106296227183 88.93153174737775 -7.170933039514268 0 0 1
10795 1 3.09041062962358 88.93153174732065 -4.682633039449001 0 0 0
4673 1 1.3293422885196369 90.17577604895882 -5.9267830394768595 0 0 0
10755 1 4.851478995512323 87.68730386012501 -5.926783039457796 0 0 0
10759 1 4.851478928614689 90.17577608023264 -5.926783036607135 0 0 0
10689 1 8.373615603182163 87.6873037110772 -5.926783039054978 0 0 0
10715 1 6.612547272614056 88.93153170298183 -7.170933037571539 0 0 1
10756 1 6.612547272585425 88.93153170296351 -4.682633037559178 0 0 0
10693 1 8.373615502567631 90.17577600430118 -5.926783031957876 0 0 0
10623 1 11.895752038594264 87.68730344138687 -5.9267830390841105 0 0 0
10649 1 10.134683793674489 88.93153153799604 -7.170933034328977 0 0 1
10690 1 10.134683793640267 88.93153153798744 -4.682633034219694 0 0 0
10627 1 11.895751940095748 90.17577584457366 -5.926783027948521 0 0 0
10557 1 15.417888283371068 87.68730313459845 -5.926783041625528 0 0 0
10583 1 13.656820144022053 88.93153129999861 -7.170933031774817 0 0 1
10624 1 13.656820144025852 88.93153129993051 -4.682633031717353 0 0 0
10561 1 15.417888217889134 90.17577565101023 -5.926783026144266 0 0 0
10491 1 18.940024370292292 87.6873028910324 -5.926783044056994 0 0 0
10517 1 17.178956324813846 88.93153106712543 -7.170933034423386 0 0 1
10558 1 17.178956324778703 88.93153106707014 -4.682633034339324 0 0 0
10495 1 18.94002436393207 90.1757754871029 -5.926783028107843 0 0 0
4678 1 1.3293422924082667 92.66426945007788 -5.926783035336485 0 0 0
10784 1 3.0904105954859427 91.41998533126332 -7.170933036822553 0 0 1
10796 1 3.090410595477367 91.41998533128728 -4.682633036802695 0 0 0
10767 1 4.851478870767281 92.66426948516293 -5.926783033787576 0 0 0
10701 1 8.373615404788493 92.66426945904242 -5.926783027597276 0 0 0
10732 1 6.612547186887434 91.41998532237896 -7.170933032500738 0 0 1
10757 1 6.612547186872577 91.41998532231345 -4.682633032534145 0 0 0
10635 1 11.895751837333957 92.66426937739949 -5.926783022231559 0 0 0
10666 1 10.13468368803551 91.41998523727705 -7.170933026590005 0 0 1
10691 1 10.134683688023085 91.41998523723186 -4.682633026627182 0 0 0
10569 1 15.417888143331902 92.66426926655238 -5.926783018941598 0 0 0
10600 1 13.656820052118837 91.41998509861108 -7.170933024042004 0 0 1
10625 1 13.65682005222187 91.41998509862154 -4.682633024118624 0 0 0
10503 1 18.94002434199763 92.6642691629069 -5.9267830203455265 0 0 0
10534 1 17.178956279350114 91.41998495203674 -7.170933022744928 0 0 1
10559 1 17.17895627940048 91.41998495201493 -4.6826330227226585 0 0 0
4680 1 1.3293423013138086 95.15285541526758 -5.926783027043739 0 0 0
10785 1 3.09041057377709 93.90839560759251 -7.170933031669235 0 0 1
10800 1 3.0904105738154803 93.90839560759783 -4.682633031665143 0 0 0
11030 1 3.0904105600010383 96.39660590570165 -7.170933022945984 0 0 1
11039 1 3.0904105599393885 96.3966059057391 -4.682633022939732 0 0 0
10770 1 4.851478828418079 95.15285545326591 -5.926783025688084 0 0 0
10704 1 8.373615322706849 95.15285545759876 -5.926783022596191 0 0 0
10733 1 6.6125471132074765 93.90839562057428 -7.170933029050564 0 0 1
10768 1 6.612547113224016 93.90839562056593 -4.682633029048029 0 0 0
10988 1 6.612547056243562 96.39660593399428 -7.170933020015688 0 0 1
11003 1 6.6125470562990065 96.39660593404089 -4.682633020036179 0 0 0
10638 1 11.895751743275477 95.15285542863512 -5.926783017750276 0 0 0
10667 1 10.134683588159897 93.90839558837776 -7.170933022412614 0 0 1
10702 1 10.134683588209029 93.90839558830744 -4.682633022425215 0 0 0
10946 1 10.134683506091358 96.39660593680519 -7.1709330155372975 0 0 1
10961 1 10.134683506063833 96.39660593682116 -4.682633015570279 0 0 0
10572 1 15.41788807117559 95.15285537350914 -5.926783015724568 0 0 0
10601 1 13.65681996099285 93.90839551994216 -7.170933017026169 0 0 1
10636 1 13.65681996097832 93.90839552000057 -4.6826330170040915 0 0 0
10904 1 13.656819882482626 96.39660591286547 -7.170933013961282 0 0 1
10919 1 13.656819882492632 96.39660591288774 -4.68263301402237 0 0 0
10506 1 18.940024317696004 95.15285531166933 -5.926783017990789 0 0 0
10535 1 17.178956227324484 93.9083954361572 -7.170933017569622 0 0 1
10570 1 17.17895622731123 93.90839543617324 -4.682633017504749 0 0 0
10862 1 17.178956180282306 96.39660587052245 -7.1709330160011895 0 0 1
10877 1 17.178956180312493 96.39660587055006 -4.6826330160333605 0 0 0
4654 1 1.3293423280603942 85.19883633741867 -0.9501830404651107 0 0 0
4661 1 1.3293423280349241 85.1988363373469 -3.4384830405098348 0 0 0
10777 1 3.0904107375950476 83.95460275525141 -2.194333041704378 0 0 0
10788 1 3.090410675797367 86.44306830044627 -2.1943330403044734 0 0 0
10723 1 4.851479066722754 85.19883633809587 -0.9501830424512261 0 0 0
10738 1 4.851479066764007 85.19883633810458 -3.438483042546028 0 0 0
10657 1 8.37361568937675 85.19883608926067 -0.9501830450678226 0 0 0
10672 1 8.37361568938285 85.19883608922574 -3.438483045222875 0 0 0
10717 1 6.612547434247034 83.95460258461877 -2.1943330462864465 0 0 0
10740 1 6.612547358741625 86.44306820409896 -2.194333041402752 0 0 0
10591 1 11.895752112748537 85.19883566982175 -0.9501830485522523 0 0 0
10606 1 11.895752112838604 85.19883566983734 -3.438483048562314 0 0 0
10651 1 10.134683953282055 83.95460215844135 -2.194333051311415 0 0 0
10674 1 10.13468389168235 86.44306792564876 -2.194333043268537 0 0 0
10525 1 15.417888311521915 85.19883521485744 -0.9501830526073024 0 0 0
10540 1 15.417888311525065 85.1988352148386 -3.438483052674476 0 0 0
10585 1 13.65682024161559 83.95460160865808 -2.194333055087173 0 0 0
10608 1 13.656820216980112 86.44306755366323 -2.1943330463954265 0 0 0
10459 1 18.940024347308974 85.19883486784065 -0.950183053860723 0 0 0
10474 1 18.940024347273866 85.19883486771057 -3.438483053940591 0 0 0
10519 1 17.178956324690724 83.95460111436645 -2.1943330548407456 0 0 0
10542 1 17.178956349773813 86.44306720353627 -2.194333049200887 0 0 0
4663 1 1.3293422967028152 87.68730383950383 -0.9501830381656131 0 0 0
4664 1 1.3293422967458057 87.68730383948308 -3.4384830382064893 0 0 0
10789 1 3.090410629640466 88.93153174731476 -2.194333039525074 0 0 0
4666 1 1.3293422885499426 90.17577604891295 -0.9501830394555749 0 0 0
4672 1 1.3293422884723183 90.17577604887055 -3.4384830394851384 0 0 0
10742 1 4.85147899552444 87.6873038601557 -0.9501830394212873 0 0 0
10743 1 4.851478995573998 87.68730386011732 -3.4384830394627977 0 0 0
10747 1 4.851478928672786 90.1757760801833 -0.9501830366341842 0 0 0
10758 1 4.851478928629152 90.17577608016396 -3.4384830366821997 0 0 0
10676 1 8.373615603180872 87.68730371113126 -0.9501830390125521 0 0 0
10677 1 8.373615603154025 87.68730371114553 -3.4384830391083794 0 0 0
10741 1 6.612547272600984 88.93153170296134 -2.194333037567497 0 0 0
10681 1 8.373615502522721 90.17577600429821 -0.9501830319407113 0 0 0
10692 1 8.373615502527436 90.17577600425061 -3.438483031960076 0 0 0
10610 1 11.895752038605147 87.68730344136945 -0.9501830390568776 0 0 0
10611 1 11.895752038622739 87.6873034414132 -3.438483039084588 0 0 0
10675 1 10.134683793629598 88.93153153802152 -2.194333034264712 0 0 0
10615 1 11.89575194012713 90.17577584461938 -0.9501830279944941 0 0 0
10626 1 11.895751940099572 90.17577584463096 -3.438483028042283 0 0 0
10544 1 15.41788828336734 87.68730313458985 -0.950183041606868 0 0 0
10545 1 15.417888283407697 87.6873031346069 -3.4384830416498104 0 0 0
10609 1 13.656820143991363 88.93153130000161 -2.194333031782057 0 0 0
10549 1 15.417888217865857 90.17577565105864 -0.9501830261409677 0 0 0
10560 1 15.417888217928532 90.17577565095891 -3.4384830261945405 0 0 0
10478 1 18.940024370292132 87.68730289099014 -0.9501830440265238 0 0 0
10479 1 18.94002437028823 87.68730289104714 -3.4384830440679375 0 0 0
10543 1 17.178956324767064 88.93153106708267 -2.194333034365011 0 0 0
10483 1 18.940024363916546 90.17577548707646 -0.9501830280812104 0 0 0
10494 1 18.94002436394943 90.1757754869858 -3.4384830280989607 0 0 0
4674 1 1.329342292444545 92.6642694500619 -0.950183035207038 0 0 0
4675 1 1.3293422924092453 92.66426945003417 -3.4384830352646287 0 0 0
10797 1 3.0904105954747587 91.41998533122282 -2.1943330367288314 0 0 0
10762 1 4.851478870789179 92.6642694851002 -0.9501830337796401 0 0 0
10763 1 4.851478870776383 92.66426948511656 -3.4384830338200003 0 0 0
10696 1 8.373615404784655 92.66426945904695 -0.9501830275826905 0 0 0
10697 1 8.373615404791774 92.66426945899217 -3.4384830276243497 0 0 0
10760 1 6.612547186897605 91.41998532235084 -2.194333032533938 0 0 0
10630 1 11.895751837359445 92.66426937739057 -0.9501830221913233 0 0 0
10631 1 11.895751837280262 92.66426937736851 -3.4384830221605553 0 0 0
10694 1 10.134683688005305 91.41998523724527 -2.1943330266662424 0 0 0
10564 1 15.417888143331767 92.66426926653116 -0.9501830189330348 0 0 0
10565 1 15.417888143377844 92.6642692666249 -3.438483018956926 0 0 0
10628 1 13.656820052085262 91.4199850986121 -2.1943330240758216 0 0 0
10498 1 18.940024342054613 92.66426916287625 -0.9501830203330699 0 0 0
10499 1 18.940024341971796 92.66426916294557 -3.438483020373775 0 0 0
10562 1 17.17895627945694 91.41998495206484 -2.1943330227342335 0 0 0
4677 1 1.3293423013088512 95.15285541528499 -0.9501830270789965 0 0 0
4679 1 1.3293423013426136 95.15285541530741 -3.4384830270735858 0 0 0
10798 1 3.0904105738033456 93.90839560757 -2.1943330316209964 0 0 0
11040 1 3.0904105599640657 96.39660590571613 -2.1943330229641336 0 0 0
10766 1 4.851478828417944 95.15285545325563 -0.9501830256862338 0 0 0
10769 1 4.851478828423384 95.15285545326955 -3.4384830257580234 0 0 0
10700 1 8.373615322711824 95.15285545760422 -0.950183022620729 0 0 0
10703 1 8.373615322662644 95.1528554576585 -3.4384830226251357 0 0 0
10761 1 6.612547113182711 93.9083956205717 -2.194333029056376 0 0 0
11004 1 6.6125470562096575 96.39660593400663 -2.194333020033828 0 0 0
10634 1 11.895751743312843 95.15285542858015 -0.9501830177199558 0 0 0
10637 1 11.895751743247827 95.15285542858585 -3.4384830177019756 0 0 0
10695 1 10.134683588228523 93.90839558830916 -2.194333022403953 0 0 0
10962 1 10.134683506126352 96.39660593680645 -2.19433301548481 0 0 0
10568 1 15.417888071153227 95.15285537349597 -0.9501830157260215 0 0 0
10571 1 15.417888071154064 95.15285537343672 -3.4384830157477526 0 0 0
10629 1 13.656819960967118 93.90839551998198 -2.1943330170244573 0 0 0
10920 1 13.656819882543726 96.39660591287885 -2.19433301402484 0 0 0
10502 1 18.940024317673824 95.15285531161577 -0.9501830179781728 0 0 0
10505 1 18.940024317666122 95.15285531162097 -3.438483018021823 0 0 0
10563 1 17.178956227351847 93.90839543613967 -2.1943330175452616 0 0 0
10878 1 17.178956180268028 96.39660587059448 -2.1943330159987178 0 0 0
4653 1 1.3293423280526133 85.19883633731945 1.538116959482834 0 0 0
10772 1 3.090410737648714 83.95460275522503 2.7822669582956276 0 0 0
10778 1 3.0904107376330296 83.95460275526332 0.293966958299028 0 0 0
10779 1 3.090410675799351 86.44306830045481 0.29396695959745045 0 0 0
10780 1 3.09041067584971 86.44306830046541 2.7822669597229517 0 0 0
10722 1 4.851479066756182 85.19883633805554 1.5381169574788112 0 0 0
10656 1 8.373615689403602 85.19883608922456 1.5381169548927245 0 0 0
10707 1 6.612547434229243 83.9546025846242 2.782266953730244 0 0 0
10720 1 6.612547434279746 83.95460258462448 0.29396695371711185 0 0 0
10721 1 6.612547358723497 86.44306820410765 0.2939669585500715 0 0 0
10724 1 6.61254735873842 86.44306820413853 2.7822669585856503 0 0 0
10590 1 11.895752112737654 85.19883566981149 1.5381169514469095 0 0 0
10641 1 10.134683953314266 83.95460215843899 2.782266948726859 0 0 0
10654 1 10.13468395328042 83.95460215849738 0.29396694868684825 0 0 0
10655 1 10.134683891682123 86.44306792562196 0.29396695663365924 0 0 0
10658 1 10.134683891642794 86.4430679255992 2.7822669567284644 0 0 0
10524 1 15.41788831156834 85.19883521480196 1.5381169473517657 0 0 0
10575 1 13.656820241560661 83.95460160858265 2.782266944929329 0 0 0
10588 1 13.656820241602837 83.95460160858568 0.29396694497356174 0 0 0
10589 1 13.65682021691134 86.44306755358168 0.29396695347466173 0 0 0
10592 1 13.656820216950017 86.44306755364957 2.7822669535831697 0 0 0
10458 1 18.940024347316463 85.19883486770846 1.5381169460871047 0 0 0
10509 1 17.178956324675763 83.95460111432598 2.7822669451684647 0 0 0
10522 1 17.17895632469608 83.95460111433285 0.29396694520321404 0 0 0
10523 1 17.178956349868873 86.4430672035772 0.2939669507502128 0 0 0
10526 1 17.178956349815387 86.44306720358779 2.7822669508667515 0 0 0
4656 1 1.3293422967093993 87.68730383949476 1.538116961855826 0 0 0
10781 1 3.0904106296068417 88.93153174733102 2.782266960553155 0 0 0
10790 1 3.090410629607749 88.9315317473521 0.2939669605239985 0 0 0
4665 1 1.3293422885001969 90.1757760489144 1.538116960535288 0 0 0
10727 1 4.851478995512994 87.68730386013459 1.5381169605564913 0 0 0
10746 1 4.85147892861844 90.1757760802094 1.5381169633571534 0 0 0
10661 1 8.373615603175825 87.6873037110934 1.5381169609633085 0 0 0
10725 1 6.6125472725938845 88.93153170296952 2.782266962426699 0 0 0
10744 1 6.612547272613618 88.93153170298186 0.29396696244972514 0 0 0
10680 1 8.37361550256998 90.17577600430951 1.5381169680573363 0 0 0
10595 1 11.895752038605275 87.68730344140705 1.538116960958645 0 0 0
10659 1 10.134683793644182 88.93153153799311 2.782266965786863 0 0 0
10678 1 10.134683793678954 88.93153153799919 0.29396696571387193 0 0 0
10614 1 11.89575194009787 90.1757758445569 1.5381169720417227 0 0 0
10529 1 15.417888283367468 87.68730313465565 1.5381169583775276 0 0 0
10593 1 13.65682014403045 88.93153129992868 2.7822669682691434 0 0 0
10612 1 13.656820144015411 88.93153130002423 0.2939669682691046 0 0 0
10548 1 15.417888217878915 90.17577565095256 1.5381169738510856 0 0 0
10463 1 18.940024370305593 87.68730289113752 1.53811695595102 0 0 0
10527 1 17.178956324773257 88.93153106706913 2.782266965624 0 0 0
10546 1 17.178956324795724 88.93153106711536 0.29396696564701114 0 0 0
10482 1 18.940024363922582 90.17577548704 1.5381169718730006 0 0 0
4668 1 1.3293422924167215 92.66426945007369 1.538116964673378 0 0 0
10791 1 3.0904105954811047 91.41998533123073 0.29396696317906557 0 0 0
10792 1 3.0904105954759107 91.41998533126676 2.7822669632385586 0 0 0
10751 1 4.85147887079336 92.664269485149 1.538116966203736 0 0 0
10685 1 8.373615404802186 92.6642694590632 1.5381169723802965 0 0 0
10745 1 6.612547186905849 91.41998532236917 0.29396696749295254 0 0 0
10748 1 6.612547186880553 91.41998532232415 2.7822669674752705 0 0 0
10619 1 11.895751837312744 92.66426937742756 1.5381169777785375 0 0 0
10679 1 10.134683688035391 91.41998523725783 0.2939669733727393 0 0 0
10682 1 10.13468368802345 91.41998523724708 2.7822669733853447 0 0 0
10553 1 15.417888143337825 92.66426926658508 1.5381169810560213 0 0 0
10613 1 13.656820052105015 91.41998509862137 0.2939669759416455 0 0 0
10616 1 13.656820052205752 91.41998509861509 2.7822669759293266 0 0 0
10487 1 18.940024341979697 92.66426916297749 1.5381169796729077 0 0 0
10547 1 17.178956279358918 91.41998495202489 0.29396697719879755 0 0 0
10550 1 17.1789562793841 91.41998495201672 2.782266977323216 0 0 0
4676 1 1.3293423013460015 95.15285541523104 1.5381169729643773 0 0 0
10793 1 3.0904105738380196 93.90839560757055 2.782266968316542 0 0 0
10799 1 3.0904105737942538 93.90839560758005 0.29396696834163544 0 0 0
11032 1 3.090410559985605 96.39660590570635 0.2939669770407135 0 0 0
11033 1 3.0904105599527685 96.3966059057321 2.7822669770430553 0 0 0
10765 1 4.851478828432301 95.15285545327613 1.5381169742821508 0 0 0
10699 1 8.373615322700449 95.15285545761249 1.5381169774060963 0 0 0
10749 1 6.612547113226789 93.90839562058412 2.7822669709492733 0 0 0
10764 1 6.612547113206809 93.90839562058613 0.2939669709142707 0 0 0
10991 1 6.612547056252737 96.3966059340136 0.29396697997774357 0 0 0
10992 1 6.612547056287202 96.39660593405269 2.782266979946629 0 0 0
10633 1 11.895751743269646 95.15285542864513 1.5381169822752991 0 0 0
10683 1 10.134683588200637 93.90839558830734 2.782266977597881 0 0 0
10698 1 10.134683588156888 93.90839558838336 0.2939669775946576 0 0 0
10949 1 10.134683506081444 96.39660593679886 0.2939669844569818 0 0 0
10950 1 10.134683506058357 96.39660593682747 2.7822669844373493 0 0 0
10567 1 15.417888071166553 95.1528553734799 1.5381169842650744 0 0 0
10617 1 13.656819960980616 93.90839551998438 2.7822669829926214 0 0 0
10632 1 13.656819960996177 93.90839551995364 0.2939669830036002 0 0 0
10907 1 13.656819882487074 96.3966059128808 0.2939669860331065 0 0 0
10908 1 13.656819882508607 96.396605912893 2.782266985986601 0 0 0
10501 1 18.940024317683424 95.15285531162343 1.538116982009421 0 0 0
10551 1 17.178956227300887 93.90839543615813 2.782266982429393 0 0 0
10566 1 17.178956227347808 93.90839543617189 0.2939669824690469 0 0 0
10865 1 17.178956180289802 96.39660587050557 0.2939669839833473 0 0 0
10866 1 17.178956180287464 96.39660587055334 2.7822669839944956 0 0 0
4648 1 1.3293423280313366 85.19883633736973 6.514716959499114 0 0 0
4649 1 1.32934232803277 85.19883633737871 4.026416959497716 0 0 0
10773 1 3.090410737577692 83.9546027552411 5.27056695829916 0 0 0
10774 1 3.090410675767859 86.44306830047643 5.270566959680718 0 0 0
10712 1 4.8514790666926055 85.19883633807981 6.51471695755648 0 0 0
10713 1 4.8514790667322165 85.19883633813045 4.026416957460772 0 0 0
10646 1 8.373615689366305 85.19883608926013 6.514716954909955 0 0 0
10647 1 8.37361568939357 85.19883608925413 4.026416954780992 0 0 0
10710 1 6.612547434224081 83.9546025846179 5.270566953734635 0 0 0
10711 1 6.612547358731718 86.4430682041004 5.270566958555151 0 0 0
10580 1 11.895752112756313 85.19883566979215 6.514716951449742 0 0 0
10581 1 11.895752112854247 85.19883566986908 4.026416951419216 0 0 0
10644 1 10.134683953275799 83.95460215844736 5.270566948711306 0 0 0
10645 1 10.134683891698593 86.44306792566228 5.270566956665799 0 0 0
10514 1 15.417888311518352 85.19883521479188 6.514716947368229 0 0 0
10515 1 15.417888311522695 85.19883521490429 4.026416947319146 0 0 0
10578 1 13.656820241620562 83.95460160863901 5.270566944956644 0 0 0
10579 1 13.656820217003371 86.4430675536631 5.270566953535329 0 0 0
10448 1 18.940024347293022 85.19883486771477 6.51471694615749 0 0 0
10449 1 18.940024347298813 85.19883486782264 4.026416946070224 0 0 0
10512 1 17.178956324666796 83.95460111436782 5.270566945221033 0 0 0
10513 1 17.178956349778126 86.44306720353832 5.2705669506884405 0 0 0
4650 1 1.3293422966741635 87.68730383952989 6.514716961838038 0 0 0
4655 1 1.3293422967316963 87.6873038394354 4.026416961805143 0 0 0
10782 1 3.090410629627639 88.93153174734258 5.270566960487449 0 0 0
4657 1 1.3293422885561108 90.17577604888827 6.514716960560215 0 0 0
4658 1 1.3293422884398363 90.17577604890596 4.026416960520874 0 0 0
10716 1 4.851478995529574 87.68730386016499 6.514716960572429 0 0 0
10726 1 4.8514789955491455 87.68730386010172 4.02641696053896 0 0 0
10730 1 4.85147892869088 90.17577608018267 6.514716963370983 0 0 0
10731 1 4.8514789286385716 90.17577608016003 4.026416963311023 0 0 0
10650 1 8.373615603183467 87.68730371115225 6.51471696095717 0 0 0
10660 1 8.373615603172745 87.68730371114725 4.0264169608999545 0 0 0
10728 1 6.612547272600088 88.93153170295015 5.27056696241947 0 0 0
10664 1 8.373615502509658 90.17577600431734 6.514716968047679 0 0 0
10665 1 8.373615502518565 90.17577600428315 4.026416968045066 0 0 0
10584 1 11.895752038609894 87.68730344138795 6.514716960890692 0 0 0
10594 1 11.895752038641058 87.6873034413643 4.02641696089224 0 0 0
10662 1 10.134683793639756 88.9315315380447 5.270566965718234 0 0 0
10598 1 11.89575194012914 90.17577584459153 6.514716972004512 0 0 0
10599 1 11.895751940097005 90.17577584464308 4.026416971984193 0 0 0
10518 1 15.417888283389033 87.68730313465824 6.514716958376824 0 0 0
10528 1 15.417888283418081 87.68730313452707 4.026416958327505 0 0 0
10596 1 13.656820143992293 88.93153129999709 5.2705669682609795 0 0 0
10532 1 15.417888217863887 90.17577565099654 6.514716973854559 0 0 0
10533 1 15.41788821789632 90.17577565099809 4.02641697383231 0 0 0
10452 1 18.940024370289503 87.68730289108673 6.514716955967362 0 0 0
10462 1 18.940024370313107 87.68730289098545 4.026416955926324 0 0 0
10530 1 17.178956324781108 88.93153106710467 5.2705669656923995 0 0 0
10466 1 18.940024363918543 90.17577548702947 6.5147169719049725 0 0 0
10467 1 18.94002436395811 90.17577548708526 4.026416971915164 0 0 0
4659 1 1.329342292445313 92.66426945009879 6.514716964745166 0 0 0
4667 1 1.329342292392901 92.66426945000721 4.0264169647122685 0 0 0
10783 1 3.09041059548455 91.41998533122806 5.270566963239155 0 0 0
10734 1 4.851478870803315 92.66426948512647 6.514716966208884 0 0 0
10750 1 4.851478870787397 92.6642694851081 4.026416966173748 0 0 0
10668 1 8.373615404769705 92.664269459063 6.514716972459176 0 0 0
10684 1 8.373615404775979 92.66426945901296 4.02641697238497 0 0 0
10729 1 6.6125471868846475 91.41998532235196 5.270566967458324 0 0 0
10602 1 11.895751837368957 92.66426937738423 6.514716977798748 0 0 0
10618 1 11.895751837295734 92.66426937735437 4.026416977828725 0 0 0
10663 1 10.134683688010023 91.4199852372649 5.27056697334162 0 0 0
10536 1 15.417888143336922 92.66426926657438 6.514716981066107 0 0 0
10552 1 15.417888143371762 92.66426926659503 4.026416981023128 0 0 0
10597 1 13.656820052098084 91.41998509860245 5.2705669758733125 0 0 0
10470 1 18.940024342020582 92.66426916294468 6.514716979694306 0 0 0
10486 1 18.940024341948515 92.66426916287877 4.026416979635845 0 0 0
10531 1 17.17895627942727 91.41998495204462 5.270566977202427 0 0 0
4669 1 1.3293423013328474 95.1528554152688 6.514716972909276 0 0 0
4670 1 1.3293423013733474 95.1528554153096 4.026416972940464 0 0 0
10794 1 3.0904105738198777 93.90839560755236 5.270566968364265 0 0 0
11029 1 3.090410559997486 96.39660590569878 5.2705669770465615 0 0 0
10753 1 4.851478828431604 95.15285545324521 6.514716974354035 0 0 0
10754 1 4.85147882841604 95.15285545325006 4.02641697424384 0 0 0
10687 1 8.373615322699019 95.15285545763076 6.514716977378611 0 0 0
10688 1 8.373615322656368 95.15285545766507 4.026416977378005 0 0 0
10752 1 6.612547113183465 93.90839562057988 5.270566970955833 0 0 0
10987 1 6.61254705619277 96.39660593400465 5.270566979988886 0 0 0
10621 1 11.895751743311665 95.15285542855723 6.514716982249879 0 0 0
10622 1 11.895751743248704 95.15285542859154 4.026416982297499 0 0 0
10686 1 10.134683588214097 93.90839558830771 5.270566977614326 0 0 0
10945 1 10.134683506110786 96.39660593679059 5.27056698451229 0 0 0
10555 1 15.417888071159547 95.1528553734798 6.5147169842766885 0 0 0
10556 1 15.417888071150774 95.15285537348197 4.026416984254413 0 0 0
10620 1 13.656819960975207 93.9083955199748 5.270566982988043 0 0 0
10903 1 13.656819882538606 96.39660591287203 5.2705669859727955 0 0 0
10489 1 18.94002431763825 95.15285531155607 6.514716982008494 0 0 0
10490 1 18.940024317646472 95.15285531166454 4.026416981983032 0 0 0
10554 1 17.17895622732699 93.90839543613974 5.27056698250451 0 0 0
10861 1 17.178956180259647 96.39660587059339 5.270566983954346 0 0 0
4987 1 1.329342310015103 97.64188672788511 -5.926783021277998 0 0 0
4989 1 1.3293423123853094 100.13213275384939 -5.926783015272946 0 0 0
11031 1 3.0904105450436448 98.88365576814846 -7.1709330181085855 0 0 1
11047 1 3.0904105450376624 98.88365576813071 -4.682633018159093 0 0 0
11017 1 4.8514787942319115 97.64188676648737 -5.926783019113372 0 0 0
11021 1 4.851478766272501 100.13213278960728 -5.926783014884022 0 0 0
10975 1 8.37361525877723 97.64188679212978 -5.9267830148712894 0 0 0
10979 1 8.373615210809657 100.13213282754988 -5.9267830146765785 0 0 0
10989 1 6.612547010439276 98.88365580471614 -7.170933014579108 0 0 1
11018 1 6.612547010400525 98.88365580472686 -4.6826330145610315 0 0 0
10933 1 11.895751669700399 97.64188679541226 -5.926783012104437 0 0 0
10937 1 11.895751617061046 100.13213285152008 -5.926783014857145 0 0 0
10947 1 10.13468344413815 98.88365582918448 -7.170933013881998 0 0 1
10976 1 10.134683444130143 98.88365582915473 -4.682633013890462 0 0 0
10891 1 15.417888012789188 97.64188677712131 -5.926783014020194 0 0 0
10895 1 15.417887975031372 100.13213285524498 -5.926783014790254 0 0 0
10905 1 13.656819822846746 98.88365583486154 -7.17093301371618 0 0 1
10934 1 13.656819822857843 98.88365583483487 -4.6826330137686325 0 0 0
10849 1 18.94002429731725 97.6418867426968 -5.926783016134774 0 0 0
10853 1 18.940024286761503 100.13213283626835 -5.926783014701587 0 0 0
10863 1 17.178956146072206 98.88365581768048 -7.170933013635466 0 0 1
10892 1 17.17895614601484 98.88365581771826 -4.682633013665422 0 0 0
4992 1 1.329342305441409 102.62518004492225 -5.926783014001745 0 0 0
11037 1 3.0904105312206407 101.36561308136831 -7.170933012263944 0 0 1
11038 1 3.0904105095937444 103.84911084480001 -7.17093301238271 0 0 1
11048 1 3.090410531223539 101.36561308139 -4.682633012280001 0 0 0
11052 1 3.090410509632345 103.84911084477899 -4.682633012391421 0 0 0
11027 1 4.851478740593153 102.62518008126722 -5.926783010647189 0 0 0
10985 1 8.373615174727599 102.62518012396818 -5.926783011112932 0 0 0
11000 1 6.612546975443289 101.36561312073498 -7.170933011912342 0 0 1
11001 1 6.612546943642403 103.84911088512999 -7.170933012116562 0 0 1
11019 1 6.612546975426039 101.36561312077411 -4.682633011932224 0 0 0
11028 1 6.612546943674961 103.84911088516773 -4.682633012045958 0 0 0
10943 1 11.895751584313622 102.62518015856163 -5.9267830124103 0 0 0
10958 1 10.134683400688568 101.36561315951198 -7.1709330141687735 0 0 1
10959 1 10.13468337005157 103.8491109329611 -7.170933010527789 0 0 1
10977 1 10.134683400646114 101.36561315952878 -4.6826330142103565 0 0 0
10986 1 10.134683370035074 103.84911093299058 -4.682633010551032 0 0 0
10901 1 15.417887956363982 102.62518017534222 -5.926783011941974 0 0 0
10916 1 13.6568197868085 101.3656131826799 -7.17093301475064 0 0 1
10917 1 13.656819767519837 103.84911097297122 -7.170933009796744 0 0 1
10935 1 13.656819786824894 101.36561318261576 -4.682633014795893 0 0 0
10944 1 13.656819767477277 103.84911097300507 -4.682633009859087 0 0 0
10859 1 18.94002428914486 102.62518016721883 -5.9267830118513425 0 0 0
10874 1 17.1789561299867 101.36561318430009 -7.170933014603288 0 0 1
10875 1 17.178956127962156 103.84911099136919 -7.170933010751532 0 0 1
10893 1 17.178956129916106 101.36561318425787 -4.682633014673321 0 0 0
10902 1 17.178956127989387 103.84911099140164 -4.682633010730057 0 0 0
4981 1 1.3293423099550854 97.64188672791133 -0.9501830212665903 0 0 0
4982 1 1.329342310055299 97.64188672787924 -3.4384830212766277 0 0 0
4984 1 1.3293423123843457 100.13213275387243 -0.9501830152727903 0 0 0
4988 1 1.329342312376333 100.13213275386694 -3.438483015270512 0 0 0
11041 1 3.090410545081394 98.88365576815514 -2.194333018173702 0 0 0
11006 1 4.851478794199318 97.64188676645148 -0.9501830191400604 0 0 0
11007 1 4.851478794282529 97.64188676646913 -3.438483019114975 0 0 0
11011 1 4.851478766291726 100.13213278960221 -0.9501830148758977 0 0 0
11020 1 4.851478766277245 100.13213278963632 -3.4384830148461716 0 0 0
10964 1 8.373615258754093 97.64188679216412 -0.9501830149030543 0 0 0
10965 1 8.373615258780584 97.64188679214419 -3.438483014879325 0 0 0
10969 1 8.373615210775533 100.13213282750203 -0.9501830146672741 0 0 0
10978 1 8.373615210828643 100.13213282756232 -3.438483014622976 0 0 0
11005 1 6.612547010410852 98.88365580474809 -2.1943330146477487 0 0 0
10922 1 11.895751669746836 97.64188679541368 -0.9501830120984861 0 0 0
10923 1 11.895751669703674 97.64188679540493 -3.438483012101131 0 0 0
10927 1 11.895751617011117 100.13213285153073 -0.9501830148648989 0 0 0
10936 1 11.895751617047125 100.13213285155375 -3.438483014857819 0 0 0
10963 1 10.134683444141688 98.88365582920744 -2.1943330139351858 0 0 0
10880 1 15.417888012809842 97.64188677711996 -0.9501830140511887 0 0 0
10881 1 15.417888012749952 97.64188677716963 -3.4384830139976277 0 0 0
10885 1 15.417887975102294 100.13213285519856 -0.9501830147823784 0 0 0
10894 1 15.417887975098179 100.13213285520335 -3.4384830147579892 0 0 0
10921 1 13.656819822814164 98.88365583487764 -2.194333013798558 0 0 0
10838 1 18.940024297298788 97.64188674273966 -0.9501830160916908 0 0 0
10839 1 18.940024297299974 97.64188674266231 -3.438483016100525 0 0 0
10843 1 18.94002428676725 100.13213283626455 -0.950183014716005 0 0 0
10852 1 18.940024286729702 100.13213283625177 -3.43848301466952 0 0 0
10879 1 17.178956146057683 98.88365581774366 -2.1943330137441266 0 0 0
4990 1 1.329342305414002 102.62518004493921 -0.9501830139849059 0 0 0
4991 1 1.329342305402231 102.62518004494193 -3.438483013921085 0 0 0
11049 1 3.0904105312402064 101.36561308140287 -2.194333012277805 0 0 0
11050 1 3.090410509636769 103.84911084481197 -2.1943330124097957 0 0 0
11024 1 4.851478740574316 102.6251800813266 -0.9501830106189205 0 0 0
11025 1 4.851478740566993 102.62518008131084 -3.438483010583497 0 0 0
10982 1 8.373615174646998 102.62518012397308 -0.9501830111150665 0 0 0
10983 1 8.373615174633754 102.62518012392778 -3.438483011086558 0 0 0
11022 1 6.612546975473214 101.36561312075884 -2.194333011915064 0 0 0
11023 1 6.612546943643872 103.8491108851484 -2.194333012123511 0 0 0
10940 1 11.895751584298083 102.62518015854995 -0.9501830123556386 0 0 0
10941 1 11.895751584323467 102.62518015856945 -3.438483012329309 0 0 0
10980 1 10.134683400688148 101.3656131596072 -2.1943330141792337 0 0 0
10981 1 10.134683370043328 103.84911093293604 -2.1943330105713184 0 0 0
10898 1 15.417887956382227 102.62518017533225 -0.9501830118979677 0 0 0
10899 1 15.417887956384051 102.62518017532663 -3.4384830118872487 0 0 0
10938 1 13.656819786768608 101.36561318261542 -2.1943330147767663 0 0 0
10939 1 13.656819767482414 103.84911097293894 -2.194333009859412 0 0 0
10856 1 18.94002428924467 102.62518016723061 -0.9501830118626713 0 0 0
10857 1 18.940024289218 102.62518016724302 -3.4384830118445566 0 0 0
10896 1 17.178956129965616 101.3656131842854 -2.194333014671222 0 0 0
10897 1 17.178956128003527 103.84911099136994 -2.1943330107334256 0 0 0
4977 1 1.3293423100079447 97.64188672791252 1.5381169787388052 0 0 0
4983 1 1.3293423123736818 100.13213275386506 1.5381169847508476 0 0 0
11034 1 3.0904105450343184 98.88365576813028 2.782266981827193 0 0 0
11042 1 3.090410545052177 98.88365576814914 0.29396698189007714 0 0 0
10995 1 4.851478794251863 97.64188676649484 1.538116980861925 0 0 0
11010 1 4.851478766279294 100.1321327896151 1.5381169851470302 0 0 0
10953 1 8.373615258778424 97.6418867921021 1.5381169851291594 0 0 0
10968 1 8.373615210807671 100.13213282755413 1.5381169853077628 0 0 0
10993 1 6.612547010416365 98.88365580472359 2.782266985432717 0 0 0
11008 1 6.612547010462193 98.88365580472718 0.2939669854092235 0 0 0
10911 1 11.895751669676269 97.64188679540717 1.5381169879007421 0 0 0
10926 1 11.895751617062515 100.13213285152561 1.5381169851433836 0 0 0
10951 1 10.13468344412582 98.88365582915254 2.7822669861208507 0 0 0
10966 1 10.134683444139506 98.88365582918459 0.29396698610778027 0 0 0
10869 1 15.417888012801011 97.64188677714408 1.538116985992033 0 0 0
10884 1 15.417887975027282 100.13213285523183 1.538116985232169 0 0 0
10909 1 13.65681982282232 98.88365583481794 2.782266986225979 0 0 0
10924 1 13.656819822849982 98.88365583485957 0.293966986300689 0 0 0
10827 1 18.94002429729707 97.64188674272756 1.5381169838811475 0 0 0
10842 1 18.94002428674726 100.13213283626625 1.5381169852988965 0 0 0
10867 1 17.178956146031446 98.88365581771089 2.7822669863549057 0 0 0
10882 1 17.17895614606203 98.88365581769449 0.29396698642268076 0 0 0
4986 1 1.3293423054471858 102.62518004493536 1.5381169860177368 0 0 0
11043 1 3.0904105312251 101.3656130813786 0.2939669877409299 0 0 0
11044 1 3.090410531215309 101.36561308140178 2.78226698771372 0 0 0
11045 1 3.090410509647042 103.84911084479545 2.7822669875792125 0 0 0
11051 1 3.090410509608821 103.84911084482273 0.2939669876220781 0 0 0
11015 1 4.851478740590778 102.62518008126563 1.5381169893553739 0 0 0
10973 1 8.373615174720339 102.62518012396242 1.5381169888835773 0 0 0
11009 1 6.612546975430443 101.36561312073638 0.2939669881091971 0 0 0
11012 1 6.6125469754237765 101.36561312077856 2.782266988035477 0 0 0
11013 1 6.612546943668005 103.84911088514805 2.7822669879585136 0 0 0
11026 1 6.612546943640965 103.8491108851556 0.2939669879232277 0 0 0
10931 1 11.895751584304676 102.62518015856573 1.5381169876226322 0 0 0
10967 1 10.134683400691856 101.36561315951329 0.29396698585794284 0 0 0
10970 1 10.134683400662242 101.36561315950378 2.7822669857794415 0 0 0
10971 1 10.134683370031226 103.84911093296773 2.7822669894144134 0 0 0
10984 1 10.134683370033896 103.84911093296157 0.29396698949220945 0 0 0
10889 1 15.417887956363145 102.6251801753418 1.5381169880336203 0 0 0
10925 1 13.656819786813438 101.36561318266943 0.29396698525699533 0 0 0
10928 1 13.656819786810098 101.36561318262599 2.7822669852054376 0 0 0
10929 1 13.656819767493571 103.84911097301891 2.782266990116628 0 0 0
10942 1 13.656819767501414 103.84911097295051 0.293966990223075 0 0 0
10847 1 18.94002428914481 102.62518016721836 1.5381169881475598 0 0 0
10883 1 17.17895612996855 101.36561318428491 0.2939669853641401 0 0 0
10886 1 17.17895612990772 101.365613184267 2.7822669853412147 0 0 0
10887 1 17.17895612799121 103.84911099139376 2.7822669892326255 0 0 0
10900 1 17.178956128001943 103.84911099136 0.293966989281984 0 0 0
4975 1 1.3293423099705899 97.64188672790057 6.514716978692708 0 0 0
4976 1 1.329342310046857 97.64188672786462 4.026416978718344 0 0 0
4978 1 1.3293423123558372 100.13213275386366 6.514716984708058 0 0 0
4979 1 1.3293423123606403 100.13213275388195 4.026416984723811 0 0 0
11035 1 3.090410545073055 98.88365576814645 5.270566981816547 0 0 0
10990 1 4.851478794200529 97.64188676644369 6.514716980875044 0 0 0
10994 1 4.851478794275633 97.64188676647426 4.026416980863722 0 0 0
10998 1 4.851478766298775 100.1321327896122 6.514716985082537 0 0 0
10999 1 4.851478766282239 100.13213278962384 4.026416985135573 0 0 0
10948 1 8.373615258731697 97.64188679215876 6.514716985109519 0 0 0
10952 1 8.3736152587724 97.64188679216073 4.026416985117745 0 0 0
10956 1 8.373615210742503 100.13213282752062 6.514716985336361 0 0 0
10957 1 8.373615210816931 100.13213282757113 4.026416985373892 0 0 0
10996 1 6.612547010407385 98.8836558047342 5.270566985353842 0 0 0
10906 1 11.895751669733707 97.64188679539816 6.51471698789849 0 0 0
10910 1 11.895751669685199 97.64188679539924 4.026416987898724 0 0 0
10914 1 11.89575161699402 100.13213285152277 6.514716985139455 0 0 0
10915 1 11.895751617049823 100.1321328515406 4.026416985171082 0 0 0
10954 1 10.134683444109777 98.88365582919361 5.27056698607637 0 0 0
10864 1 15.417888012788298 97.6418867771398 6.5147169859570955 0 0 0
10868 1 15.417888012733387 97.64188677718175 4.026416985993658 0 0 0
10872 1 15.417887975129963 100.13213285520989 6.514716985178419 0 0 0
10873 1 15.4178879750755 100.13213285523551 4.0264169852481855 0 0 0
10912 1 13.656819822806002 98.8836558348862 5.270566986194877 0 0 0
10822 1 18.940024297299573 97.64188674276149 6.514716983909666 0 0 0
10826 1 18.940024297308845 97.6418867426282 4.026416983892044 0 0 0
10830 1 18.94002428678013 100.13213283624964 6.514716985289334 0 0 0
10831 1 18.94002428673971 100.13213283626845 4.026416985342536 0 0 0
10870 1 17.178956146063854 98.88365581775595 5.2705669862442655 0 0 0
4980 1 1.3293423054191134 102.62518004492905 6.51471698602377 0 0 0
4985 1 1.3293423053985776 102.62518004494424 4.026416986077791 0 0 0
11036 1 3.090410531245333 101.36561308139946 5.2705669877218515 0 0 0
11046 1 3.0904105096432364 103.84911084481686 5.2705669876079435 0 0 0
11002 1 4.851478740574764 102.62518008131447 6.514716989386934 0 0 0
11014 1 4.851478740558565 102.6251800812987 4.0264169894028585 0 0 0
10960 1 8.373615174677582 102.62518012397996 6.5147169888674235 0 0 0
10972 1 8.373615174674143 102.62518012392151 4.026416988893128 0 0 0
10997 1 6.612546975484854 101.36561312075854 5.270566988068378 0 0 0
11016 1 6.612546943645133 103.8491108851105 5.270566987882341 0 0 0
10918 1 11.895751584303003 102.6251801585548 6.51471698760167 0 0 0
10930 1 11.895751584336432 102.62518015855375 4.0264169876676155 0 0 0
10955 1 10.1346834006905 101.36561315956848 5.270566985815589 0 0 0
10974 1 10.13468337005675 103.84911093292871 5.270566989425638 0 0 0
10876 1 15.417887956386766 102.62518017533885 6.514716988111959 0 0 0
10888 1 15.41788795638925 102.6251801753119 4.026416988101553 0 0 0
10913 1 13.656819786767594 101.36561318262326 5.270566985235615 0 0 0
10932 1 13.656819767509036 103.8491109729635 5.2705669901505035 0 0 0
10834 1 18.94002428924612 102.62518016723533 6.514716988130676 0 0 0
10846 1 18.940024289214595 102.62518016721225 4.026416988167555 0 0 0
10871 1 17.178956129975138 101.36561318429706 5.270566985329755 0 0 0
10890 1 17.17895612798057 103.8491109913693 5.270566989254858 0 0 0

Velocities

174 0 0 0
176 0 0 0
177 0 0 0
123 0 0 0
124 0 0 0
125 0 0 0
129 0 0 0
139 0 0 0
175 0 0 0
69 0 0 0
83 0 0 0
140 0 0 0
33 0 0 0
34 0 0 0
84 0 0 0
85 0 0 0
86 0 0 0
87 0 0 0
32 0 0 0
38 0 0 0
46 0 0 0
7 0 0 0
10 0 0 0
11 0 0 0
12 0 0 0
47 0 0 0
5390 0 0 0
181 0 0 0
187 0 0 0
200 0 0 0
204 0 0 0
188 0 0 0
189 0 0 0
190 0 0 0
191 0 0 0
141 0 0 0
142 0 0 0
143 0 0 0
147 0 0 0
149 0 0 0
91 0 0 0
97 0 0 0
100 0 0 0
101 0 0 0
150 0 0 0
49 0 0 0
50 0 0 0
98 0 0 0
99 0 0 0
48 0 0 0
53 0 0 0
54 0 0 0
5412 0 0 0
160 0 0 0
161 0 0 0
164 0 0 0
109 0 0 0
111 0 0 0
126 0 0 0
128 0 0 0
162 0 0 0
178 0 0 0
68 0 0 0
127 0 0 0
130 0 0 0
21 0 0 0
67 0 0 0
70 0 0 0
71 0 0 0
73 0 0 0
88 0 0 0
19 0 0 0
35 0 0 0
37 0 0 0
6 0 0 0
9 0 0 0
36 0 0 0
39 0 0 0
5378 0 0 0
5379 0 0 0
180 0 0 0
196 0 0 0
201 0 0 0
202 0 0 0
203 0 0 0
179 0 0 0
182 0 0 0
183 0 0 0
185 0 0 0
192 0 0 0
131 0 0 0
133 0 0 0
144 0 0 0
146 0 0 0
90 0 0 0
95 0 0 0
145 0 0 0
148 0 0 0
42 0 0 0
89 0 0 0
92 0 0 0
93 0 0 0
102 0 0 0
40 0 0 0
51 0 0 0
52 0 0 0
5410 0 0 0
5411 0 0 0
152 0 0 0
156 0 0 0
163 0 0 0
105 0 0 0
110 0 0 0
112 0 0 0
114 0 0 0
115 0 0 0
165 0 0 0
58 0 0 0
59 0 0 0
113 0 0 0
15 0 0 0
20 0 0 0
57 0 0 0
63 0 0 0
72 0 0 0
74 0 0 0
22 0 0 0
24 0 0 0
25 0 0 0
2 0 0 0
3 0 0 0
5 0 0 0
8 0 0 0
23 0 0 0
5372 0 0 0
167 0 0 0
168 0 0 0
197 0 0 0
198 0 0 0
166 0 0 0
172 0 0 0
184 0 0 0
186 0 0 0
119 0 0 0
132 0 0 0
134 0 0 0
136 0 0 0
137 0 0 0
76 0 0 0
77 0 0 0
81 0 0 0
94 0 0 0
135 0 0 0
29 0 0 0
41 0 0 0
75 0 0 0
96 0 0 0
43 0 0 0
44 0 0 0
45 0 0 0
5408 0 0 0
151 0 0 0
153 0 0 0
155 0 0 0
103 0 0 0
104 0 0 0
106 0 0 0
108 0 0 0
154 0 0 0
157 0 0 0
56 0 0 0
107 0 0 0
116 0 0 0
14 0 0 0
55 0 0 0
60 0 0 0
61 0 0 0
62 0 0 0
64 0 0 0
13 0 0 0
16 0 0 0
18 0 0 0
1 0 0 0
4 0 0 0
17 0 0 0
26 0 0 0
5371 0 0 0
5373 0 0 0
159 0 0 0
193 0 0 0
194 0 0 0
195 0 0 0
199 0 0 0
158 0 0 0
169 0 0 0
170 0 0 0
171 0 0 0
173 0 0 0
117 0 0 0
118 0 0 0
120 0 0 0
122 0 0 0
66 0 0 0
80 0 0 0
121 0 0 0
138 0 0 0
28 0 0 0
65 0 0 0
78 0 0 0
79 0 0 0
82 0 0 0
27 0 0 0
30 0 0 0
31 0 0 0
5407 0 0 0
5409 0 0 0
424 0 0 0
425 0 0 0
429 0 0 0
445 0 0 0
500 0 0 0
333 0 0 0
349 0 0 0
423 0 0 0
446 0 0 0
350 0 0 0
351 0 0 0
352 0 0 0
353 0 0 0
267 0 0 0
268 0 0 0
269 0 0 0
273 0 0 0
288 0 0 0
224 0 0 0
234 0 0 0
237 0 0 0
238 0 0 0
289 0 0 0
209 0 0 0
210 0 0 0
235 0 0 0
236 0 0 0
518 0 0 0
447 0 0 0
448 0 0 0
449 0 0 0
357 0 0 0
373 0 0 0
291 0 0 0
292 0 0 0
374 0 0 0
290 0 0 0
241 0 0 0
244 0 0 0
5764 0 0 0
520 0 0 0
521 0 0 0
525 0 0 0
535 0 0 0
558 0 0 0
453 0 0 0
467 0 0 0
519 0 0 0
536 0 0 0
468 0 0 0
469 0 0 0
470 0 0 0
471 0 0 0
375 0 0 0
376 0 0 0
377 0 0 0
381 0 0 0
391 0 0 0
296 0 0 0
306 0 0 0
309 0 0 0
310 0 0 0
392 0 0 0
245 0 0 0
246 0 0 0
307 0 0 0
308 0 0 0
566 0 0 0
568 0 0 0
569 0 0 0
537 0 0 0
538 0 0 0
539 0 0 0
543 0 0 0
545 0 0 0
567 0 0 0
475 0 0 0
481 0 0 0
546 0 0 0
394 0 0 0
395 0 0 0
482 0 0 0
483 0 0 0
484 0 0 0
485 0 0 0
393 0 0 0
399 0 0 0
401 0 0 0
313 0 0 0
316 0 0 0
317 0 0 0
318 0 0 0
402 0 0 0
5800 0 0 0
411 0 0 0
428 0 0 0
490 0 0 0
501 0 0 0
332 0 0 0
409 0 0 0
426 0 0 0
427 0 0 0
430 0 0 0
331 0 0 0
334 0 0 0
335 0 0 0
337 0 0 0
354 0 0 0
253 0 0 0
255 0 0 0
270 0 0 0
272 0 0 0
223 0 0 0
228 0 0 0
271 0 0 0
274 0 0 0
208 0 0 0
222 0 0 0
225 0 0 0
226 0 0 0
239 0 0 0
502 0 0 0
503 0 0 0
431 0 0 0
433 0 0 0
450 0 0 0
356 0 0 0
277 0 0 0
355 0 0 0
358 0 0 0
275 0 0 0
293 0 0 0
240 0 0 0
5750 0 0 0
5751 0 0 0
506 0 0 0
524 0 0 0
550 0 0 0
559 0 0 0
452 0 0 0
504 0 0 0
522 0 0 0
523 0 0 0
526 0 0 0
451 0 0 0
454 0 0 0
455 0 0 0
457 0 0 0
472 0 0 0
359 0 0 0
361 0 0 0
378 0 0 0
380 0 0 0
295 0 0 0
300 0 0 0
379 0 0 0
382 0 0 0
243 0 0 0
294 0 0 0
297 0 0 0
298 0 0 0
311 0 0 0
560 0 0 0
561 0 0 0
564 0 0 0
527 0 0 0
529 0 0 0
540 0 0 0
542 0 0 0
562 0 0 0
570 0 0 0
474 0 0 0
541 0 0 0
544 0 0 0
385 0 0 0
473 0 0 0
476 0 0 0
477 0 0 0
479 0 0 0
486 0 0 0
383 0 0 0
396 0 0 0
398 0 0 0
312 0 0 0
315 0 0 0
397 0 0 0
400 0 0 0
5796 0 0 0
5797 0 0 0
405 0 0 0
410 0 0 0
414 0 0 0
415 0 0 0
491 0 0 0
322 0 0 0
323 0 0 0
412 0 0 0
413 0 0 0
321 0 0 0
327 0 0 0
336 0 0 0
338 0 0 0
249 0 0 0
254 0 0 0
256 0 0 0
258 0 0 0
259 0 0 0
214 0 0 0
215 0 0 0
219 0 0 0
227 0 0 0
257 0 0 0
206 0 0 0
207 0 0 0
213 0 0 0
229 0 0 0
492 0 0 0
419 0 0 0
432 0 0 0
434 0 0 0
340 0 0 0
341 0 0 0
263 0 0 0
276 0 0 0
339 0 0 0
278 0 0 0
230 0 0 0
231 0 0 0
5744 0 0 0
496 0 0 0
505 0 0 0
509 0 0 0
510 0 0 0
551 0 0 0
436 0 0 0
437 0 0 0
507 0 0 0
508 0 0 0
435 0 0 0
441 0 0 0
456 0 0 0
458 0 0 0
345 0 0 0
360 0 0 0
362 0 0 0
364 0 0 0
365 0 0 0
280 0 0 0
281 0 0 0
285 0 0 0
299 0 0 0
363 0 0 0
233 0 0 0
242 0 0 0
279 0 0 0
301 0 0 0
552 0 0 0
556 0 0 0
563 0 0 0
514 0 0 0
528 0 0 0
530 0 0 0
532 0 0 0
533 0 0 0
565 0 0 0
460 0 0 0
461 0 0 0
531 0 0 0
369 0 0 0
384 0 0 0
459 0 0 0
465 0 0 0
478 0 0 0
480 0 0 0
386 0 0 0
388 0 0 0
389 0 0 0
302 0 0 0
303 0 0 0
305 0 0 0
314 0 0 0
387 0 0 0
5792 0 0 0
404 0 0 0
408 0 0 0
487 0 0 0
488 0 0 0
320 0 0 0
403 0 0 0
406 0 0 0
407 0 0 0
416 0 0 0
319 0 0 0
324 0 0 0
325 0 0 0
326 0 0 0
328 0 0 0
247 0 0 0
248 0 0 0
250 0 0 0
252 0 0 0
212 0 0 0
218 0 0 0
251 0 0 0
260 0 0 0
205 0 0 0
211 0 0 0
216 0 0 0
217 0 0 0
220 0 0 0
489 0 0 0
493 0 0 0
417 0 0 0
418 0 0 0
420 0 0 0
330 0 0 0
262 0 0 0
329 0 0 0
342 0 0 0
261 0 0 0
264 0 0 0
221 0 0 0
5743 0 0 0
5745 0 0 0
495 0 0 0
499 0 0 0
547 0 0 0
548 0 0 0
422 0 0 0
494 0 0 0
497 0 0 0
498 0 0 0
511 0 0 0
421 0 0 0
438 0 0 0
439 0 0 0
440 0 0 0
442 0 0 0
343 0 0 0
344 0 0 0
346 0 0 0
348 0 0 0
266 0 0 0
284 0 0 0
347 0 0 0
366 0 0 0
232 0 0 0
265 0 0 0
282 0 0 0
283 0 0 0
286 0 0 0
549 0 0 0
553 0 0 0
555 0 0 0
512 0 0 0
513 0 0 0
515 0 0 0
517 0 0 0
554 0 0 0
557 0 0 0
444 0 0 0
516 0 0 0
534 0 0 0
368 0 0 0
443 0 0 0
462 0 0 0
463 0 0 0
464 0 0 0
466 0 0 0
367 0 0 0
370 0 0 0
372 0 0 0
287 0 0 0
304 0 0 0
371 0 0 0
390 0 0 0
5791 0 0 0
5793 0 0 0
753 0 0 0
769 0 0 0
836 0 0 0
770 0 0 0
675 0 0 0
676 0 0 0
677 0 0 0
609 0 0 0
624 0 0 0
585 0 0 0
586 0 0 0
625 0 0 0
584 0 0 0
854 0 0 0
856 0 0 0
857 0 0 0
771 0 0 0
772 0 0 0
773 0 0 0
777 0 0 0
793 0 0 0
855 0 0 0
681 0 0 0
697 0 0 0
794 0 0 0
627 0 0 0
628 0 0 0
698 0 0 0
699 0 0 0
700 0 0 0
701 0 0 0
626 0 0 0
632 0 0 0
642 0 0 0
589 0 0 0
592 0 0 0
593 0 0 0
594 0 0 0
643 0 0 0
6130 0 0 0
861 0 0 0
875 0 0 0
908 0 0 0
920 0 0 0
876 0 0 0
877 0 0 0
878 0 0 0
879 0 0 0
795 0 0 0
796 0 0 0
797 0 0 0
801 0 0 0
811 0 0 0
705 0 0 0
719 0 0 0
722 0 0 0
723 0 0 0
812 0 0 0
645 0 0 0
646 0 0 0
720 0 0 0
721 0 0 0
644 0 0 0
649 0 0 0
652 0 0 0
6184 0 0 0
922 0 0 0
923 0 0 0
883 0 0 0
889 0 0 0
921 0 0 0
890 0 0 0
813 0 0 0
814 0 0 0
815 0 0 0
727 0 0 0
733 0 0 0
653 0 0 0
654 0 0 0
734 0 0 0
752 0 0 0
826 0 0 0
837 0 0 0
751 0 0 0
754 0 0 0
661 0 0 0
663 0 0 0
678 0 0 0
608 0 0 0
578 0 0 0
607 0 0 0
610 0 0 0
576 0 0 0
587 0 0 0
838 0 0 0
839 0 0 0
842 0 0 0
755 0 0 0
757 0 0 0
774 0 0 0
776 0 0 0
840 0 0 0
858 0 0 0
680 0 0 0
775 0 0 0
778 0 0 0
613 0 0 0
679 0 0 0
682 0 0 0
683 0 0 0
685 0 0 0
702 0 0 0
611 0 0 0
629 0 0 0
631 0 0 0
588 0 0 0
591 0 0 0
630 0 0 0
633 0 0 0
6116 0 0 0
6117 0 0 0
860 0 0 0
898 0 0 0
909 0 0 0
910 0 0 0
911 0 0 0
859 0 0 0
862 0 0 0
863 0 0 0
865 0 0 0
880 0 0 0
779 0 0 0
781 0 0 0
798 0 0 0
800 0 0 0
704 0 0 0
709 0 0 0
799 0 0 0
802 0 0 0
636 0 0 0
703 0 0 0
706 0 0 0
707 0 0 0
724 0 0 0
634 0 0 0
647 0 0 0
648 0 0 0
6176 0 0 0
6177 0 0 0
914 0 0 0
882 0 0 0
912 0 0 0
924 0 0 0
881 0 0 0
884 0 0 0
803 0 0 0
805 0 0 0
816 0 0 0
726 0 0 0
651 0 0 0
725 0 0 0
728 0 0 0
742 0 0 0
743 0 0 0
827 0 0 0
741 0 0 0
657 0 0 0
662 0 0 0
664 0 0 0
598 0 0 0
599 0 0 0
573 0 0 0
577 0 0 0
597 0 0 0
579 0 0 0
828 0 0 0
832 0 0 0
841 0 0 0
747 0 0 0
756 0 0 0
758 0 0 0
760 0 0 0
761 0 0 0
843 0 0 0
666 0 0 0
667 0 0 0
759 0 0 0
603 0 0 0
612 0 0 0
665 0 0 0
671 0 0 0
684 0 0 0
686 0 0 0
614 0 0 0
616 0 0 0
617 0 0 0
580 0 0 0
581 0 0 0
583 0 0 0
590 0 0 0
615 0 0 0
6110 0 0 0
845 0 0 0
846 0 0 0
899 0 0 0
900 0 0 0
844 0 0 0
850 0 0 0
864 0 0 0
866 0 0 0
765 0 0 0
780 0 0 0
782 0 0 0
784 0 0 0
785 0 0 0
688 0 0 0
689 0 0 0
693 0 0 0
708 0 0 0
783 0 0 0
621 0 0 0
635 0 0 0
687 0 0 0
710 0 0 0
637 0 0 0
638 0 0 0
639 0 0 0
6170 0 0 0
904 0 0 0
913 0 0 0
868 0 0 0
869 0 0 0
915 0 0 0
867 0 0 0
789 0 0 0
804 0 0 0
806 0 0 0
712 0 0 0
713 0 0 0
641 0 0 0
650 0 0 0
711 0 0 0
740 0 0 0
823 0 0 0
824 0 0 0
739 0 0 0
744 0 0 0
655 0 0 0
656 0 0 0
658 0 0 0
596 0 0 0
572 0 0 0
595 0 0 0
600 0 0 0
571 0 0 0
574 0 0 0
825 0 0 0
829 0 0 0
831 0 0 0
745 0 0 0
746 0 0 0
748 0 0 0
750 0 0 0
830 0 0 0
833 0 0 0
660 0 0 0
749 0 0 0
762 0 0 0
602 0 0 0
659 0 0 0
668 0 0 0
669 0 0 0
670 0 0 0
672 0 0 0
601 0 0 0
604 0 0 0
606 0 0 0
575 0 0 0
582 0 0 0
605 0 0 0
618 0 0 0
6109 0 0 0
6111 0 0 0
835 0 0 0
895 0 0 0
896 0 0 0
897 0 0 0
901 0 0 0
834 0 0 0
847 0 0 0
848 0 0 0
849 0 0 0
851 0 0 0
763 0 0 0
764 0 0 0
766 0 0 0
768 0 0 0
674 0 0 0
692 0 0 0
767 0 0 0
786 0 0 0
620 0 0 0
673 0 0 0
690 0 0 0
691 0 0 0
694 0 0 0
619 0 0 0
622 0 0 0
623 0 0 0
6169 0 0 0
6171 0 0 0
903 0 0 0
853 0 0 0
902 0 0 0
905 0 0 0
852 0 0 0
870 0 0 0
787 0 0 0
788 0 0 0
790 0 0 0
696 0 0 0
640 0 0 0
695 0 0 0
714 0 0 0
927 0 0 0
929 0 0 0
935 0 0 0
1191 0 0 0
930 0 0 0
1102 0 0 0
1103 0 0 0
1104 0 0 0
891 0 0 0
892 0 0 0
893 0 0 0
1015 0 0 0
1031 0 0 0
819 0 0 0
821 0 0 0
973 0 0 0
974 0 0 0
1032 0 0 0
736 0 0 0
737 0 0 0
822 0 0 0
972 0 0 0
735 0 0 0
946 0 0 0
949 0 0 0
950 0 0 0
1193 0 0 0
1194 0 0 0
1198 0 0 0
1214 0 0 0
1257 0 0 0
1108 0 0 0
1124 0 0 0
1192 0 0 0
1215 0 0 0
1125 0 0 0
1126 0 0 0
1127 0 0 0
1128 0 0 0
1033 0 0 0
1034 0 0 0
1035 0 0 0
1039 0 0 0
1055 0 0 0
978 0 0 0
988 0 0 0
991 0 0 0
992 0 0 0
1056 0 0 0
951 0 0 0
952 0 0 0
989 0 0 0
990 0 0 0
1273 0 0 0
1275 0 0 0
1276 0 0 0
1216 0 0 0
1217 0 0 0
1218 0 0 0
1222 0 0 0
1232 0 0 0
1274 0 0 0
1132 0 0 0
1146 0 0 0
1233 0 0 0
1058 0 0 0
1059 0 0 0
1147 0 0 0
1148 0 0 0
1149 0 0 0
1150 0 0 0
1057 0 0 0
1063 0 0 0
1072 0 0 0
995 0 0 0
998 0 0 0
999 0 0 0
1000 0 0 0
1073 0 0 0
6562 0 0 0
1280 0 0 0
1286 0 0 0
1299 0 0 0
1287 0 0 0
1234 0 0 0
1235 0 0 0
1236 0 0 0
1154 0 0 0
1160 0 0 0
1075 0 0 0
1076 0 0 0
1161 0 0 0
1074 0 0 0
926 0 0 0
933 0 0 0
936 0 0 0
1175 0 0 0
1176 0 0 0
925 0 0 0
928 0 0 0
1088 0 0 0
1090 0 0 0
1105 0 0 0
885 0 0 0
887 0 0 0
894 0 0 0
1014 0 0 0
818 0 0 0
961 0 0 0
1013 0 0 0
1016 0 0 0
731 0 0 0
817 0 0 0
820 0 0 0
959 0 0 0
975 0 0 0
729 0 0 0
738 0 0 0
944 0 0 0
945 0 0 0
6480 0 0 0
1179 0 0 0
1197 0 0 0
1247 0 0 0
1258 0 0 0
1107 0 0 0
1177 0 0 0
1195 0 0 0
1196 0 0 0
1199 0 0 0
1106 0 0 0
1109 0 0 0
1110 0 0 0
1112 0 0 0
1129 0 0 0
1017 0 0 0
1019 0 0 0
1036 0 0 0
1038 0 0 0
977 0 0 0
982 0 0 0
1037 0 0 0
1040 0 0 0
948 0 0 0
976 0 0 0
979 0 0 0
980 0 0 0
993 0 0 0
1259 0 0 0
1260 0 0 0
1263 0 0 0
1200 0 0 0
1202 0 0 0
1219 0 0 0
1221 0 0 0
1261 0 0 0
1277 0 0 0
1131 0 0 0
1220 0 0 0
1223 0 0 0
1043 0 0 0
1130 0 0 0
1133 0 0 0
1134 0 0 0
1136 0 0 0
1151 0 0 0
1041 0 0 0
1060 0 0 0
1062 0 0 0
994 0 0 0
997 0 0 0
1061 0 0 0
1064 0 0 0
6550 0 0 0
6551 0 0 0
1279 0 0 0
1295 0 0 0
1300 0 0 0
1278 0 0 0
1281 0 0 0
1224 0 0 0
1226 0 0 0
1237 0 0 0
1153 0 0 0
1067 0 0 0
1152 0 0 0
1155 0 0 0
1065 0 0 0
1077 0 0 0
917 0 0 0
918 0 0 0
934 0 0 0
1167 0 0 0
916 0 0 0
1084 0 0 0
1089 0 0 0
1091 0 0 0
873 0 0 0
886 0 0 0
888 0 0 0
1004 0 0 0
1005 0 0 0
808 0 0 0
809 0 0 0
955 0 0 0
960 0 0 0
1003 0 0 0
717 0 0 0
730 0 0 0
807 0 0 0
962 0 0 0
732 0 0 0
938 0 0 0
939 0 0 0
940 0 0 0
1171 0 0 0
1178 0 0 0
1182 0 0 0
1183 0 0 0
1248 0 0 0
1093 0 0 0
1094 0 0 0
1180 0 0 0
1181 0 0 0
1092 0 0 0
1098 0 0 0
1111 0 0 0
1113 0 0 0
1009 0 0 0
1018 0 0 0
1020 0 0 0
1022 0 0 0
1023 0 0 0
964 0 0 0
965 0 0 0
969 0 0 0
981 0 0 0
1021 0 0 0
943 0 0 0
947 0 0 0
963 0 0 0
983 0 0 0
1249 0 0 0
1253 0 0 0
1262 0 0 0
1187 0 0 0
1201 0 0 0
1203 0 0 0
1205 0 0 0
1206 0 0 0
1264 0 0 0
1115 0 0 0
1116 0 0 0
1204 0 0 0
1027 0 0 0
1042 0 0 0
1114 0 0 0
1120 0 0 0
1135 0 0 0
1137 0 0 0
1044 0 0 0
1046 0 0 0
1047 0 0 0
984 0 0 0
985 0 0 0
987 0 0 0
996 0 0 0
1045 0 0 0
6544 0 0 0
1266 0 0 0
1267 0 0 0
1296 0 0 0
1265 0 0 0
1210 0 0 0
1225 0 0 0
1227 0 0 0
1139 0 0 0
1140 0 0 0
1051 0 0 0
1066 0 0 0
1138 0 0 0
1068 0 0 0
907 0 0 0
931 0 0 0
932 0 0 0
1166 0 0 0
1168 0 0 0
906 0 0 0
919 0 0 0
1082 0 0 0
1083 0 0 0
1085 0 0 0
871 0 0 0
872 0 0 0
874 0 0 0
1002 0 0 0
792 0 0 0
954 0 0 0
1001 0 0 0
1006 0 0 0
716 0 0 0
791 0 0 0
810 0 0 0
953 0 0 0
956 0 0 0
715 0 0 0
718 0 0 0
937 0 0 0
941 0 0 0
6475 0 0 0
1170 0 0 0
1174 0 0 0
1244 0 0 0
1245 0 0 0
1087 0 0 0
1169 0 0 0
1172 0 0 0
1173 0 0 0
1184 0 0 0
1086 0 0 0
1095 0 0 0
1096 0 0 0
1097 0 0 0
1099 0 0 0
1007 0 0 0
1008 0 0 0
1010 0 0 0
1012 0 0 0
958 0 0 0
968 0 0 0
1011 0 0 0
1024 0 0 0
942 0 0 0
957 0 0 0
966 0 0 0
967 0 0 0
970 0 0 0
1246 0 0 0
1250 0 0 0
1252 0 0 0
1185 0 0 0
1186 0 0 0
1188 0 0 0
1190 0 0 0
1251 0 0 0
1254 0 0 0
1101 0 0 0
1189 0 0 0
1207 0 0 0
1026 0 0 0
1100 0 0 0
1117 0 0 0
1118 0 0 0
1119 0 0 0
1121 0 0 0
1025 0 0 0
1028 0 0 0
1030 0 0 0
971 0 0 0
986 0 0 0
1029 0 0 0
1048 0 0 0
6543 0 0 0
6545 0 0 0
1256 0 0 0
1292 0 0 0
1293 0 0 0
1255 0 0 0
1268 0 0 0
1208 0 0 0
1209 0 0 0
1211 0 0 0
1123 0 0 0
1050 0 0 0
1122 0 0 0
1141 0 0 0
1049 0 0 0
1052 0 0 0
1303 0 0 0
1505 0 0 0
1506 0 0 0
1288 0 0 0
1289 0 0 0
1290 0 0 0
1426 0 0 0
1442 0 0 0
1504 0 0 0
1240 0 0 0
1242 0 0 0
1443 0 0 0
1163 0 0 0
1164 0 0 0
1243 0 0 0
1366 0 0 0
1367 0 0 0
1368 0 0 0
1162 0 0 0
1323 0 0 0
1333 0 0 0
1079 0 0 0
1080 0 0 0
1081 0 0 0
1308 0 0 0
1309 0 0 0
1334 0 0 0
1510 0 0 0
1526 0 0 0
1569 0 0 0
1585 0 0 0
1527 0 0 0
1528 0 0 0
1529 0 0 0
1530 0 0 0
1444 0 0 0
1445 0 0 0
1446 0 0 0
1450 0 0 0
1464 0 0 0
1372 0 0 0
1387 0 0 0
1390 0 0 0
1391 0 0 0
1465 0 0 0
1336 0 0 0
1337 0 0 0
1388 0 0 0
1389 0 0 0
1335 0 0 0
1340 0 0 0
1343 0 0 0
6895 0 0 0
1587 0 0 0
1588 0 0 0
1534 0 0 0
1544 0 0 0
1586 0 0 0
1545 0 0 0
1466 0 0 0
1467 0 0 0
1468 0 0 0
1395 0 0 0
1403 0 0 0
1344 0 0 0
1345 0 0 0
1404 0 0 0
1592 0 0 0
1598 0 0 0
1611 0 0 0
1615 0 0 0
1599 0 0 0
1600 0 0 0
1601 0 0 0
1602 0 0 0
1546 0 0 0
1547 0 0 0
1548 0 0 0
1552 0 0 0
1554 0 0 0
1472 0 0 0
1478 0 0 0
1481 0 0 0
1482 0 0 0
1555 0 0 0
1406 0 0 0
1407 0 0 0
1479 0 0 0
1480 0 0 0
1405 0 0 0
1410 0 0 0
1411 0 0 0
6917 0 0 0
1301 0 0 0
1302 0 0 0
1492 0 0 0
1282 0 0 0
1284 0 0 0
1291 0 0 0
1425 0 0 0
1490 0 0 0
1507 0 0 0
1239 0 0 0
1424 0 0 0
1427 0 0 0
1158 0 0 0
1238 0 0 0
1241 0 0 0
1352 0 0 0
1354 0 0 0
1369 0 0 0
1156 0 0 0
1165 0 0 0
1322 0 0 0
1078 0 0 0
1307 0 0 0
1321 0 0 0
1324 0 0 0
6580 0 0 0
6581 0 0 0
1509 0 0 0
1559 0 0 0
1570 0 0 0
1571 0 0 0
1572 0 0 0
1508 0 0 0
1511 0 0 0
1512 0 0 0
1514 0 0 0
1531 0 0 0
1428 0 0 0
1430 0 0 0
1447 0 0 0
1449 0 0 0
1371 0 0 0
1376 0 0 0
1448 0 0 0
1451 0 0 0
1327 0 0 0
1370 0 0 0
1373 0 0 0
1374 0 0 0
1392 0 0 0
1325 0 0 0
1338 0 0 0
1339 0 0 0
6883 0 0 0
6884 0 0 0
1575 0 0 0
1533 0 0 0
1573 0 0 0
1589 0 0 0
1532 0 0 0
1535 0 0 0
1452 0 0 0
1454 0 0 0
1469 0 0 0
1394 0 0 0
1342 0 0 0
1393 0 0 0
1396 0 0 0
1591 0 0 0
1607 0 0 0
1612 0 0 0
1613 0 0 0
1614 0 0 0
1590 0 0 0
1593 0 0 0
1594 0 0 0
1596 0 0 0
1603 0 0 0
1536 0 0 0
1538 0 0 0
1549 0 0 0
1551 0 0 0
1471 0 0 0
1476 0 0 0
1550 0 0 0
1553 0 0 0
1399 0 0 0
1470 0 0 0
1473 0 0 0
1474 0 0 0
1483 0 0 0
1397 0 0 0
1408 0 0 0
1409 0 0 0
6915 0 0 0
6916 0 0 0
1297 0 0 0
1486 0 0 0
1491 0 0 0
1271 0 0 0
1283 0 0 0
1285 0 0 0
1415 0 0 0
1416 0 0 0
1493 0 0 0
1229 0 0 0
1230 0 0 0
1414 0 0 0
1144 0 0 0
1157 0 0 0
1228 0 0 0
1348 0 0 0
1353 0 0 0
1355 0 0 0
1159 0 0 0
1313 0 0 0
1314 0 0 0
1069 0 0 0
1070 0 0 0
1305 0 0 0
1306 0 0 0
1312 0 0 0
6579 0 0 0
1495 0 0 0
1496 0 0 0
1560 0 0 0
1561 0 0 0
1494 0 0 0
1500 0 0 0
1513 0 0 0
1515 0 0 0
1420 0 0 0
1429 0 0 0
1431 0 0 0
1433 0 0 0
1434 0 0 0
1357 0 0 0
1358 0 0 0
1362 0 0 0
1375 0 0 0
1432 0 0 0
1318 0 0 0
1326 0 0 0
1356 0 0 0
1377 0 0 0
1328 0 0 0
1329 0 0 0
1330 0 0 0
6877 0 0 0
1565 0 0 0
1574 0 0 0
1517 0 0 0
1518 0 0 0
1576 0 0 0
1516 0 0 0
1438 0 0 0
1453 0 0 0
1455 0 0 0
1379 0 0 0
1380 0 0 0
1332 0 0 0
1341 0 0 0
1378 0 0 0
1578 0 0 0
1579 0 0 0
1608 0 0 0
1609 0 0 0
1577 0 0 0
1583 0 0 0
1595 0 0 0
1597 0 0 0
1522 0 0 0
1537 0 0 0
1539 0 0 0
1541 0 0 0
1542 0 0 0
1457 0 0 0
1458 0 0 0
1462 0 0 0
1475 0 0 0
1540 0 0 0
1384 0 0 0
1398 0 0 0
1456 0 0 0
1477 0 0 0
1400 0 0 0
1401 0 0 0
1402 0 0 0
6913 0 0 0
1294 0 0 0
1298 0 0 0
1485 0 0 0
1269 0 0 0
1270 0 0 0
1272 0 0 0
1413 0 0 0
1484 0 0 0
1487 0 0 0
1213 0 0 0
1412 0 0 0
1417 0 0 0
1143 0 0 0
1212 0 0 0
1231 0 0 0
1346 0 0 0
1347 0 0 0
1349 0 0 0
1142 0 0 0
1145 0 0 0
1311 0 0 0
1053 0 0 0
1054 0 0 0
1071 0 0 0
1304 0 0 0
1310 0 0 0
1315 0 0 0
1489 0 0 0
1556 0 0 0
1557 0 0 0
1558 0 0 0
1562 0 0 0
1488 0 0 0
1497 0 0 0
1498 0 0 0
1499 0 0 0
1501 0 0 0
1418 0 0 0
1419 0 0 0
1421 0 0 0
1423 0 0 0
1351 0 0 0
1361 0 0 0
1422 0 0 0
1435 0 0 0
1317 0 0 0
1350 0 0 0
1359 0 0 0
1360 0 0 0
1363 0 0 0
1316 0 0 0
1319 0 0 0
1320 0 0 0
6876 0 0 0
6878 0 0 0
1564 0 0 0
1503 0 0 0
1563 0 0 0
1566 0 0 0
1502 0 0 0
1519 0 0 0
1436 0 0 0
1437 0 0 0
1439 0 0 0
1365 0 0 0
1331 0 0 0
1364 0 0 0
1381 0 0 0
1568 0 0 0
1604 0 0 0
1605 0 0 0
1606 0 0 0
1610 0 0 0
1567 0 0 0
1580 0 0 0
1581 0 0 0
1582 0 0 0
1584 0 0 0
1520 0 0 0
1521 0 0 0
1523 0 0 0
1525 0 0 0
1441 0 0 0
1461 0 0 0
1524 0 0 0
1543 0 0 0
1383 0 0 0
1440 0 0 0
1459 0 0 0
1460 0 0 0
1463 0 0 0
1382 0 0 0
1385 0 0 0
1386 0 0 0
6912 0 0 0
6914 0 0 0
1835 0 0 0
1836 0 0 0
1840 0 0 0
1856 0 0 0
1911 0 0 0
1744 0 0 0
1760 0 0 0
1834 0 0 0
1857 0 0 0
1761 0 0 0
1762 0 0 0
1763 0 0 0
1764 0 0 0
1678 0 0 0
1679 0 0 0
1680 0 0 0
1684 0 0 0
1699 0 0 0
1635 0 0 0
1645 0 0 0
1648 0 0 0
1649 0 0 0
1700 0 0 0
1620 0 0 0
1621 0 0 0
1646 0 0 0
1647 0 0 0
1929 0 0 0
1858 0 0 0
1859 0 0 0
1860 0 0 0
1768 0 0 0
1784 0 0 0
1702 0 0 0
1703 0 0 0
1785 0 0 0
1701 0 0 0
1652 0 0 0
1655 0 0 0
7269 0 0 0
1931 0 0 0
1932 0 0 0
1936 0 0 0
1946 0 0 0
1969 0 0 0
1864 0 0 0
1878 0 0 0
1930 0 0 0
1947 0 0 0
1879 0 0 0
1880 0 0 0
1881 0 0 0
1882 0 0 0
1786 0 0 0
1787 0 0 0
1788 0 0 0
1792 0 0 0
1802 0 0 0
1707 0 0 0
1717 0 0 0
1720 0 0 0
1721 0 0 0
1803 0 0 0
1656 0 0 0
1657 0 0 0
1718 0 0 0
1719 0 0 0
1977 0 0 0
1979 0 0 0
1980 0 0 0
1948 0 0 0
1949 0 0 0
1950 0 0 0
1954 0 0 0
1956 0 0 0
1978 0 0 0
1886 0 0 0
1892 0 0 0
1957 0 0 0
1805 0 0 0
1806 0 0 0
1893 0 0 0
1894 0 0 0
1895 0 0 0
1896 0 0 0
1804 0 0 0
1810 0 0 0
1812 0 0 0
1724 0 0 0
1727 0 0 0
1728 0 0 0
1729 0 0 0
1813 0 0 0
7305 0 0 0
1822 0 0 0
1839 0 0 0
1901 0 0 0
1912 0 0 0
1743 0 0 0
1820 0 0 0
1837 0 0 0
1838 0 0 0
1841 0 0 0
1742 0 0 0
1745 0 0 0
1746 0 0 0
1748 0 0 0
1765 0 0 0
1664 0 0 0
1666 0 0 0
1681 0 0 0
1683 0 0 0
1634 0 0 0
1639 0 0 0
1682 0 0 0
1685 0 0 0
1619 0 0 0
1633 0 0 0
1636 0 0 0
1637 0 0 0
1650 0 0 0
1913 0 0 0
1914 0 0 0
1842 0 0 0
1844 0 0 0
1861 0 0 0
1767 0 0 0
1688 0 0 0
1766 0 0 0
1769 0 0 0
1686 0 0 0
1704 0 0 0
1651 0 0 0
7255 0 0 0
7256 0 0 0
1917 0 0 0
1935 0 0 0
1961 0 0 0
1970 0 0 0
1863 0 0 0
1915 0 0 0
1933 0 0 0
1934 0 0 0
1937 0 0 0
1862 0 0 0
1865 0 0 0
1866 0 0 0
1868 0 0 0
1883 0 0 0
1770 0 0 0
1772 0 0 0
1789 0 0 0
1791 0 0 0
1706 0 0 0
1711 0 0 0
1790 0 0 0
1793 0 0 0
1654 0 0 0
1705 0 0 0
1708 0 0 0
1709 0 0 0
1722 0 0 0
1971 0 0 0
1972 0 0 0
1975 0 0 0
1938 0 0 0
1940 0 0 0
1951 0 0 0
1953 0 0 0
1973 0 0 0
1981 0 0 0
1885 0 0 0
1952 0 0 0
1955 0 0 0
1796 0 0 0
1884 0 0 0
1887 0 0 0
1888 0 0 0
1890 0 0 0
1897 0 0 0
1794 0 0 0
1807 0 0 0
1809 0 0 0
1723 0 0 0
1726 0 0 0
1808 0 0 0
1811 0 0 0
7301 0 0 0
7302 0 0 0
1816 0 0 0
1821 0 0 0
1825 0 0 0
1826 0 0 0
1902 0 0 0
1733 0 0 0
1734 0 0 0
1823 0 0 0
1824 0 0 0
1732 0 0 0
1738 0 0 0
1747 0 0 0
1749 0 0 0
1660 0 0 0
1665 0 0 0
1667 0 0 0
1669 0 0 0
1670 0 0 0
1625 0 0 0
1626 0 0 0
1630 0 0 0
1638 0 0 0
1668 0 0 0
1617 0 0 0
1618 0 0 0
1624 0 0 0
1640 0 0 0
1903 0 0 0
1830 0 0 0
1843 0 0 0
1845 0 0 0
1751 0 0 0
1752 0 0 0
1674 0 0 0
1687 0 0 0
1750 0 0 0
1689 0 0 0
1641 0 0 0
1642 0 0 0
7249 0 0 0
1907 0 0 0
1916 0 0 0
1920 0 0 0
1921 0 0 0
1962 0 0 0
1847 0 0 0
1848 0 0 0
1918 0 0 0
1919 0 0 0
1846 0 0 0
1852 0 0 0
1867 0 0 0
1869 0 0 0
1756 0 0 0
1771 0 0 0
1773 0 0 0
1775 0 0 0
1776 0 0 0
1691 0 0 0
1692 0 0 0
1696 0 0 0
1710 0 0 0
1774 0 0 0
1644 0 0 0
1653 0 0 0
1690 0 0 0
1712 0 0 0
1963 0 0 0
1967 0 0 0
1974 0 0 0
1925 0 0 0
1939 0 0 0
1941 0 0 0
1943 0 0 0
1944 0 0 0
1976 0 0 0
1871 0 0 0
1872 0 0 0
1942 0 0 0
1780 0 0 0
1795 0 0 0
1870 0 0 0
1876 0 0 0
1889 0 0 0
1891 0 0 0
1797 0 0 0
1799 0 0 0
1800 0 0 0
1713 0 0 0
1714 0 0 0
1716 0 0 0
1725 0 0 0
1798 0 0 0
7297 0 0 0
1815 0 0 0
1819 0 0 0
1898 0 0 0
1899 0 0 0
1731 0 0 0
1814 0 0 0
1817 0 0 0
1818 0 0 0
1827 0 0 0
1730 0 0 0
1735 0 0 0
1736 0 0 0
1737 0 0 0
1739 0 0 0
1658 0 0 0
1659 0 0 0
1661 0 0 0
1663 0 0 0
1623 0 0 0
1629 0 0 0
1662 0 0 0
1671 0 0 0
1616 0 0 0
1622 0 0 0
1627 0 0 0
1628 0 0 0
1631 0 0 0
1900 0 0 0
1904 0 0 0
1828 0 0 0
1829 0 0 0
1831 0 0 0
1741 0 0 0
1673 0 0 0
1740 0 0 0
1753 0 0 0
1672 0 0 0
1675 0 0 0
1632 0 0 0
7248 0 0 0
7250 0 0 0
1906 0 0 0
1910 0 0 0
1958 0 0 0
1959 0 0 0
1833 0 0 0
1905 0 0 0
1908 0 0 0
1909 0 0 0
1922 0 0 0
1832 0 0 0
1849 0 0 0
1850 0 0 0
1851 0 0 0
1853 0 0 0
1754 0 0 0
1755 0 0 0
1757 0 0 0
1759 0 0 0
1677 0 0 0
1695 0 0 0
1758 0 0 0
1777 0 0 0
1643 0 0 0
1676 0 0 0
1693 0 0 0
1694 0 0 0
1697 0 0 0
1960 0 0 0
1964 0 0 0
1966 0 0 0
1923 0 0 0
1924 0 0 0
1926 0 0 0
1928 0 0 0
1965 0 0 0
1968 0 0 0
1855 0 0 0
1927 0 0 0
1945 0 0 0
1779 0 0 0
1854 0 0 0
1873 0 0 0
1874 0 0 0
1875 0 0 0
1877 0 0 0
1778 0 0 0
1781 0 0 0
1783 0 0 0
1698 0 0 0
1715 0 0 0
1782 0 0 0
1801 0 0 0
7296 0 0 0
7298 0 0 0
2166 0 0 0
2182 0 0 0
2249 0 0 0
2183 0 0 0
2088 0 0 0
2089 0 0 0
2090 0 0 0
2022 0 0 0
2037 0 0 0
1997 0 0 0
1998 0 0 0
2038 0 0 0
1996 0 0 0
2267 0 0 0
2269 0 0 0
2270 0 0 0
2184 0 0 0
2185 0 0 0
2186 0 0 0
2190 0 0 0
2206 0 0 0
2268 0 0 0
2094 0 0 0
2110 0 0 0
2207 0 0 0
2040 0 0 0
2041 0 0 0
2111 0 0 0
2112 0 0 0
2113 0 0 0
2114 0 0 0
2039 0 0 0
2045 0 0 0
2055 0 0 0
2001 0 0 0
2004 0 0 0
2005 0 0 0
2006 0 0 0
2007 0 0 0
2056 0 0 0
2274 0 0 0
2288 0 0 0
2321 0 0 0
2333 0 0 0
2289 0 0 0
2291 0 0 0
2292 0 0 0
2290 0 0 0
2208 0 0 0
2209 0 0 0
2210 0 0 0
2214 0 0 0
2224 0 0 0
2118 0 0 0
2132 0 0 0
2225 0 0 0
2135 0 0 0
2136 0 0 0
2058 0 0 0
2059 0 0 0
2133 0 0 0
2134 0 0 0
2057 0 0 0
2062 0 0 0
2065 0 0 0
7687 0 0 0
2335 0 0 0
2336 0 0 0
2340 0 0 0
2342 0 0 0
2348 0 0 0
2296 0 0 0
2302 0 0 0
2334 0 0 0
2343 0 0 0
2303 0 0 0
2304 0 0 0
2305 0 0 0
2306 0 0 0
2226 0 0 0
2227 0 0 0
2228 0 0 0
2232 0 0 0
2234 0 0 0
2140 0 0 0
2146 0 0 0
2149 0 0 0
2150 0 0 0
2235 0 0 0
2066 0 0 0
2067 0 0 0
2147 0 0 0
2148 0 0 0
2165 0 0 0
2239 0 0 0
2250 0 0 0
2164 0 0 0
2167 0 0 0
2074 0 0 0
2076 0 0 0
2091 0 0 0
2021 0 0 0
1989 0 0 0
2020 0 0 0
2023 0 0 0
1987 0 0 0
1999 0 0 0
2251 0 0 0
2252 0 0 0
2255 0 0 0
2168 0 0 0
2170 0 0 0
2187 0 0 0
2189 0 0 0
2253 0 0 0
2271 0 0 0
2093 0 0 0
2188 0 0 0
2191 0 0 0
2026 0 0 0
2092 0 0 0
2095 0 0 0
2096 0 0 0
2098 0 0 0
2115 0 0 0
2024 0 0 0
2042 0 0 0
2044 0 0 0
2000 0 0 0
7620 0 0 0
7621 0 0 0
2003 0 0 0
2043 0 0 0
2046 0 0 0
2273 0 0 0
2311 0 0 0
2322 0 0 0
2323 0 0 0
2324 0 0 0
2272 0 0 0
2275 0 0 0
2278 0 0 0
2276 0 0 0
2293 0 0 0
2192 0 0 0
2194 0 0 0
2211 0 0 0
2213 0 0 0
2117 0 0 0
2212 0 0 0
2215 0 0 0
2122 0 0 0
2049 0 0 0
2116 0 0 0
2119 0 0 0
2120 0 0 0
2137 0 0 0
2047 0 0 0
2060 0 0 0
2061 0 0 0
7679 0 0 0
7680 0 0 0
2327 0 0 0
2339 0 0 0
2346 0 0 0
2349 0 0 0
2295 0 0 0
2325 0 0 0
2337 0 0 0
2338 0 0 0
2341 0 0 0
2294 0 0 0
2297 0 0 0
2298 0 0 0
2300 0 0 0
2307 0 0 0
2216 0 0 0
2218 0 0 0
2229 0 0 0
2231 0 0 0
2139 0 0 0
2144 0 0 0
2230 0 0 0
2233 0 0 0
2064 0 0 0
2138 0 0 0
2141 0 0 0
2142 0 0 0
2151 0 0 0
2155 0 0 0
2156 0 0 0
2240 0 0 0
2154 0 0 0
2070 0 0 0
2075 0 0 0
2077 0 0 0
2011 0 0 0
2012 0 0 0
1984 0 0 0
1988 0 0 0
2010 0 0 0
1990 0 0 0
2241 0 0 0
2245 0 0 0
2254 0 0 0
2160 0 0 0
2169 0 0 0
2171 0 0 0
2173 0 0 0
2174 0 0 0
2256 0 0 0
2079 0 0 0
2080 0 0 0
2172 0 0 0
2016 0 0 0
2025 0 0 0
2078 0 0 0
2084 0 0 0
2097 0 0 0
2099 0 0 0
2027 0 0 0
2029 0 0 0
2030 0 0 0
1991 0 0 0
1992 0 0 0
7615 0 0 0
1995 0 0 0
2002 0 0 0
2028 0 0 0
2258 0 0 0
2259 0 0 0
2312 0 0 0
2313 0 0 0
2257 0 0 0
2263 0 0 0
2277 0 0 0
2279 0 0 0
2178 0 0 0
2193 0 0 0
2195 0 0 0
2197 0 0 0
2198 0 0 0
2101 0 0 0
2102 0 0 0
2196 0 0 0
2106 0 0 0
2121 0 0 0
2034 0 0 0
2048 0 0 0
2100 0 0 0
2123 0 0 0
2050 0 0 0
2051 0 0 0
2052 0 0 0
7673 0 0 0
2317 0 0 0
2326 0 0 0
2330 0 0 0
2331 0 0 0
2347 0 0 0
2281 0 0 0
2282 0 0 0
2328 0 0 0
2329 0 0 0
2280 0 0 0
2286 0 0 0
2299 0 0 0
2301 0 0 0
2202 0 0 0
2217 0 0 0
2219 0 0 0
2221 0 0 0
2222 0 0 0
2125 0 0 0
2126 0 0 0
2130 0 0 0
2143 0 0 0
2220 0 0 0
2054 0 0 0
2063 0 0 0
2124 0 0 0
2145 0 0 0
2153 0 0 0
2236 0 0 0
2237 0 0 0
2152 0 0 0
2157 0 0 0
2068 0 0 0
2069 0 0 0
2071 0 0 0
2009 0 0 0
1983 0 0 0
2008 0 0 0
2013 0 0 0
1982 0 0 0
1985 0 0 0
2238 0 0 0
2242 0 0 0
2244 0 0 0
2158 0 0 0
2159 0 0 0
2161 0 0 0
2163 0 0 0
2243 0 0 0
2246 0 0 0
2073 0 0 0
2162 0 0 0
2175 0 0 0
2015 0 0 0
2072 0 0 0
2081 0 0 0
2082 0 0 0
2083 0 0 0
2085 0 0 0
2014 0 0 0
2017 0 0 0
2019 0 0 0
1986 0 0 0
1993 0 0 0
7614 0 0 0
1994 0 0 0
2018 0 0 0
2031 0 0 0
2248 0 0 0
2308 0 0 0
2309 0 0 0
2310 0 0 0
2314 0 0 0
2247 0 0 0
2260 0 0 0
2262 0 0 0
2261 0 0 0
2264 0 0 0
2176 0 0 0
2177 0 0 0
2179 0 0 0
2181 0 0 0
2087 0 0 0
2180 0 0 0
2199 0 0 0
2105 0 0 0
2033 0 0 0
2086 0 0 0
2103 0 0 0
2104 0 0 0
2107 0 0 0
2032 0 0 0
2035 0 0 0
2036 0 0 0
7672 0 0 0
7674 0 0 0
2316 0 0 0
2320 0 0 0
2344 0 0 0
2345 0 0 0
2266 0 0 0
2315 0 0 0
2318 0 0 0
2319 0 0 0
2332 0 0 0
2265 0 0 0
2283 0 0 0
2284 0 0 0
2285 0 0 0
2287 0 0 0
2200 0 0 0
2201 0 0 0
2203 0 0 0
2205 0 0 0
2223 0 0 0
2109 0 0 0
2129 0 0 0
2204 0 0 0
2131 0 0 0
2128 0 0 0
2127 0 0 0
2108 0 0 0
2053 0 0 0
2582 0 0 0
2506 0 0 0
2507 0 0 0
2427 0 0 0
2443 0 0 0
2505 0 0 0
2444 0 0 0
2384 0 0 0
2385 0 0 0
2386 0 0 0
2358 0 0 0
2361 0 0 0
2584 0 0 0
2585 0 0 0
2589 0 0 0
2603 0 0 0
2636 0 0 0
2511 0 0 0
2527 0 0 0
2583 0 0 0
2604 0 0 0
2528 0 0 0
2529 0 0 0
2530 0 0 0
2531 0 0 0
2445 0 0 0
2446 0 0 0
2447 0 0 0
2451 0 0 0
2465 0 0 0
2390 0 0 0
2400 0 0 0
2403 0 0 0
2404 0 0 0
2466 0 0 0
2362 0 0 0
2363 0 0 0
2401 0 0 0
2402 0 0 0
2648 0 0 0
2650 0 0 0
2651 0 0 0
2605 0 0 0
2606 0 0 0
2607 0 0 0
2611 0 0 0
2617 0 0 0
2649 0 0 0
2535 0 0 0
2545 0 0 0
2618 0 0 0
2546 0 0 0
2547 0 0 0
2548 0 0 0
2549 0 0 0
2468 0 0 0
2469 0 0 0
2467 0 0 0
2473 0 0 0
2479 0 0 0
2407 0 0 0
2410 0 0 0
2411 0 0 0
2412 0 0 0
2480 0 0 0
2655 0 0 0
2657 0 0 0
2663 0 0 0
2658 0 0 0
2619 0 0 0
2620 0 0 0
2621 0 0 0
2553 0 0 0
2555 0 0 0
2482 0 0 0
2483 0 0 0
2556 0 0 0
2481 0 0 0
2566 0 0 0
2567 0 0 0
2493 0 0 0
2426 0 0 0
2491 0 0 0
2508 0 0 0
2425 0 0 0
2428 0 0 0
2370 0 0 0
2372 0 0 0
2387 0 0 0
2357 0 0 0
2570 0 0 0
2588 0 0 0
2626 0 0 0
2637 0 0 0
2510 0 0 0
2568 0 0 0
2586 0 0 0
2587 0 0 0
2590 0 0 0
2509 0 0 0
2512 0 0 0
2513 0 0 0
2515 0 0 0
2532 0 0 0
2429 0 0 0
2431 0 0 0
2448 0 0 0
2450 0 0 0
2389 0 0 0
2394 0 0 0
2449 0 0 0
2452 0 0 0
2360 0 0 0
2388 0 0 0
2391 0 0 0
2392 0 0 0
2405 0 0 0
2638 0 0 0
2639 0 0 0
2642 0 0 0
2591 0 0 0
2593 0 0 0
2608 0 0 0
2610 0 0 0
2640 0 0 0
2652 0 0 0
2534 0 0 0
2609 0 0 0
2612 0 0 0
2533 0 0 0
2536 0 0 0
2537 0 0 0
2539 0 0 0
2550 0 0 0
2455 0 0 0
2453 0 0 0
2470 0 0 0
2472 0 0 0
2406 0 0 0
2409 0 0 0
2471 0 0 0
2474 0 0 0
2654 0 0 0
2661 0 0 0
2664 0 0 0
2653 0 0 0
2656 0 0 0
2613 0 0 0
2615 0 0 0
2622 0 0 0
2552 0 0 0
2477 0 0 0
2551 0 0 0
2554 0 0 0
2475 0 0 0
2484 0 0 0
2558 0 0 0
2487 0 0 0
2492 0 0 0
2416 0 0 0
2417 0 0 0
2494 0 0 0
2415 0 0 0
2366 0 0 0
2371 0 0 0
2373 0 0 0
2352 0 0 0
2353 0 0 0
2562 0 0 0
2569 0 0 0
2573 0 0 0
2574 0 0 0
2627 0 0 0
2496 0 0 0
2497 0 0 0
2571 0 0 0
2572 0 0 0
2495 0 0 0
2501 0 0 0
2514 0 0 0
2516 0 0 0
2421 0 0 0
2430 0 0 0
2432 0 0 0
2434 0 0 0
2435 0 0 0
2375 0 0 0
2376 0 0 0
2380 0 0 0
2393 0 0 0
2433 0 0 0
2355 0 0 0
2359 0 0 0
2374 0 0 0
2395 0 0 0
2628 0 0 0
2632 0 0 0
2641 0 0 0
2578 0 0 0
2592 0 0 0
2594 0 0 0
2596 0 0 0
2597 0 0 0
2643 0 0 0
2518 0 0 0
2519 0 0 0
2595 0 0 0
2517 0 0 0
2523 0 0 0
2538 0 0 0
2540 0 0 0
2439 0 0 0
2454 0 0 0
2456 0 0 0
2458 0 0 0
2459 0 0 0
2396 0 0 0
2397 0 0 0
2399 0 0 0
2408 0 0 0
2457 0 0 0
2645 0 0 0
2646 0 0 0
2662 0 0 0
2644 0 0 0
2601 0 0 0
2614 0 0 0
2616 0 0 0
2542 0 0 0
2543 0 0 0
2463 0 0 0
2476 0 0 0
2541 0 0 0
2478 0 0 0
2557 0 0 0
2559 0 0 0
2486 0 0 0
2414 0 0 0
2485 0 0 0
2488 0 0 0
2413 0 0 0
2418 0 0 0
2364 0 0 0
2365 0 0 0
2367 0 0 0
2350 0 0 0
2561 0 0 0
2565 0 0 0
2623 0 0 0
2624 0 0 0
2490 0 0 0
2560 0 0 0
2563 0 0 0
2564 0 0 0
2575 0 0 0
2489 0 0 0
2498 0 0 0
2499 0 0 0
2500 0 0 0
2502 0 0 0
2419 0 0 0
2420 0 0 0
2422 0 0 0
2424 0 0 0
2369 0 0 0
2379 0 0 0
2423 0 0 0
2436 0 0 0
2354 0 0 0
2368 0 0 0
2377 0 0 0
2378 0 0 0
2381 0 0 0
2625 0 0 0
2629 0 0 0
2631 0 0 0
2576 0 0 0
2577 0 0 0
2579 0 0 0
2581 0 0 0
2630 0 0 0
2633 0 0 0
2504 0 0 0
2580 0 0 0
2598 0 0 0
2503 0 0 0
2520 0 0 0
2521 0 0 0
2522 0 0 0
2524 0 0 0
2438 0 0 0
2437 0 0 0
2440 0 0 0
2442 0 0 0
2383 0 0 0
2398 0 0 0
2441 0 0 0
2460 0 0 0
2660 0 0 0
2635 0 0 0
2659 0 0 0
2647 0 0 0
2634 0 0 0
2602 0 0 0
2600 0 0 0
2599 0 0 0
2526 0 0 0
2544 0 0 0
2525 0 0 0
2462 0 0 0
2464 0 0 0
2461 0 0 0
8040 0 0 0
8050 0 0 0
8068 0 0 0
8085 0 0 0
2966 0 0 0
2975 0 0 0
2902 0 0 0
2919 0 0 0
2921 0 0 0
2940 0 0 0
2836 0 0 0
2853 0 0 0
2855 0 0 0
2874 0 0 0
2770 0 0 0
2787 0 0 0
2789 0 0 0
2808 0 0 0
2704 0 0 0
2721 0 0 0
2723 0 0 0
2742 0 0 0
8052 0 0 0
8069 0 0 0
8082 0 0 0
8107 0 0 0
8108 0 0 0
2967 0 0 0
2973 0 0 0
2985 0 0 0
2986 0 0 0
2903 0 0 0
2916 0 0 0
2941 0 0 0
2942 0 0 0
2944 0 0 0
2837 0 0 0
2850 0 0 0
2875 0 0 0
2876 0 0 0
2878 0 0 0
2771 0 0 0
2784 0 0 0
2809 0 0 0
2810 0 0 0
2812 0 0 0
2705 0 0 0
2718 0 0 0
2743 0 0 0
2744 0 0 0
2746 0 0 0
8059 0 0 0
8061 0 0 0
8083 0 0 0
8123 0 0 0
2974 0 0 0
2992 0 0 0
2917 0 0 0
2956 0 0 0
2957 0 0 0
2960 0 0 0
2851 0 0 0
2890 0 0 0
2891 0 0 0
2894 0 0 0
2785 0 0 0
2824 0 0 0
2825 0 0 0
2828 0 0 0
2719 0 0 0
2758 0 0 0
2759 0 0 0
2762 0 0 0
8064 0 0 0
8104 0 0 0
8124 0 0 0
2984 0 0 0
2993 0 0 0
2938 0 0 0
2958 0 0 0
2964 0 0 0
2872 0 0 0
2892 0 0 0
2898 0 0 0
2806 0 0 0
2826 0 0 0
2832 0 0 0
2740 0 0 0
2760 0 0 0
2766 0 0 0
8033 0 0 0
8039 0 0 0
8041 0 0 0
8042 0 0 0
8088 0 0 0
2976 0 0 0
2907 0 0 0
2920 0 0 0
2922 0 0 0
2924 0 0 0
2925 0 0 0
2841 0 0 0
2854 0 0 0
2856 0 0 0
2858 0 0 0
2859 0 0 0
2775 0 0 0
2788 0 0 0
2790 0 0 0
2792 0 0 0
2793 0 0 0
2709 0 0 0
2722 0 0 0
2724 0 0 0
2726 0 0 0
2727 0 0 0
8044 0 0 0
8051 0 0 0
8089 0 0 0
8111 0 0 0
2977 0 0 0
2987 0 0 0
2923 0 0 0
2929 0 0 0
2943 0 0 0
2945 0 0 0
2857 0 0 0
2863 0 0 0
2877 0 0 0
2879 0 0 0
2791 0 0 0
2797 0 0 0
2811 0 0 0
2813 0 0 0
2725 0 0 0
2731 0 0 0
2745 0 0 0
2747 0 0 0
8053 0 0 0
8054 0 0 0
8056 0 0 0
8060 0 0 0
8112 0 0 0
2988 0 0 0
2946 0 0 0
2947 0 0 0
2948 0 0 0
2952 0 0 0
2959 0 0 0
2880 0 0 0
2881 0 0 0
2882 0 0 0
2886 0 0 0
2893 0 0 0
2814 0 0 0
2815 0 0 0
2816 0 0 0
2820 0 0 0
2827 0 0 0
2748 0 0 0
2749 0 0 0
2750 0 0 0
2754 0 0 0
2761 0 0 0
8062 0 0 0
8063 0 0 0
8127 0 0 0
2994 0 0 0
2961 0 0 0
2962 0 0 0
2963 0 0 0
2895 0 0 0
2896 0 0 0
2897 0 0 0
2829 0 0 0
2830 0 0 0
2831 0 0 0
2763 0 0 0
2764 0 0 0
2765 0 0 0
8032 0 0 0
8035 0 0 0
8071 0 0 0
8074 0 0 0
2968 0 0 0
2969 0 0 0
2905 0 0 0
2906 0 0 0
2908 0 0 0
2911 0 0 0
2839 0 0 0
2840 0 0 0
2842 0 0 0
2845 0 0 0
2773 0 0 0
2774 0 0 0
2776 0 0 0
2779 0 0 0
2707 0 0 0
2708 0 0 0
2710 0 0 0
2713 0 0 0
8043 0 0 0
8075 0 0 0
8092 0 0 0
8093 0 0 0
8096 0 0 0
2970 0 0 0
2978 0 0 0
2979 0 0 0
2980 0 0 0
2909 0 0 0
2926 0 0 0
2927 0 0 0
2928 0 0 0
2930 0 0 0
2843 0 0 0
2860 0 0 0
2861 0 0 0
2862 0 0 0
2864 0 0 0
2777 0 0 0
2794 0 0 0
2795 0 0 0
2796 0 0 0
2798 0 0 0
2711 0 0 0
2728 0 0 0
2729 0 0 0
2730 0 0 0
2732 0 0 0
8046 0 0 0
8055 0 0 0
8097 0 0 0
8115 0 0 0
2981 0 0 0
2989 0 0 0
2931 0 0 0
2933 0 0 0
2949 0 0 0
2951 0 0 0
2865 0 0 0
2867 0 0 0
2883 0 0 0
2885 0 0 0
2799 0 0 0
2801 0 0 0
2817 0 0 0
2819 0 0 0
2733 0 0 0
2735 0 0 0
2751 0 0 0
2753 0 0 0
8058 0 0 0
8116 0 0 0
8119 0 0 0
2990 0 0 0
2991 0 0 0
2950 0 0 0
2953 0 0 0
2955 0 0 0
2884 0 0 0
2887 0 0 0
2889 0 0 0
2818 0 0 0
2821 0 0 0
2823 0 0 0
2752 0 0 0
2755 0 0 0
2757 0 0 0
8029 0 0 0
8030 0 0 0
8031 0 0 0
8034 0 0 0
8065 0 0 0
2965 0 0 0
2899 0 0 0
2900 0 0 0
2901 0 0 0
2904 0 0 0
2910 0 0 0
2833 0 0 0
2834 0 0 0
2835 0 0 0
2838 0 0 0
2844 0 0 0
2767 0 0 0
2768 0 0 0
2769 0 0 0
2772 0 0 0
2778 0 0 0
2701 0 0 0
2702 0 0 0
2703 0 0 0
2706 0 0 0
2712 0 0 0
8036 0 0 0
8037 0 0 0
8078 0 0 0
8079 0 0 0
2971 0 0 0
2972 0 0 0
2912 0 0 0
2913 0 0 0
2914 0 0 0
2915 0 0 0
2846 0 0 0
2847 0 0 0
2848 0 0 0
2849 0 0 0
2780 0 0 0
2781 0 0 0
2782 0 0 0
2783 0 0 0
2714 0 0 0
2715 0 0 0
2716 0 0 0
2717 0 0 0
8038 0 0 0
8045 0 0 0
8047 0 0 0
8048 0 0 0
8100 0 0 0
2982 0 0 0
2918 0 0 0
2932 0 0 0
2934 0 0 0
2936 0 0 0
2937 0 0 0
2852 0 0 0
2866 0 0 0
2868 0 0 0
2870 0 0 0
2871 0 0 0
2786 0 0 0
2800 0 0 0
2802 0 0 0
2804 0 0 0
2805 0 0 0
2720 0 0 0
2734 0 0 0
2736 0 0 0
2738 0 0 0
2739 0 0 0
8049 0 0 0
8057 0 0 0
8101 0 0 0
2983 0 0 0
2935 0 0 0
2939 0 0 0
2954 0 0 0
2869 0 0 0
2873 0 0 0
2888 0 0 0
2803 0 0 0
2807 0 0 0
2822 0 0 0
2737 0 0 0
2741 0 0 0
2756 0 0 0
8436 0 0 0
8455 0 0 0
8461 0 0 0
8480 0 0 0
8481 0 0 0
3289 0 0 0
3293 0 0 0
3304 0 0 0
3305 0 0 0
3223 0 0 0
3229 0 0 0
3248 0 0 0
3249 0 0 0
3251 0 0 0
3157 0 0 0
3163 0 0 0
3182 0 0 0
3183 0 0 0
3185 0 0 0
3091 0 0 0
3097 0 0 0
3116 0 0 0
3117 0 0 0
3119 0 0 0
3025 0 0 0
3031 0 0 0
3050 0 0 0
3051 0 0 0
3053 0 0 0
8445 0 0 0
8447 0 0 0
8462 0 0 0
8502 0 0 0
3294 0 0 0
3315 0 0 0
3230 0 0 0
3269 0 0 0
3270 0 0 0
3273 0 0 0
3164 0 0 0
3203 0 0 0
3204 0 0 0
3207 0 0 0
3098 0 0 0
3137 0 0 0
3138 0 0 0
3141 0 0 0
3032 0 0 0
3071 0 0 0
3072 0 0 0
3075 0 0 0
8452 0 0 0
8477 0 0 0
8478 0 0 0
8503 0 0 0
8516 0 0 0
3302 0 0 0
3303 0 0 0
3316 0 0 0
3322 0 0 0
3245 0 0 0
3246 0 0 0
3271 0 0 0
3283 0 0 0
3284 0 0 0
3179 0 0 0
3180 0 0 0
3205 0 0 0
3217 0 0 0
3218 0 0 0
3113 0 0 0
3114 0 0 0
3139 0 0 0
3151 0 0 0
3152 0 0 0
3047 0 0 0
3048 0 0 0
3073 0 0 0
3085 0 0 0
3086 0 0 0
8454 0 0 0
8500 0 0 0
8517 0 0 0
8836 0 0 0
3314 0 0 0
3323 0 0 0
3268 0 0 0
3285 0 0 0
3287 0 0 0
3589 0 0 0
3202 0 0 0
3219 0 0 0
3221 0 0 0
3523 0 0 0
3136 0 0 0
3153 0 0 0
3155 0 0 0
3457 0 0 0
3070 0 0 0
3087 0 0 0
3089 0 0 0
3391 0 0 0
8429 0 0 0
8435 0 0 0
8464 0 0 0
8484 0 0 0
3295 0 0 0
3306 0 0 0
3232 0 0 0
3236 0 0 0
3250 0 0 0
3252 0 0 0
3166 0 0 0
3170 0 0 0
3184 0 0 0
3186 0 0 0
3100 0 0 0
3104 0 0 0
3118 0 0 0
3120 0 0 0
3034 0 0 0
3038 0 0 0
3052 0 0 0
3054 0 0 0
8437 0 0 0
8438 0 0 0
8440 0 0 0
8446 0 0 0
8485 0 0 0
3307 0 0 0
3253 0 0 0
3254 0 0 0
3255 0 0 0
3259 0 0 0
3272 0 0 0
3187 0 0 0
3188 0 0 0
3189 0 0 0
3193 0 0 0
3206 0 0 0
3121 0 0 0
3122 0 0 0
3123 0 0 0
3127 0 0 0
3140 0 0 0
3055 0 0 0
3056 0 0 0
3057 0 0 0
3061 0 0 0
3074 0 0 0
8448 0 0 0
8449 0 0 0
8506 0 0 0
8507 0 0 0
3317 0 0 0
3318 0 0 0
3274 0 0 0
3275 0 0 0
3276 0 0 0
3277 0 0 0
3208 0 0 0
3209 0 0 0
3210 0 0 0
3211 0 0 0
3142 0 0 0
3143 0 0 0
3144 0 0 0
3145 0 0 0
3076 0 0 0
3077 0 0 0
3078 0 0 0
3079 0 0 0
8451 0 0 0
8453 0 0 0
8520 0 0 0
8827 0 0 0
8828 0 0 0
3324 0 0 0
3281 0 0 0
3286 0 0 0
3288 0 0 0
3572 0 0 0
3573 0 0 0
3215 0 0 0
3220 0 0 0
3222 0 0 0
3506 0 0 0
3507 0 0 0
3149 0 0 0
3154 0 0 0
3156 0 0 0
3440 0 0 0
3441 0 0 0
3083 0 0 0
3088 0 0 0
3090 0 0 0
3374 0 0 0
3375 0 0 0
8428 0 0 0
8456 0 0 0
8465 0 0 0
8466 0 0 0
8469 0 0 0
3290 0 0 0
3296 0 0 0
3297 0 0 0
3298 0 0 0
3224 0 0 0
3233 0 0 0
3234 0 0 0
3235 0 0 0
3237 0 0 0
3158 0 0 0
3167 0 0 0
3168 0 0 0
3169 0 0 0
3171 0 0 0
3092 0 0 0
3101 0 0 0
3102 0 0 0
3103 0 0 0
3105 0 0 0
3026 0 0 0
3035 0 0 0
3036 0 0 0
3037 0 0 0
3039 0 0 0
8431 0 0 0
8439 0 0 0
8470 0 0 0
8488 0 0 0
3299 0 0 0
3308 0 0 0
3238 0 0 0
3240 0 0 0
3256 0 0 0
3258 0 0 0
3172 0 0 0
3174 0 0 0
3190 0 0 0
3192 0 0 0
3106 0 0 0
3108 0 0 0
3124 0 0 0
3126 0 0 0
3040 0 0 0
3042 0 0 0
3058 0 0 0
3060 0 0 0
8442 0 0 0
8489 0 0 0
8492 0 0 0
8493 0 0 0
8510 0 0 0
3309 0 0 0
3310 0 0 0
3311 0 0 0
3319 0 0 0
3257 0 0 0
3260 0 0 0
3261 0 0 0
3263 0 0 0
3278 0 0 0
3191 0 0 0
3194 0 0 0
3195 0 0 0
3197 0 0 0
3212 0 0 0
3125 0 0 0
3128 0 0 0
3129 0 0 0
3131 0 0 0
3146 0 0 0
3059 0 0 0
3062 0 0 0
3063 0 0 0
3065 0 0 0
3080 0 0 0
8450 0 0 0
8511 0 0 0
8514 0 0 0
8823 0 0 0
3320 0 0 0
3321 0 0 0
3279 0 0 0
3280 0 0 0
3282 0 0 0
3563 0 0 0
3213 0 0 0
3214 0 0 0
3216 0 0 0
3497 0 0 0
3147 0 0 0
3148 0 0 0
3150 0 0 0
3431 0 0 0
3081 0 0 0
3082 0 0 0
3084 0 0 0
3365 0 0 0
8425 0 0 0
8426 0 0 0
8457 0 0 0
8458 0 0 0
3291 0 0 0
3292 0 0 0
3225 0 0 0
3226 0 0 0
3227 0 0 0
3228 0 0 0
3159 0 0 0
3160 0 0 0
3161 0 0 0
3162 0 0 0
3093 0 0 0
3094 0 0 0
3095 0 0 0
3096 0 0 0
3027 0 0 0
3028 0 0 0
3029 0 0 0
3030 0 0 0
8427 0 0 0
8430 0 0 0
8432 0 0 0
8433 0 0 0
8473 0 0 0
3300 0 0 0
3231 0 0 0
3239 0 0 0
3241 0 0 0
3243 0 0 0
3244 0 0 0
3165 0 0 0
3173 0 0 0
3175 0 0 0
3177 0 0 0
3178 0 0 0
3099 0 0 0
3107 0 0 0
3109 0 0 0
3111 0 0 0
3112 0 0 0
3033 0 0 0
3041 0 0 0
3043 0 0 0
3045 0 0 0
3046 0 0 0
8434 0 0 0
8441 0 0 0
8474 0 0 0
8496 0 0 0
3301 0 0 0
3312 0 0 0
3242 0 0 0
3247 0 0 0
3262 0 0 0
3264 0 0 0
3176 0 0 0
3181 0 0 0
3196 0 0 0
3198 0 0 0
3110 0 0 0
3115 0 0 0
3130 0 0 0
3132 0 0 0
3044 0 0 0
3049 0 0 0
3064 0 0 0
3066 0 0 0
8443 0 0 0
8444 0 0 0
8497 0 0 0
8821 0 0 0
8822 0 0 0
3313 0 0 0
3265 0 0 0
3266 0 0 0
3267 0 0 0
3560 0 0 0
3562 0 0 0
3199 0 0 0
3200 0 0 0
3201 0 0 0
3494 0 0 0
3496 0 0 0
3133 0 0 0
3134 0 0 0
3135 0 0 0
3428 0 0 0
3430 0 0 0
3067 0 0 0
3068 0 0 0
3069 0 0 0
3362 0 0 0
3364 0 0 0
8838 0 0 0
8857 0 0 0
8888 0 0 0
3625 0 0 0
3640 0 0 0
3559 0 0 0
3590 0 0 0
3593 0 0 0
3493 0 0 0
3524 0 0 0
3527 0 0 0
3427 0 0 0
3458 0 0 0
3461 0 0 0
3361 0 0 0
3392 0 0 0
3395 0 0 0
8847 0 0 0
8866 0 0 0
8867 0 0 0
8889 0 0 0
8908 0 0 0
3629 0 0 0
3630 0 0 0
3641 0 0 0
3649 0 0 0
3568 0 0 0
3569 0 0 0
3591 0 0 0
3609 0 0 0
3610 0 0 0
3502 0 0 0
3503 0 0 0
3525 0 0 0
3543 0 0 0
3544 0 0 0
3436 0 0 0
3437 0 0 0
3459 0 0 0
3477 0 0 0
3478 0 0 0
3370 0 0 0
3371 0 0 0
3393 0 0 0
3411 0 0 0
3412 0 0 0
8849 0 0 0
8854 0 0 0
8884 0 0 0
8909 0 0 0
3638 0 0 0
3650 0 0 0
3586 0 0 0
3611 0 0 0
3613 0 0 0
3621 0 0 0
3520 0 0 0
3545 0 0 0
3547 0 0 0
3555 0 0 0
3454 0 0 0
3479 0 0 0
3481 0 0 0
3489 0 0 0
3388 0 0 0
3413 0 0 0
3415 0 0 0
3423 0 0 0
8856 0 0 0
8885 0 0 0
8920 0 0 0
9248 0 0 0
9263 0 0 0
3639 0 0 0
3654 0 0 0
3950 0 0 0
3959 0 0 0
3587 0 0 0
3622 0 0 0
3624 0 0 0
3884 0 0 0
3899 0 0 0
3521 0 0 0
3556 0 0 0
3558 0 0 0
3818 0 0 0
3833 0 0 0
3455 0 0 0
3490 0 0 0
3492 0 0 0
3752 0 0 0
3767 0 0 0
3389 0 0 0
3424 0 0 0
3426 0 0 0
3686 0 0 0
3701 0 0 0
8830 0 0 0
8837 0 0 0
8869 0 0 0
3631 0 0 0
3571 0 0 0
3577 0 0 0
3592 0 0 0
3505 0 0 0
3511 0 0 0
3526 0 0 0
3439 0 0 0
3445 0 0 0
3460 0 0 0
3373 0 0 0
3379 0 0 0
3394 0 0 0
8839 0 0 0
8840 0 0 0
8892 0 0 0
8893 0 0 0
3642 0 0 0
3643 0 0 0
3594 0 0 0
3595 0 0 0
3596 0 0 0
3597 0 0 0
3528 0 0 0
3529 0 0 0
3530 0 0 0
3531 0 0 0
3462 0 0 0
3463 0 0 0
3464 0 0 0
3465 0 0 0
3396 0 0 0
3397 0 0 0
3398 0 0 0
3399 0 0 0
8842 0 0 0
8848 0 0 0
8850 0 0 0
8851 0 0 0
8912 0 0 0
3651 0 0 0
3601 0 0 0
3612 0 0 0
3614 0 0 0
3616 0 0 0
3617 0 0 0
3535 0 0 0
3546 0 0 0
3548 0 0 0
3550 0 0 0
3551 0 0 0
3469 0 0 0
3480 0 0 0
3482 0 0 0
3484 0 0 0
3485 0 0 0
3403 0 0 0
3414 0 0 0
3416 0 0 0
3418 0 0 0
3419 0 0 0
8853 0 0 0
8855 0 0 0
8913 0 0 0
9264 0 0 0
3652 0 0 0
3960 0 0 0
3615 0 0 0
3620 0 0 0
3623 0 0 0
3900 0 0 0
3549 0 0 0
3554 0 0 0
3557 0 0 0
3834 0 0 0
3483 0 0 0
3488 0 0 0
3491 0 0 0
3768 0 0 0
3417 0 0 0
3422 0 0 0
3425 0 0 0
3702 0 0 0
8829 0 0 0
8859 0 0 0
8872 0 0 0
3626 0 0 0
3632 0 0 0
3561 0 0 0
3574 0 0 0
3576 0 0 0
3495 0 0 0
3508 0 0 0
3510 0 0 0
3429 0 0 0
3442 0 0 0
3444 0 0 0
3363 0 0 0
3376 0 0 0
3378 0 0 0
8832 0 0 0
8873 0 0 0
8876 0 0 0
8877 0 0 0
8896 0 0 0
3633 0 0 0
3634 0 0 0
3635 0 0 0
3644 0 0 0
3575 0 0 0
3578 0 0 0
3579 0 0 0
3581 0 0 0
3598 0 0 0
3509 0 0 0
3512 0 0 0
3513 0 0 0
3515 0 0 0
3532 0 0 0
3443 0 0 0
3446 0 0 0
3447 0 0 0
3449 0 0 0
3466 0 0 0
3377 0 0 0
3380 0 0 0
3381 0 0 0
3383 0 0 0
3400 0 0 0
8841 0 0 0
8844 0 0 0
8897 0 0 0
8900 0 0 0
3645 0 0 0
3646 0 0 0
3599 0 0 0
3600 0 0 0
3602 0 0 0
3605 0 0 0
3533 0 0 0
3534 0 0 0
3536 0 0 0
3539 0 0 0
3467 0 0 0
3468 0 0 0
3470 0 0 0
3473 0 0 0
3401 0 0 0
3402 0 0 0
3404 0 0 0
3407 0 0 0
8852 0 0 0
8901 0 0 0
8916 0 0 0
9251 0 0 0
9252 0 0 0
3647 0 0 0
3653 0 0 0
3952 0 0 0
3953 0 0 0
3603 0 0 0
3618 0 0 0
3619 0 0 0
3887 0 0 0
3888 0 0 0
3537 0 0 0
3552 0 0 0
3553 0 0 0
3821 0 0 0
3822 0 0 0
3471 0 0 0
3486 0 0 0
3487 0 0 0
3755 0 0 0
3756 0 0 0
3405 0 0 0
3420 0 0 0
3421 0 0 0
3689 0 0 0
3690 0 0 0
8824 0 0 0
8825 0 0 0
8862 0 0 0
3627 0 0 0
3564 0 0 0
3566 0 0 0
3567 0 0 0
3498 0 0 0
3500 0 0 0
3501 0 0 0
3432 0 0 0
3434 0 0 0
3435 0 0 0
3366 0 0 0
3368 0 0 0
3369 0 0 0
8826 0 0 0
8831 0 0 0
8863 0 0 0
8880 0 0 0
3628 0 0 0
3636 0 0 0
3565 0 0 0
3570 0 0 0
3580 0 0 0
3582 0 0 0
3499 0 0 0
3504 0 0 0
3514 0 0 0
3516 0 0 0
3433 0 0 0
3438 0 0 0
3448 0 0 0
3450 0 0 0
3367 0 0 0
3372 0 0 0
3382 0 0 0
3384 0 0 0
8833 0 0 0
8834 0 0 0
8835 0 0 0
8843 0 0 0
8881 0 0 0
3637 0 0 0
3583 0 0 0
3584 0 0 0
3585 0 0 0
3588 0 0 0
3604 0 0 0
3517 0 0 0
3518 0 0 0
3519 0 0 0
3522 0 0 0
3538 0 0 0
3451 0 0 0
3452 0 0 0
3453 0 0 0
3456 0 0 0
3472 0 0 0
3385 0 0 0
3386 0 0 0
3387 0 0 0
3390 0 0 0
3406 0 0 0
8845 0 0 0
8846 0 0 0
8904 0 0 0
9247 0 0 0
3648 0 0 0
3949 0 0 0
3606 0 0 0
3607 0 0 0
3608 0 0 0
3883 0 0 0
3540 0 0 0
3541 0 0 0
3542 0 0 0
3817 0 0 0
3474 0 0 0
3475 0 0 0
3476 0 0 0
3751 0 0 0
3408 0 0 0
3409 0 0 0
3410 0 0 0
3685 0 0 0
9232 0 0 0
9249 0 0 0
9284 0 0 0
3951 0 0 0
3970 0 0 0
3885 0 0 0
3919 0 0 0
3920 0 0 0
3819 0 0 0
3853 0 0 0
3854 0 0 0
3753 0 0 0
3787 0 0 0
3788 0 0 0
3687 0 0 0
3721 0 0 0
3722 0 0 0
9234 0 0 0
9241 0 0 0
9260 0 0 0
9285 0 0 0
3957 0 0 0
3971 0 0 0
3896 0 0 0
3921 0 0 0
3923 0 0 0
3937 0 0 0
3830 0 0 0
3855 0 0 0
3857 0 0 0
3871 0 0 0
3764 0 0 0
3789 0 0 0
3791 0 0 0
3805 0 0 0
3698 0 0 0
3723 0 0 0
3725 0 0 0
3739 0 0 0
9243 0 0 0
9261 0 0 0
9280 0 0 0
9302 0 0 0
9303 0 0 0
3958 0 0 0
3968 0 0 0
3979 0 0 0
3980 0 0 0
3897 0 0 0
3916 0 0 0
3938 0 0 0
3939 0 0 0
3941 0 0 0
3831 0 0 0
3850 0 0 0
3872 0 0 0
3873 0 0 0
3875 0 0 0
3765 0 0 0
3784 0 0 0
3806 0 0 0
3807 0 0 0
3809 0 0 0
3699 0 0 0
3718 0 0 0
3740 0 0 0
3741 0 0 0
3743 0 0 0
9246 0 0 0
9281 0 0 0
9312 0 0 0
9624 0 0 0
3969 0 0 0
3984 0 0 0
3917 0 0 0
3947 0 0 0
3948 0 0 0
4241 0 0 0
3851 0 0 0
3881 0 0 0
3882 0 0 0
4175 0 0 0
3785 0 0 0
3815 0 0 0
3816 0 0 0
4109 0 0 0
3719 0 0 0
3749 0 0 0
3750 0 0 0
4043 0 0 0
9223 0 0 0
9224 0 0 0
9265 0 0 0
3961 0 0 0
3901 0 0 0
3902 0 0 0
3903 0 0 0
3835 0 0 0
3836 0 0 0
3837 0 0 0
3769 0 0 0
3770 0 0 0
3771 0 0 0
3703 0 0 0
3704 0 0 0
3705 0 0 0
9226 0 0 0
9233 0 0 0
9235 0 0 0
9236 0 0 0
9288 0 0 0
3972 0 0 0
3907 0 0 0
3922 0 0 0
3924 0 0 0
3926 0 0 0
3927 0 0 0
3841 0 0 0
3856 0 0 0
3858 0 0 0
3860 0 0 0
3861 0 0 0
3775 0 0 0
3790 0 0 0
3792 0 0 0
3794 0 0 0
3795 0 0 0
3709 0 0 0
3724 0 0 0
3726 0 0 0
3728 0 0 0
3729 0 0 0
9238 0 0 0
9242 0 0 0
9289 0 0 0
9306 0 0 0
3973 0 0 0
3981 0 0 0
3925 0 0 0
3931 0 0 0
3940 0 0 0
3942 0 0 0
3859 0 0 0
3865 0 0 0
3874 0 0 0
3876 0 0 0
3793 0 0 0
3799 0 0 0
3808 0 0 0
3810 0 0 0
3727 0 0 0
3733 0 0 0
3742 0 0 0
3744 0 0 0
9244 0 0 0
9245 0 0 0
9307 0 0 0
9617 0 0 0
9623 0 0 0
3982 0 0 0
3943 0 0 0
3944 0 0 0
3945 0 0 0
4227 0 0 0
4240 0 0 0
3877 0 0 0
3878 0 0 0
3879 0 0 0
4161 0 0 0
4174 0 0 0
3811 0 0 0
3812 0 0 0
3813 0 0 0
4095 0 0 0
4108 0 0 0
3745 0 0 0
3746 0 0 0
3747 0 0 0
4029 0 0 0
4042 0 0 0
9219 0 0 0
9253 0 0 0
9268 0 0 0
3954 0 0 0
3962 0 0 0
3889 0 0 0
3891 0 0 0
3904 0 0 0
3823 0 0 0
3825 0 0 0
3838 0 0 0
3757 0 0 0
3759 0 0 0
3772 0 0 0
3691 0 0 0
3693 0 0 0
3706 0 0 0
9225 0 0 0
9228 0 0 0
9269 0 0 0
9272 0 0 0
3963 0 0 0
3964 0 0 0
3905 0 0 0
3906 0 0 0
3908 0 0 0
3911 0 0 0
3839 0 0 0
3840 0 0 0
3842 0 0 0
3845 0 0 0
3773 0 0 0
3774 0 0 0
3776 0 0 0
3779 0 0 0
3707 0 0 0
3708 0 0 0
3710 0 0 0
3713 0 0 0
9237 0 0 0
9273 0 0 0
9292 0 0 0
9293 0 0 0
9296 0 0 0
3965 0 0 0
3974 0 0 0
3975 0 0 0
3976 0 0 0
3909 0 0 0
3928 0 0 0
3929 0 0 0
3930 0 0 0
3932 0 0 0
3843 0 0 0
3862 0 0 0
3863 0 0 0
3864 0 0 0
3866 0 0 0
3777 0 0 0
3796 0 0 0
3797 0 0 0
3798 0 0 0
3800 0 0 0
3711 0 0 0
3730 0 0 0
3731 0 0 0
3732 0 0 0
3734 0 0 0
9240 0 0 0
9297 0 0 0
9310 0 0 0
9616 0 0 0
3977 0 0 0
3983 0 0 0
3933 0 0 0
3935 0 0 0
3946 0 0 0
4226 0 0 0
3867 0 0 0
3869 0 0 0
3880 0 0 0
4160 0 0 0
3801 0 0 0
3803 0 0 0
3814 0 0 0
4094 0 0 0
3735 0 0 0
3737 0 0 0
3748 0 0 0
4028 0 0 0
9217 0 0 0
9218 0 0 0
9256 0 0 0
3955 0 0 0
3886 0 0 0
3890 0 0 0
3892 0 0 0
3820 0 0 0
3824 0 0 0
3826 0 0 0
3754 0 0 0
3758 0 0 0
3760 0 0 0
3688 0 0 0
3692 0 0 0
3694 0 0 0
9220 0 0 0
9221 0 0 0
9222 0 0 0
9227 0 0 0
9257 0 0 0
3956 0 0 0
3893 0 0 0
3894 0 0 0
3895 0 0 0
3898 0 0 0
3910 0 0 0
3827 0 0 0
3828 0 0 0
3829 0 0 0
3832 0 0 0
3844 0 0 0
3761 0 0 0
3762 0 0 0
3763 0 0 0
3766 0 0 0
3778 0 0 0
3695 0 0 0
3696 0 0 0
3697 0 0 0
3700 0 0 0
3712 0 0 0
9229 0 0 0
9230 0 0 0
9276 0 0 0
9277 0 0 0
3966 0 0 0
3967 0 0 0
3912 0 0 0
3913 0 0 0
3914 0 0 0
3915 0 0 0
3846 0 0 0
3847 0 0 0
3848 0 0 0
3849 0 0 0
3780 0 0 0
3781 0 0 0
3782 0 0 0
3783 0 0 0
3714 0 0 0
3715 0 0 0
3716 0 0 0
3717 0 0 0
9231 0 0 0
9239 0 0 0
9300 0 0 0
9613 0 0 0
9614 0 0 0
3978 0 0 0
3918 0 0 0
3934 0 0 0
3936 0 0 0
4220 0 0 0
4221 0 0 0
3852 0 0 0
3868 0 0 0
3870 0 0 0
4154 0 0 0
4155 0 0 0
3786 0 0 0
3802 0 0 0
3804 0 0 0
4088 0 0 0
4089 0 0 0
3720 0 0 0
3736 0 0 0
3738 0 0 0
4022 0 0 0
4023 0 0 0
9634 0 0 0
9652 0 0 0
9653 0 0 0
9669 0 0 0
9691 0 0 0
4286 0 0 0
4287 0 0 0
4295 0 0 0
4305 0 0 0
4222 0 0 0
4223 0 0 0
4239 0 0 0
4260 0 0 0
4261 0 0 0
4156 0 0 0
4157 0 0 0
4173 0 0 0
4194 0 0 0
4195 0 0 0
4090 0 0 0
4091 0 0 0
4107 0 0 0
4128 0 0 0
4129 0 0 0
4024 0 0 0
4025 0 0 0
4041 0 0 0
4062 0 0 0
4063 0 0 0
9636 0 0 0
9666 0 0 0
9692 0 0 0
4293 0 0 0
4306 0 0 0
4236 0 0 0
4262 0 0 0
4264 0 0 0
4170 0 0 0
4196 0 0 0
4198 0 0 0
4104 0 0 0
4130 0 0 0
4132 0 0 0
4038 0 0 0
4064 0 0 0
4066 0 0 0
9643 0 0 0
9645 0 0 0
9667 0 0 0
9707 0 0 0
4294 0 0 0
4312 0 0 0
4237 0 0 0
4276 0 0 0
4277 0 0 0
4280 0 0 0
4171 0 0 0
4210 0 0 0
4211 0 0 0
4214 0 0 0
4105 0 0 0
4144 0 0 0
4145 0 0 0
4148 0 0 0
4039 0 0 0
4078 0 0 0
4079 0 0 0
4082 0 0 0
9648 0 0 0
9688 0 0 0
9708 0 0 0
10039 0 0 0
10064 0 0 0
4304 0 0 0
4313 0 0 0
4609 0 0 0
4624 0 0 0
4258 0 0 0
4278 0 0 0
4284 0 0 0
4543 0 0 0
4568 0 0 0
4192 0 0 0
4212 0 0 0
4218 0 0 0
4477 0 0 0
4502 0 0 0
4126 0 0 0
4146 0 0 0
4152 0 0 0
4411 0 0 0
4436 0 0 0
4060 0 0 0
4080 0 0 0
4086 0 0 0
4345 0 0 0
4370 0 0 0
9625 0 0 0
9626 0 0 0
9672 0 0 0
9673 0 0 0
4296 0 0 0
4297 0 0 0
4242 0 0 0
4243 0 0 0
4244 0 0 0
4245 0 0 0
4176 0 0 0
4177 0 0 0
4178 0 0 0
4179 0 0 0
4110 0 0 0
4111 0 0 0
4112 0 0 0
4113 0 0 0
4044 0 0 0
4045 0 0 0
4046 0 0 0
4047 0 0 0
9628 0 0 0
9635 0 0 0
9695 0 0 0
4307 0 0 0
4249 0 0 0
4263 0 0 0
4265 0 0 0
4183 0 0 0
4197 0 0 0
4199 0 0 0
4117 0 0 0
4131 0 0 0
4133 0 0 0
4051 0 0 0
4065 0 0 0
4067 0 0 0
9637 0 0 0
9638 0 0 0
9640 0 0 0
9644 0 0 0
9696 0 0 0
4308 0 0 0
4266 0 0 0
4267 0 0 0
4268 0 0 0
4272 0 0 0
4279 0 0 0
4200 0 0 0
4201 0 0 0
4202 0 0 0
4206 0 0 0
4213 0 0 0
4134 0 0 0
4135 0 0 0
4136 0 0 0
4140 0 0 0
4147 0 0 0
4068 0 0 0
4069 0 0 0
4070 0 0 0
4074 0 0 0
4081 0 0 0
9646 0 0 0
9647 0 0 0
9711 0 0 0
10048 0 0 0
4314 0 0 0
4615 0 0 0
4281 0 0 0
4282 0 0 0
4283 0 0 0
4552 0 0 0
4215 0 0 0
4216 0 0 0
4217 0 0 0
4486 0 0 0
4149 0 0 0
4150 0 0 0
4151 0 0 0
4420 0 0 0
4083 0 0 0
4084 0 0 0
4085 0 0 0
4354 0 0 0
9619 0 0 0
9655 0 0 0
9658 0 0 0
9659 0 0 0
9676 0 0 0
4288 0 0 0
4289 0 0 0
4290 0 0 0
4298 0 0 0
4225 0 0 0
4228 0 0 0
4229 0 0 0
4231 0 0 0
4246 0 0 0
4159 0 0 0
4162 0 0 0
4163 0 0 0
4165 0 0 0
4180 0 0 0
4093 0 0 0
4096 0 0 0
4097 0 0 0
4099 0 0 0
4114 0 0 0
4027 0 0 0
4030 0 0 0
4031 0 0 0
4033 0 0 0
4048 0 0 0
9627 0 0 0
9677 0 0 0
9680 0 0 0
4299 0 0 0
4300 0 0 0
4247 0 0 0
4248 0 0 0
4250 0 0 0
4181 0 0 0
4182 0 0 0
4184 0 0 0
4115 0 0 0
4116 0 0 0
4118 0 0 0
4049 0 0 0
4050 0 0 0
4052 0 0 0
9630 0 0 0
9639 0 0 0
9681 0 0 0
9699 0 0 0
4301 0 0 0
4309 0 0 0
4251 0 0 0
4253 0 0 0
4269 0 0 0
4271 0 0 0
4185 0 0 0
4187 0 0 0
4203 0 0 0
4205 0 0 0
4119 0 0 0
4121 0 0 0
4137 0 0 0
4139 0 0 0
4053 0 0 0
4055 0 0 0
4071 0 0 0
4073 0 0 0
9642 0 0 0
9700 0 0 0
9703 0 0 0
10040 0 0 0
10049 0 0 0
4310 0 0 0
4311 0 0 0
4610 0 0 0
4616 0 0 0
4270 0 0 0
4273 0 0 0
4275 0 0 0
4544 0 0 0
4553 0 0 0
4204 0 0 0
4207 0 0 0
4209 0 0 0
4478 0 0 0
4487 0 0 0
4138 0 0 0
4141 0 0 0
4143 0 0 0
4412 0 0 0
4421 0 0 0
4072 0 0 0
4075 0 0 0
4077 0 0 0
4346 0 0 0
4355 0 0 0
9615 0 0 0
9618 0 0 0
9649 0 0 0
9662 0 0 0
4285 0 0 0
4291 0 0 0
4219 0 0 0
4224 0 0 0
4230 0 0 0
4232 0 0 0
4153 0 0 0
4158 0 0 0
4164 0 0 0
4166 0 0 0
4087 0 0 0
4092 0 0 0
4098 0 0 0
4100 0 0 0
4021 0 0 0
4026 0 0 0
4032 0 0 0
4034 0 0 0
9620 0 0 0
9621 0 0 0
9663 0 0 0
4292 0 0 0
4233 0 0 0
4234 0 0 0
4235 0 0 0
4167 0 0 0
4168 0 0 0
4169 0 0 0
4101 0 0 0
4102 0 0 0
4103 0 0 0
4035 0 0 0
4036 0 0 0
4037 0 0 0
9622 0 0 0
9629 0 0 0
9631 0 0 0
9632 0 0 0
9684 0 0 0
4302 0 0 0
4238 0 0 0
4252 0 0 0
4254 0 0 0
4256 0 0 0
4257 0 0 0
4172 0 0 0
4186 0 0 0
4188 0 0 0
4190 0 0 0
4191 0 0 0
4106 0 0 0
4120 0 0 0
4122 0 0 0
4124 0 0 0
4125 0 0 0
4040 0 0 0
4054 0 0 0
4056 0 0 0
4058 0 0 0
4059 0 0 0
9633 0 0 0
9641 0 0 0
9685 0 0 0
10041 0 0 0
4303 0 0 0
4611 0 0 0
4255 0 0 0
4259 0 0 0
4274 0 0 0
4545 0 0 0
4189 0 0 0
4193 0 0 0
4208 0 0 0
4479 0 0 0
4123 0 0 0
4127 0 0 0
4142 0 0 0
4413 0 0 0
4057 0 0 0
4061 0 0 0
4076 0 0 0
4347 0 0 0
10020 0 0 0
10029 0 0 0
10045 0 0 0
10065 0 0 0
4613 0 0 0
4625 0 0 0
4549 0 0 0
4569 0 0 0
4571 0 0 0
4589 0 0 0
4483 0 0 0
4503 0 0 0
4505 0 0 0
4523 0 0 0
4417 0 0 0
4437 0 0 0
4439 0 0 0
4457 0 0 0
4351 0 0 0
4371 0 0 0
4373 0 0 0
4391 0 0 0
10031 0 0 0
10046 0 0 0
10086 0 0 0
4614 0 0 0
4635 0 0 0
4550 0 0 0
4590 0 0 0
4593 0 0 0
4484 0 0 0
4524 0 0 0
4527 0 0 0
4418 0 0 0
4458 0 0 0
4461 0 0 0
4352 0 0 0
4392 0 0 0
4395 0 0 0
10036 0 0 0
10061 0 0 0
10062 0 0 0
10087 0 0 0
10100 0 0 0
4622 0 0 0
4623 0 0 0
4636 0 0 0
4642 0 0 0
4565 0 0 0
4566 0 0 0
4591 0 0 0
4603 0 0 0
4604 0 0 0
4499 0 0 0
4500 0 0 0
4525 0 0 0
4537 0 0 0
4538 0 0 0
4433 0 0 0
4434 0 0 0
4459 0 0 0
4471 0 0 0
4472 0 0 0
4367 0 0 0
4368 0 0 0
4393 0 0 0
4405 0 0 0
4406 0 0 0
10038 0 0 0
10084 0 0 0
10101 0 0 0
10420 0 0 0
4634 0 0 0
4643 0 0 0
4588 0 0 0
4605 0 0 0
4607 0 0 0
4909 0 0 0
4522 0 0 0
4539 0 0 0
4541 0 0 0
4843 0 0 0
4456 0 0 0
4473 0 0 0
4475 0 0 0
4777 0 0 0
4390 0 0 0
4407 0 0 0
4409 0 0 0
4711 0 0 0
10013 0 0 0
10019 0 0 0
10021 0 0 0
10022 0 0 0
10068 0 0 0
4626 0 0 0
4556 0 0 0
4570 0 0 0
4572 0 0 0
4574 0 0 0
4575 0 0 0
4490 0 0 0
4504 0 0 0
4506 0 0 0
4508 0 0 0
4509 0 0 0
4424 0 0 0
4438 0 0 0
4440 0 0 0
4442 0 0 0
4443 0 0 0
4358 0 0 0
4372 0 0 0
4374 0 0 0
4376 0 0 0
4377 0 0 0
10024 0 0 0
10030 0 0 0
10069 0 0 0
4627 0 0 0
4573 0 0 0
4579 0 0 0
4592 0 0 0
4507 0 0 0
4513 0 0 0
4526 0 0 0
4441 0 0 0
4447 0 0 0
4460 0 0 0
4375 0 0 0
4381 0 0 0
4394 0 0 0
10032 0 0 0
10033 0 0 0
10090 0 0 0
10091 0 0 0
4637 0 0 0
4638 0 0 0
4594 0 0 0
4595 0 0 0
4596 0 0 0
4597 0 0 0
4528 0 0 0
4529 0 0 0
4530 0 0 0
4531 0 0 0
4462 0 0 0
4463 0 0 0
4464 0 0 0
4465 0 0 0
4396 0 0 0
4397 0 0 0
4398 0 0 0
4399 0 0 0
10035 0 0 0
10037 0 0 0
10104 0 0 0
10411 0 0 0
10412 0 0 0
4644 0 0 0
4601 0 0 0
4606 0 0 0
4608 0 0 0
4892 0 0 0
4893 0 0 0
4535 0 0 0
4540 0 0 0
4542 0 0 0
4826 0 0 0
4827 0 0 0
4469 0 0 0
4474 0 0 0
4476 0 0 0
4760 0 0 0
4761 0 0 0
4403 0 0 0
4408 0 0 0
4410 0 0 0
4694 0 0 0
4695 0 0 0
10012 0 0 0
10015 0 0 0
10050 0 0 0
10053 0 0 0
4617 0 0 0
4618 0 0 0
4554 0 0 0
4555 0 0 0
4557 0 0 0
4560 0 0 0
4488 0 0 0
4489 0 0 0
4491 0 0 0
4494 0 0 0
4422 0 0 0
4423 0 0 0
4425 0 0 0
4428 0 0 0
4356 0 0 0
4357 0 0 0
4359 0 0 0
4362 0 0 0
10023 0 0 0
10054 0 0 0
10072 0 0 0
4619 0 0 0
4628 0 0 0
4558 0 0 0
4576 0 0 0
4578 0 0 0
4492 0 0 0
4510 0 0 0
4512 0 0 0
4426 0 0 0
4444 0 0 0
4446 0 0 0
4360 0 0 0
4378 0 0 0
4380 0 0 0
10026 0 0 0
10073 0 0 0
10076 0 0 0
10077 0 0 0
10094 0 0 0
4629 0 0 0
4630 0 0 0
4631 0 0 0
4639 0 0 0
4577 0 0 0
4580 0 0 0
4581 0 0 0
4583 0 0 0
4598 0 0 0
4511 0 0 0
4514 0 0 0
4515 0 0 0
4517 0 0 0
4532 0 0 0
4445 0 0 0
4448 0 0 0
4449 0 0 0
4451 0 0 0
4466 0 0 0
4379 0 0 0
4382 0 0 0
4383 0 0 0
4385 0 0 0
4400 0 0 0
10034 0 0 0
10095 0 0 0
10098 0 0 0
10407 0 0 0
4640 0 0 0
4641 0 0 0
4599 0 0 0
4600 0 0 0
4602 0 0 0
4883 0 0 0
4533 0 0 0
4534 0 0 0
4536 0 0 0
4817 0 0 0
4467 0 0 0
4468 0 0 0
4470 0 0 0
4751 0 0 0
4401 0 0 0
4402 0 0 0
4404 0 0 0
4685 0 0 0
10009 0 0 0
10010 0 0 0
10011 0 0 0
10014 0 0 0
10042 0 0 0
4612 0 0 0
4546 0 0 0
4547 0 0 0
4548 0 0 0
4551 0 0 0
4559 0 0 0
4480 0 0 0
4481 0 0 0
4482 0 0 0
4485 0 0 0
4493 0 0 0
4414 0 0 0
4415 0 0 0
4416 0 0 0
4419 0 0 0
4427 0 0 0
4348 0 0 0
4349 0 0 0
4350 0 0 0
4353 0 0 0
4361 0 0 0
10016 0 0 0
10017 0 0 0
10057 0 0 0
4620 0 0 0
4561 0 0 0
4563 0 0 0
4564 0 0 0
4495 0 0 0
4497 0 0 0
4498 0 0 0
4429 0 0 0
4431 0 0 0
4432 0 0 0
4363 0 0 0
4365 0 0 0
4366 0 0 0
10018 0 0 0
10025 0 0 0
10058 0 0 0
10080 0 0 0
4621 0 0 0
4632 0 0 0
4562 0 0 0
4567 0 0 0
4582 0 0 0
4584 0 0 0
4496 0 0 0
4501 0 0 0
4516 0 0 0
4518 0 0 0
4430 0 0 0
4435 0 0 0
4450 0 0 0
4452 0 0 0
4364 0 0 0
4369 0 0 0
4384 0 0 0
4386 0 0 0
10027 0 0 0
10028 0 0 0
10081 0 0 0
10405 0 0 0
10406 0 0 0
4633 0 0 0
4585 0 0 0
4586 0 0 0
4587 0 0 0
4880 0 0 0
4882 0 0 0
4519 0 0 0
4520 0 0 0
4521 0 0 0
4814 0 0 0
4816 0 0 0
4453 0 0 0
4454 0 0 0
4455 0 0 0
4748 0 0 0
4750 0 0 0
4387 0 0 0
4388 0 0 0
4389 0 0 0
4682 0 0 0
4684 0 0 0
10422 0 0 0
10441 0 0 0
10450 0 0 0
10472 0 0 0
10473 0 0 0
4945 0 0 0
4949 0 0 0
4960 0 0 0
4961 0 0 0
4879 0 0 0
4888 0 0 0
4910 0 0 0
4911 0 0 0
4913 0 0 0
4813 0 0 0
4822 0 0 0
4844 0 0 0
4845 0 0 0
4847 0 0 0
4747 0 0 0
4756 0 0 0
4778 0 0 0
4779 0 0 0
4781 0 0 0
4681 0 0 0
4690 0 0 0
4712 0 0 0
4713 0 0 0
4715 0 0 0
10431 0 0 0
10451 0 0 0
10492 0 0 0
10433 0 0 0
4950 0 0 0
4969 0 0 0
4889 0 0 0
4929 0 0 0
4930 0 0 0
4933 0 0 0
4823 0 0 0
4863 0 0 0
4864 0 0 0
4867 0 0 0
4757 0 0 0
4797 0 0 0
4798 0 0 0
4801 0 0 0
4691 0 0 0
4731 0 0 0
4732 0 0 0
4735 0 0 0
10438 0 0 0
10468 0 0 0
10493 0 0 0
4958 0 0 0
4970 0 0 0
4906 0 0 0
4931 0 0 0
4941 0 0 0
4840 0 0 0
4865 0 0 0
4875 0 0 0
4774 0 0 0
4799 0 0 0
4809 0 0 0
4708 0 0 0
4733 0 0 0
4743 0 0 0
10440 0 0 0
10469 0 0 0
10504 0 0 0
10820 0 0 0
10835 0 0 0
4959 0 0 0
4974 0 0 0
5162 0 0 0
5171 0 0 0
4907 0 0 0
4942 0 0 0
4944 0 0 0
5120 0 0 0
5135 0 0 0
4841 0 0 0
4876 0 0 0
4878 0 0 0
5078 0 0 0
5093 0 0 0
4775 0 0 0
4810 0 0 0
4812 0 0 0
5036 0 0 0
5051 0 0 0
4709 0 0 0
4744 0 0 0
4746 0 0 0
4994 0 0 0
5009 0 0 0
10414 0 0 0
10421 0 0 0
10453 0 0 0
10476 0 0 0
4951 0 0 0
4962 0 0 0
4891 0 0 0
4897 0 0 0
4912 0 0 0
4914 0 0 0
4825 0 0 0
4831 0 0 0
4846 0 0 0
4848 0 0 0
4759 0 0 0
4765 0 0 0
4780 0 0 0
4782 0 0 0
4693 0 0 0
4699 0 0 0
4714 0 0 0
4716 0 0 0
10423 0 0 0
10424 0 0 0
10477 0 0 0
10426 0 0 0
10432 0 0 0
4963 0 0 0
4915 0 0 0
4916 0 0 0
4917 0 0 0
4921 0 0 0
4932 0 0 0
4849 0 0 0
4850 0 0 0
4851 0 0 0
4855 0 0 0
4866 0 0 0
4783 0 0 0
4784 0 0 0
4785 0 0 0
4789 0 0 0
4800 0 0 0
4717 0 0 0
4718 0 0 0
4719 0 0 0
4723 0 0 0
4734 0 0 0
10434 0 0 0
10435 0 0 0
10496 0 0 0
4971 0 0 0
4934 0 0 0
4936 0 0 0
4937 0 0 0
4868 0 0 0
4870 0 0 0
4871 0 0 0
4802 0 0 0
4804 0 0 0
4805 0 0 0
4736 0 0 0
4738 0 0 0
4739 0 0 0
10437 0 0 0
10439 0 0 0
10497 0 0 0
10836 0 0 0
4972 0 0 0
5172 0 0 0
4935 0 0 0
4940 0 0 0
4943 0 0 0
5136 0 0 0
4869 0 0 0
4874 0 0 0
4877 0 0 0
5094 0 0 0
4803 0 0 0
4808 0 0 0
4811 0 0 0
5052 0 0 0
4737 0 0 0
4742 0 0 0
4745 0 0 0
5010 0 0 0
10413 0 0 0
10443 0 0 0
10456 0 0 0
10457 0 0 0
10460 0 0 0
4946 0 0 0
4952 0 0 0
4953 0 0 0
4954 0 0 0
4881 0 0 0
4894 0 0 0
4895 0 0 0
4896 0 0 0
4898 0 0 0
4815 0 0 0
4828 0 0 0
4829 0 0 0
4830 0 0 0
4832 0 0 0
4749 0 0 0
4762 0 0 0
4763 0 0 0
4764 0 0 0
4766 0 0 0
4683 0 0 0
4696 0 0 0
4697 0 0 0
4698 0 0 0
4700 0 0 0
10416 0 0 0
10461 0 0 0
10480 0 0 0
10425 0 0 0
4955 0 0 0
4964 0 0 0
4899 0 0 0
4901 0 0 0
4918 0 0 0
4920 0 0 0
4833 0 0 0
4835 0 0 0
4852 0 0 0
4854 0 0 0
4767 0 0 0
4769 0 0 0
4786 0 0 0
4788 0 0 0
4701 0 0 0
4703 0 0 0
4720 0 0 0
4722 0 0 0
10428 0 0 0
10481 0 0 0
10484 0 0 0
4965 0 0 0
4966 0 0 0
4919 0 0 0
4922 0 0 0
4925 0 0 0
4853 0 0 0
4856 0 0 0
4859 0 0 0
4787 0 0 0
4790 0 0 0
4793 0 0 0
4721 0 0 0
4724 0 0 0
4727 0 0 0
10436 0 0 0
10485 0 0 0
10500 0 0 0
10823 0 0 0
10824 0 0 0
4967 0 0 0
4973 0 0 0
5164 0 0 0
5165 0 0 0
4923 0 0 0
4938 0 0 0
4939 0 0 0
5123 0 0 0
5124 0 0 0
4857 0 0 0
4872 0 0 0
4873 0 0 0
5081 0 0 0
5082 0 0 0
4791 0 0 0
4806 0 0 0
4807 0 0 0
5039 0 0 0
5040 0 0 0
4725 0 0 0
4740 0 0 0
4741 0 0 0
4997 0 0 0
4998 0 0 0
10408 0 0 0
10409 0 0 0
10446 0 0 0
10447 0 0 0
4947 0 0 0
4948 0 0 0
4884 0 0 0
4885 0 0 0
4886 0 0 0
4887 0 0 0
4818 0 0 0
4819 0 0 0
4820 0 0 0
4821 0 0 0
4752 0 0 0
4753 0 0 0
4754 0 0 0
4755 0 0 0
4686 0 0 0
4687 0 0 0
4688 0 0 0
4689 0 0 0
10410 0 0 0
10415 0 0 0
10464 0 0 0
10417 0 0 0
10418 0 0 0
4956 0 0 0
4890 0 0 0
4900 0 0 0
4902 0 0 0
4904 0 0 0
4905 0 0 0
4824 0 0 0
4834 0 0 0
4836 0 0 0
4838 0 0 0
4839 0 0 0
4758 0 0 0
4768 0 0 0
4770 0 0 0
4772 0 0 0
4773 0 0 0
4692 0 0 0
4702 0 0 0
4704 0 0 0
4706 0 0 0
4707 0 0 0
10419 0 0 0
10427 0 0 0
10465 0 0 0
4957 0 0 0
4903 0 0 0
4908 0 0 0
4924 0 0 0
4837 0 0 0
4842 0 0 0
4858 0 0 0
4771 0 0 0
4776 0 0 0
4792 0 0 0
4705 0 0 0
4710 0 0 0
4726 0 0 0
10429 0 0 0
10430 0 0 0
10488 0 0 0
10819 0 0 0
4968 0 0 0
5161 0 0 0
4926 0 0 0
4927 0 0 0
4928 0 0 0
5119 0 0 0
4860 0 0 0
4861 0 0 0
4862 0 0 0
5077 0 0 0
4794 0 0 0
4795 0 0 0
4796 0 0 0
5035 0 0 0
4728 0 0 0
4729 0 0 0
4730 0 0 0
4993 0 0 0
10813 0 0 0
10815 0 0 0
10821 0 0 0
10850 0 0 0
5163 0 0 0
5179 0 0 0
5121 0 0 0
5149 0 0 0
5150 0 0 0
5153 0 0 0
5079 0 0 0
5107 0 0 0
5108 0 0 0
5111 0 0 0
5037 0 0 0
5065 0 0 0
5066 0 0 0
5069 0 0 0
4995 0 0 0
5023 0 0 0
5024 0 0 0
5027 0 0 0
10818 0 0 0
10832 0 0 0
10833 0 0 0
10851 0 0 0
10860 0 0 0
5169 0 0 0
5170 0 0 0
5180 0 0 0
5184 0 0 0
5132 0 0 0
5133 0 0 0
5151 0 0 0
5159 0 0 0
5160 0 0 0
5090 0 0 0
5091 0 0 0
5109 0 0 0
5117 0 0 0
5118 0 0 0
5048 0 0 0
5049 0 0 0
5067 0 0 0
5075 0 0 0
5076 0 0 0
5006 0 0 0
5007 0 0 0
5025 0 0 0
5033 0 0 0
5034 0 0 0
10807 0 0 0
10808 0 0 0
10810 0 0 0
10814 0 0 0
10837 0 0 0
5173 0 0 0
5137 0 0 0
5138 0 0 0
5139 0 0 0
5143 0 0 0
5152 0 0 0
5095 0 0 0
5096 0 0 0
5097 0 0 0
5101 0 0 0
5110 0 0 0
5053 0 0 0
5054 0 0 0
5055 0 0 0
5059 0 0 0
5068 0 0 0
5011 0 0 0
5012 0 0 0
5013 0 0 0
5017 0 0 0
5026 0 0 0
10816 0 0 0
10817 0 0 0
10854 0 0 0
10855 0 0 0
5181 0 0 0
5182 0 0 0
5154 0 0 0
5155 0 0 0
5156 0 0 0
5157 0 0 0
5112 0 0 0
5113 0 0 0
5114 0 0 0
5115 0 0 0
5070 0 0 0
5071 0 0 0
5072 0 0 0
5073 0 0 0
5028 0 0 0
5029 0 0 0
5030 0 0 0
5031 0 0 0
10803 0 0 0
10809 0 0 0
10825 0 0 0
10840 0 0 0
5166 0 0 0
5174 0 0 0
5125 0 0 0
5127 0 0 0
5140 0 0 0
5142 0 0 0
5083 0 0 0
5085 0 0 0
5098 0 0 0
5100 0 0 0
5041 0 0 0
5043 0 0 0
5056 0 0 0
5058 0 0 0
4999 0 0 0
5001 0 0 0
5014 0 0 0
5016 0 0 0
10812 0 0 0
10841 0 0 0
10844 0 0 0
10845 0 0 0
10858 0 0 0
5175 0 0 0
5176 0 0 0
5177 0 0 0
5183 0 0 0
5141 0 0 0
5144 0 0 0
5145 0 0 0
5147 0 0 0
5158 0 0 0
5099 0 0 0
5102 0 0 0
5103 0 0 0
5105 0 0 0
5116 0 0 0
5057 0 0 0
5060 0 0 0
5061 0 0 0
5063 0 0 0
5074 0 0 0
5015 0 0 0
5018 0 0 0
5019 0 0 0
5021 0 0 0
5032 0 0 0
10801 0 0 0
10802 0 0 0
10804 0 0 0
10805 0 0 0
10828 0 0 0
5167 0 0 0
5122 0 0 0
5126 0 0 0
5128 0 0 0
5130 0 0 0
5131 0 0 0
5080 0 0 0
5084 0 0 0
5086 0 0 0
5088 0 0 0
5089 0 0 0
5038 0 0 0
5042 0 0 0
5044 0 0 0
5046 0 0 0
5047 0 0 0
4996 0 0 0
5000 0 0 0
5002 0 0 0
5004 0 0 0
5005 0 0 0
10806 0 0 0
10811 0 0 0
10829 0 0 0
10848 0 0 0
5168 0 0 0
5178 0 0 0
5129 0 0 0
5134 0 0 0
5146 0 0 0
5148 0 0 0
5087 0 0 0
5092 0 0 0
5104 0 0 0
5106 0 0 0
5045 0 0 0
5050 0 0 0
5062 0 0 0
5064 0 0 0
5003 0 0 0
5008 0 0 0
5020 0 0 0
5022 0 0 0
5344 0 0 0
5345 0 0 0
5391 0 0 0
5289 0 0 0
5303 0 0 0
5343 0 0 0
5349 0 0 0
5359 0 0 0
5360 0 0 0
5304 0 0 0
5306 0 0 0
5307 0 0 0
5247 0 0 0
5248 0 0 0
5249 0 0 0
5253 0 0 0
5263 0 0 0
5305 0 0 0
5204 0 0 0
5214 0 0 0
5264 0 0 0
5189 0 0 0
5190 0 0 0
5215 0 0 0
5216 0 0 0
5217 0 0 0
5218 0 0 0
5395 0 0 0
5401 0 0 0
5402 0 0 0
5404 0 0 0
5405 0 0 0
5362 0 0 0
5363 0 0 0
5367 0 0 0
5369 0 0 0
5403 0 0 0
5311 0 0 0
5317 0 0 0
5361 0 0 0
5370 0 0 0
5318 0 0 0
5319 0 0 0
5320 0 0 0
5321 0 0 0
5265 0 0 0
5266 0 0 0
5267 0 0 0
5271 0 0 0
5273 0 0 0
5221 0 0 0
5224 0 0 0
5225 0 0 0
5226 0 0 0
5274 0 0 0
5331 0 0 0
5380 0 0 0
5392 0 0 0
5288 0 0 0
5329 0 0 0
5346 0 0 0
5347 0 0 0
5348 0 0 0
5350 0 0 0
5287 0 0 0
5290 0 0 0
5293 0 0 0
5233 0 0 0
5235 0 0 0
5250 0 0 0
5252 0 0 0
5291 0 0 0
5308 0 0 0
5203 0 0 0
5251 0 0 0
5254 0 0 0
5188 0 0 0
5202 0 0 0
5205 0 0 0
5206 0 0 0
5208 0 0 0
5219 0 0 0
5393 0 0 0
5394 0 0 0
5396 0 0 0
5399 0 0 0
5353 0 0 0
5366 0 0 0
5397 0 0 0
5406 0 0 0
5310 0 0 0
5351 0 0 0
5364 0 0 0
5365 0 0 0
5368 0 0 0
5309 0 0 0
5312 0 0 0
5313 0 0 0
5315 0 0 0
5322 0 0 0
5255 0 0 0
5257 0 0 0
5268 0 0 0
5270 0 0 0
5220 0 0 0
5223 0 0 0
5269 0 0 0
5272 0 0 0
5325 0 0 0
5330 0 0 0
5381 0 0 0
5278 0 0 0
5279 0 0 0
5332 0 0 0
5333 0 0 0
5334 0 0 0
5335 0 0 0
5277 0 0 0
5283 0 0 0
5292 0 0 0
5229 0 0 0
5234 0 0 0
5236 0 0 0
5238 0 0 0
5239 0 0 0
5294 0 0 0
5194 0 0 0
5195 0 0 0
5237 0 0 0
5186 0 0 0
5187 0 0 0
5193 0 0 0
5199 0 0 0
5207 0 0 0
5209 0 0 0
5382 0 0 0
5383 0 0 0
5384 0 0 0
5388 0 0 0
5398 0 0 0
5339 0 0 0
5352 0 0 0
5356 0 0 0
5357 0 0 0
5400 0 0 0
5296 0 0 0
5297 0 0 0
5354 0 0 0
5355 0 0 0
5295 0 0 0
5301 0 0 0
5314 0 0 0
5316 0 0 0
5243 0 0 0
5256 0 0 0
5258 0 0 0
5260 0 0 0
5261 0 0 0
5210 0 0 0
5211 0 0 0
5213 0 0 0
5222 0 0 0
5259 0 0 0
5324 0 0 0
5374 0 0 0
5375 0 0 0
5276 0 0 0
5323 0 0 0
5326 0 0 0
5327 0 0 0
5328 0 0 0
5336 0 0 0
5275 0 0 0
5280 0 0 0
5282 0 0 0
5227 0 0 0
5228 0 0 0
5230 0 0 0
5232 0 0 0
5281 0 0 0
5284 0 0 0
5192 0 0 0
5231 0 0 0
5240 0 0 0
5185 0 0 0
5191 0 0 0
5196 0 0 0
5197 0 0 0
5198 0 0 0
5200 0 0 0
5376 0 0 0
5377 0 0 0
5385 0 0 0
5387 0 0 0
5338 0 0 0
5342 0 0 0
5386 0 0 0
5389 0 0 0
5286 0 0 0
5337 0 0 0
5340 0 0 0
5341 0 0 0
5358 0 0 0
5285 0 0 0
5298 0 0 0
5299 0 0 0
5300 0 0 0
5302 0 0 0
5241 0 0 0
5242 0 0 0
5244 0 0 0
5246 0 0 0
5201 0 0 0
5212 0 0 0
5245 0 0 0
5262 0 0 0
5681 0 0 0
5685 0 0 0
5701 0 0 0
5702 0 0 0
5595 0 0 0
5611 0 0 0
5612 0 0 0
5614 0 0 0
5615 0 0 0
5518 0 0 0
5519 0 0 0
5523 0 0 0
5539 0 0 0
5613 0 0 0
5451 0 0 0
5466 0 0 0
5517 0 0 0
5540 0 0 0
5467 0 0 0
5468 0 0 0
5469 0 0 0
5470 0 0 0
5426 0 0 0
5427 0 0 0
5428 0 0 0
5431 0 0 0
5434 0 0 0
5704 0 0 0
5705 0 0 0
5619 0 0 0
5635 0 0 0
5703 0 0 0
5636 0 0 0
5541 0 0 0
5542 0 0 0
5543 0 0 0
5474 0 0 0
5484 0 0 0
5435 0 0 0
5436 0 0 0
5485 0 0 0
5765 0 0 0
5769 0 0 0
5779 0 0 0
5780 0 0 0
5709 0 0 0
5723 0 0 0
5724 0 0 0
5726 0 0 0
5727 0 0 0
5638 0 0 0
5639 0 0 0
5643 0 0 0
5653 0 0 0
5725 0 0 0
5547 0 0 0
5561 0 0 0
5637 0 0 0
5654 0 0 0
5562 0 0 0
5563 0 0 0
5564 0 0 0
5565 0 0 0
5486 0 0 0
5487 0 0 0
5488 0 0 0
5491 0 0 0
5494 0 0 0
5782 0 0 0
5783 0 0 0
5801 0 0 0
5731 0 0 0
5737 0 0 0
5781 0 0 0
5787 0 0 0
5789 0 0 0
5790 0 0 0
5738 0 0 0
5740 0 0 0
5741 0 0 0
5655 0 0 0
5656 0 0 0
5657 0 0 0
5661 0 0 0
5663 0 0 0
5739 0 0 0
5569 0 0 0
5575 0 0 0
5664 0 0 0
5495 0 0 0
5496 0 0 0
5576 0 0 0
5577 0 0 0
5578 0 0 0
5579 0 0 0
5669 0 0 0
5682 0 0 0
5683 0 0 0
5684 0 0 0
5686 0 0 0
5593 0 0 0
5594 0 0 0
5596 0 0 0
5599 0 0 0
5505 0 0 0
5522 0 0 0
5597 0 0 0
5616 0 0 0
5450 0 0 0
5503 0 0 0
5520 0 0 0
5521 0 0 0
5524 0 0 0
5449 0 0 0
5452 0 0 0
5453 0 0 0
5455 0 0 0
5471 0 0 0
5418 0 0 0
5420 0 0 0
5429 0 0 0
5430 0 0 0
5689 0 0 0
5618 0 0 0
5687 0 0 0
5706 0 0 0
5617 0 0 0
5620 0 0 0
5525 0 0 0
5527 0 0 0
5544 0 0 0
5473 0 0 0
5433 0 0 0
5472 0 0 0
5475 0 0 0
5752 0 0 0
5766 0 0 0
5767 0 0 0
5768 0 0 0
5770 0 0 0
5707 0 0 0
5708 0 0 0
5710 0 0 0
5713 0 0 0
5623 0 0 0
5642 0 0 0
5711 0 0 0
5728 0 0 0
5546 0 0 0
5621 0 0 0
5640 0 0 0
5641 0 0 0
5644 0 0 0
5545 0 0 0
5548 0 0 0
5549 0 0 0
5551 0 0 0
5566 0 0 0
5476 0 0 0
5478 0 0 0
5489 0 0 0
5490 0 0 0
5773 0 0 0
5798 0 0 0
5802 0 0 0
5730 0 0 0
5771 0 0 0
5784 0 0 0
5785 0 0 0
5786 0 0 0
5788 0 0 0
5729 0 0 0
5732 0 0 0
5735 0 0 0
5645 0 0 0
5647 0 0 0
5658 0 0 0
5660 0 0 0
5733 0 0 0
5742 0 0 0
5568 0 0 0
5659 0 0 0
5662 0 0 0
5493 0 0 0
5567 0 0 0
5570 0 0 0
5571 0 0 0
5573 0 0 0
5580 0 0 0
5670 0 0 0
5671 0 0 0
5672 0 0 0
5673 0 0 0
5583 0 0 0
5584 0 0 0
5585 0 0 0
5589 0 0 0
5598 0 0 0
5499 0 0 0
5504 0 0 0
5508 0 0 0
5509 0 0 0
5600 0 0 0
5440 0 0 0
5441 0 0 0
5506 0 0 0
5507 0 0 0
5439 0 0 0
5445 0 0 0
5454 0 0 0
5456 0 0 0
5415 0 0 0
5419 0 0 0
5421 0 0 0
5422 0 0 0
5423 0 0 0
5677 0 0 0
5688 0 0 0
5602 0 0 0
5603 0 0 0
5690 0 0 0
5601 0 0 0
5513 0 0 0
5526 0 0 0
5528 0 0 0
5458 0 0 0
5459 0 0 0
5425 0 0 0
5432 0 0 0
5457 0 0 0
5753 0 0 0
5754 0 0 0
5755 0 0 0
5756 0 0 0
5691 0 0 0
5692 0 0 0
5693 0 0 0
5697 0 0 0
5712 0 0 0
5607 0 0 0
5622 0 0 0
5626 0 0 0
5627 0 0 0
5714 0 0 0
5530 0 0 0
5531 0 0 0
5624 0 0 0
5625 0 0 0
5529 0 0 0
5535 0 0 0
5550 0 0 0
5552 0 0 0
5463 0 0 0
5477 0 0 0
5479 0 0 0
5480 0 0 0
5481 0 0 0
5760 0 0 0
5772 0 0 0
5799 0 0 0
5716 0 0 0
5717 0 0 0
5774 0 0 0
5775 0 0 0
5776 0 0 0
5777 0 0 0
5715 0 0 0
5721 0 0 0
5734 0 0 0
5631 0 0 0
5646 0 0 0
5648 0 0 0
5650 0 0 0
5651 0 0 0
5736 0 0 0
5554 0 0 0
5555 0 0 0
5649 0 0 0
5483 0 0 0
5492 0 0 0
5553 0 0 0
5559 0 0 0
5572 0 0 0
5574 0 0 0
5665 0 0 0
5666 0 0 0
5667 0 0 0
5668 0 0 0
5674 0 0 0
5581 0 0 0
5582 0 0 0
5586 0 0 0
5588 0 0 0
5498 0 0 0
5502 0 0 0
5587 0 0 0
5590 0 0 0
5438 0 0 0
5497 0 0 0
5500 0 0 0
5501 0 0 0
5510 0 0 0
5437 0 0 0
5442 0 0 0
5443 0 0 0
5444 0 0 0
5446 0 0 0
5413 0 0 0
5414 0 0 0
5416 0 0 0
5417 0 0 0
5676 0 0 0
5592 0 0 0
5675 0 0 0
5678 0 0 0
5591 0 0 0
5604 0 0 0
5511 0 0 0
5512 0 0 0
5514 0 0 0
5448 0 0 0
5424 0 0 0
5447 0 0 0
5460 0 0 0
5746 0 0 0
5747 0 0 0
5748 0 0 0
5749 0 0 0
5757 0 0 0
5679 0 0 0
5680 0 0 0
5694 0 0 0
5696 0 0 0
5606 0 0 0
5610 0 0 0
5695 0 0 0
5698 0 0 0
5516 0 0 0
5605 0 0 0
5608 0 0 0
5609 0 0 0
5628 0 0 0
5515 0 0 0
5532 0 0 0
5533 0 0 0
5534 0 0 0
5536 0 0 0
5461 0 0 0
5462 0 0 0
5464 0 0 0
5465 0 0 0
5759 0 0 0
5794 0 0 0
5795 0 0 0
5700 0 0 0
5758 0 0 0
5761 0 0 0
5762 0 0 0
5763 0 0 0
5778 0 0 0
5699 0 0 0
5718 0 0 0
5720 0 0 0
5629 0 0 0
5630 0 0 0
5632 0 0 0
5634 0 0 0
5719 0 0 0
5722 0 0 0
5538 0 0 0
5633 0 0 0
5652 0 0 0
5482 0 0 0
5537 0 0 0
5556 0 0 0
5557 0 0 0
5558 0 0 0
5560 0 0 0
6039 0 0 0
6055 0 0 0
6056 0 0 0
5962 0 0 0
5963 0 0 0
5877 0 0 0
5893 0 0 0
5961 0 0 0
5894 0 0 0
5834 0 0 0
5835 0 0 0
5836 0 0 0
5809 0 0 0
5812 0 0 0
6058 0 0 0
6059 0 0 0
6131 0 0 0
5967 0 0 0
5983 0 0 0
6057 0 0 0
6063 0 0 0
6079 0 0 0
6080 0 0 0
5984 0 0 0
5986 0 0 0
5987 0 0 0
5895 0 0 0
5896 0 0 0
5897 0 0 0
5901 0 0 0
5916 0 0 0
5985 0 0 0
5840 0 0 0
5850 0 0 0
5917 0 0 0
5813 0 0 0
5814 0 0 0
5851 0 0 0
5852 0 0 0
5853 0 0 0
5854 0 0 0
6135 0 0 0
6149 0 0 0
6150 0 0 0
6152 0 0 0
6153 0 0 0
6082 0 0 0
6083 0 0 0
6087 0 0 0
6097 0 0 0
6151 0 0 0
5991 0 0 0
6005 0 0 0
6081 0 0 0
6098 0 0 0
6006 0 0 0
6007 0 0 0
6008 0 0 0
6009 0 0 0
5918 0 0 0
5919 0 0 0
5920 0 0 0
5924 0 0 0
5932 0 0 0
5857 0 0 0
5860 0 0 0
5861 0 0 0
5862 0 0 0
5933 0 0 0
6185 0 0 0
6157 0 0 0
6163 0 0 0
6164 0 0 0
6100 0 0 0
6101 0 0 0
6013 0 0 0
6019 0 0 0
6099 0 0 0
6020 0 0 0
5934 0 0 0
5935 0 0 0
5936 0 0 0
6037 0 0 0
6038 0 0 0
6040 0 0 0
5949 0 0 0
5876 0 0 0
5947 0 0 0
5964 0 0 0
5875 0 0 0
5878 0 0 0
5821 0 0 0
5823 0 0 0
5837 0 0 0
5808 0 0 0
6043 0 0 0
6118 0 0 0
6132 0 0 0
5966 0 0 0
6041 0 0 0
6060 0 0 0
6061 0 0 0
6062 0 0 0
6064 0 0 0
5965 0 0 0
5968 0 0 0
5971 0 0 0
5879 0 0 0
5881 0 0 0
5898 0 0 0
5900 0 0 0
5969 0 0 0
5988 0 0 0
5839 0 0 0
5899 0 0 0
5902 0 0 0
5811 0 0 0
5838 0 0 0
5841 0 0 0
5842 0 0 0
5844 0 0 0
5855 0 0 0
6133 0 0 0
6134 0 0 0
6136 0 0 0
6139 0 0 0
6067 0 0 0
6086 0 0 0
6137 0 0 0
6154 0 0 0
5990 0 0 0
6065 0 0 0
6084 0 0 0
6085 0 0 0
6088 0 0 0
5989 0 0 0
5992 0 0 0
5993 0 0 0
5995 0 0 0
6010 0 0 0
5903 0 0 0
5905 0 0 0
5921 0 0 0
5923 0 0 0
5856 0 0 0
5859 0 0 0
5922 0 0 0
5925 0 0 0
6178 0 0 0
6186 0 0 0
6155 0 0 0
6156 0 0 0
6158 0 0 0
6091 0 0 0
6012 0 0 0
6089 0 0 0
6102 0 0 0
6011 0 0 0
6014 0 0 0
5926 0 0 0
5928 0 0 0
5937 0 0 0
6027 0 0 0
6028 0 0 0
6029 0 0 0
5943 0 0 0
5948 0 0 0
5866 0 0 0
5867 0 0 0
5950 0 0 0
5865 0 0 0
5817 0 0 0
5822 0 0 0
5824 0 0 0
5804 0 0 0
5805 0 0 0
6033 0 0 0
6042 0 0 0
6119 0 0 0
5952 0 0 0
5953 0 0 0
6044 0 0 0
6045 0 0 0
6046 0 0 0
6047 0 0 0
5951 0 0 0
5957 0 0 0
5970 0 0 0
5871 0 0 0
5880 0 0 0
5882 0 0 0
5884 0 0 0
5885 0 0 0
5972 0 0 0
5826 0 0 0
5827 0 0 0
5883 0 0 0
5807 0 0 0
5810 0 0 0
5825 0 0 0
5831 0 0 0
5843 0 0 0
5845 0 0 0
6120 0 0 0
6121 0 0 0
6122 0 0 0
6126 0 0 0
6138 0 0 0
6051 0 0 0
6066 0 0 0
6070 0 0 0
6071 0 0 0
6140 0 0 0
5974 0 0 0
5975 0 0 0
6068 0 0 0
6069 0 0 0
5973 0 0 0
5979 0 0 0
5994 0 0 0
5996 0 0 0
5889 0 0 0
5904 0 0 0
5906 0 0 0
5908 0 0 0
5909 0 0 0
5846 0 0 0
5847 0 0 0
5849 0 0 0
5858 0 0 0
5907 0 0 0
6179 0 0 0
6141 0 0 0
6142 0 0 0
6143 0 0 0
6075 0 0 0
6090 0 0 0
5998 0 0 0
5999 0 0 0
6092 0 0 0
5997 0 0 0
5913 0 0 0
5927 0 0 0
5929 0 0 0
6025 0 0 0
6026 0 0 0
6030 0 0 0
5942 0 0 0
5864 0 0 0
5941 0 0 0
5944 0 0 0
5863 0 0 0
5868 0 0 0
5815 0 0 0
5816 0 0 0
5818 0 0 0
5803 0 0 0
6032 0 0 0
6112 0 0 0
6113 0 0 0
5946 0 0 0
6031 0 0 0
6034 0 0 0
6035 0 0 0
6036 0 0 0
6048 0 0 0
5945 0 0 0
5954 0 0 0
5956 0 0 0
5869 0 0 0
5870 0 0 0
5872 0 0 0
5874 0 0 0
5955 0 0 0
5958 0 0 0
5820 0 0 0
5873 0 0 0
5886 0 0 0
5806 0 0 0
5819 0 0 0
5828 0 0 0
5829 0 0 0
5830 0 0 0
5832 0 0 0
6114 0 0 0
6115 0 0 0
6123 0 0 0
6125 0 0 0
6050 0 0 0
6054 0 0 0
6124 0 0 0
6127 0 0 0
5960 0 0 0
6049 0 0 0
6052 0 0 0
6053 0 0 0
6072 0 0 0
5959 0 0 0
5976 0 0 0
5977 0 0 0
5978 0 0 0
5980 0 0 0
5887 0 0 0
5888 0 0 0
5890 0 0 0
5892 0 0 0
5833 0 0 0
5848 0 0 0
5891 0 0 0
5910 0 0 0
6172 0 0 0
6173 0 0 0
6128 0 0 0
6129 0 0 0
6144 0 0 0
6074 0 0 0
5982 0 0 0
6073 0 0 0
6076 0 0 0
5981 0 0 0
6000 0 0 0
5911 0 0 0
5912 0 0 0
5914 0 0 0
6189 0 0 0
6191 0 0 0
6192 0 0 0
6412 0 0 0
6413 0 0 0
6166 0 0 0
6167 0 0 0
6321 0 0 0
6337 0 0 0
6411 0 0 0
6105 0 0 0
6107 0 0 0
6165 0 0 0
6338 0 0 0
6108 0 0 0
6255 0 0 0
6256 0 0 0
6257 0 0 0
6021 0 0 0
6022 0 0 0
6023 0 0 0
6212 0 0 0
6222 0 0 0
5939 0 0 0
5940 0 0 0
6197 0 0 0
6198 0 0 0
6223 0 0 0
6493 0 0 0
6497 0 0 0
6513 0 0 0
6514 0 0 0
6417 0 0 0
6433 0 0 0
6434 0 0 0
6436 0 0 0
6437 0 0 0
6340 0 0 0
6341 0 0 0
6345 0 0 0
6361 0 0 0
6435 0 0 0
6261 0 0 0
6276 0 0 0
6339 0 0 0
6362 0 0 0
6277 0 0 0
6278 0 0 0
6279 0 0 0
6280 0 0 0
6224 0 0 0
6225 0 0 0
6226 0 0 0
6229 0 0 0
6232 0 0 0
6516 0 0 0
6517 0 0 0
6563 0 0 0
6441 0 0 0
6455 0 0 0
6515 0 0 0
6521 0 0 0
6531 0 0 0
6532 0 0 0
6456 0 0 0
6458 0 0 0
6459 0 0 0
6363 0 0 0
6364 0 0 0
6365 0 0 0
6369 0 0 0
6379 0 0 0
6457 0 0 0
6284 0 0 0
6294 0 0 0
6380 0 0 0
6233 0 0 0
6234 0 0 0
6295 0 0 0
6296 0 0 0
6297 0 0 0
6298 0 0 0
6567 0 0 0
6573 0 0 0
6574 0 0 0
6534 0 0 0
6535 0 0 0
6463 0 0 0
6469 0 0 0
6533 0 0 0
6470 0 0 0
6381 0 0 0
6382 0 0 0
6383 0 0 0
6301 0 0 0
6304 0 0 0
6187 0 0 0
6188 0 0 0
6190 0 0 0
6399 0 0 0
6161 0 0 0
6320 0 0 0
6397 0 0 0
6414 0 0 0
6104 0 0 0
6159 0 0 0
6168 0 0 0
6319 0 0 0
6322 0 0 0
6103 0 0 0
6106 0 0 0
6241 0 0 0
6243 0 0 0
6258 0 0 0
6015 0 0 0
6017 0 0 0
6024 0 0 0
6211 0 0 0
5938 0 0 0
6196 0 0 0
6210 0 0 0
6213 0 0 0
6481 0 0 0
6494 0 0 0
6495 0 0 0
6496 0 0 0
6498 0 0 0
6415 0 0 0
6416 0 0 0
6418 0 0 0
6421 0 0 0
6325 0 0 0
6344 0 0 0
6419 0 0 0
6438 0 0 0
6260 0 0 0
6323 0 0 0
6342 0 0 0
6343 0 0 0
6346 0 0 0
6259 0 0 0
6262 0 0 0
6263 0 0 0
6265 0 0 0
6281 0 0 0
6214 0 0 0
6216 0 0 0
6227 0 0 0
6228 0 0 0
6501 0 0 0
6552 0 0 0
6564 0 0 0
6440 0 0 0
6499 0 0 0
6518 0 0 0
6519 0 0 0
6520 0 0 0
6522 0 0 0
6439 0 0 0
6442 0 0 0
6445 0 0 0
6347 0 0 0
6349 0 0 0
6366 0 0 0
6368 0 0 0
6443 0 0 0
6460 0 0 0
6283 0 0 0
6367 0 0 0
6370 0 0 0
6231 0 0 0
6282 0 0 0
6285 0 0 0
6286 0 0 0
6288 0 0 0
6299 0 0 0
6565 0 0 0
6566 0 0 0
6568 0 0 0
6525 0 0 0
6462 0 0 0
6523 0 0 0
6536 0 0 0
6461 0 0 0
6464 0 0 0
6371 0 0 0
6373 0 0 0
6384 0 0 0
6300 0 0 0
6180 0 0 0
6181 0 0 0
6182 0 0 0
6393 0 0 0
6398 0 0 0
6147 0 0 0
6160 0 0 0
6310 0 0 0
6311 0 0 0
6400 0 0 0
6094 0 0 0
6095 0 0 0
6162 0 0 0
6309 0 0 0
6093 0 0 0
6237 0 0 0
6242 0 0 0
6244 0 0 0
6003 0 0 0
6016 0 0 0
6018 0 0 0
6202 0 0 0
6203 0 0 0
5930 0 0 0
5931 0 0 0
6194 0 0 0
6195 0 0 0
6201 0 0 0
6482 0 0 0
6483 0 0 0
6484 0 0 0
6485 0 0 0
6401 0 0 0
6402 0 0 0
6403 0 0 0
6407 0 0 0
6420 0 0 0
6315 0 0 0
6324 0 0 0
6328 0 0 0
6329 0 0 0
6422 0 0 0
6246 0 0 0
6247 0 0 0
6326 0 0 0
6327 0 0 0
6245 0 0 0
6251 0 0 0
6264 0 0 0
6266 0 0 0
6207 0 0 0
6215 0 0 0
6217 0 0 0
6218 0 0 0
6219 0 0 0
6489 0 0 0
6500 0 0 0
6553 0 0 0
6424 0 0 0
6425 0 0 0
6502 0 0 0
6503 0 0 0
6504 0 0 0
6505 0 0 0
6423 0 0 0
6429 0 0 0
6444 0 0 0
6333 0 0 0
6348 0 0 0
6350 0 0 0
6352 0 0 0
6353 0 0 0
6446 0 0 0
6268 0 0 0
6269 0 0 0
6351 0 0 0
6221 0 0 0
6230 0 0 0
6267 0 0 0
6273 0 0 0
6287 0 0 0
6289 0 0 0
6554 0 0 0
6555 0 0 0
6556 0 0 0
6509 0 0 0
6524 0 0 0
6448 0 0 0
6449 0 0 0
6526 0 0 0
6447 0 0 0
6357 0 0 0
6372 0 0 0
6374 0 0 0
6290 0 0 0
6291 0 0 0
6174 0 0 0
6175 0 0 0
6183 0 0 0
6392 0 0 0
6146 0 0 0
6308 0 0 0
6391 0 0 0
6394 0 0 0
6078 0 0 0
6145 0 0 0
6148 0 0 0
6307 0 0 0
6312 0 0 0
6077 0 0 0
6096 0 0 0
6235 0 0 0
6236 0 0 0
6238 0 0 0
6001 0 0 0
6002 0 0 0
6004 0 0 0
6200 0 0 0
5915 0 0 0
6193 0 0 0
6199 0 0 0
6204 0 0 0
6476 0 0 0
6477 0 0 0
6478 0 0 0
6479 0 0 0
6486 0 0 0
6395 0 0 0
6396 0 0 0
6404 0 0 0
6406 0 0 0
6314 0 0 0
6318 0 0 0
6405 0 0 0
6408 0 0 0
6240 0 0 0
6313 0 0 0
6316 0 0 0
6317 0 0 0
6330 0 0 0
6239 0 0 0
6248 0 0 0
6249 0 0 0
6250 0 0 0
6252 0 0 0
6205 0 0 0
6206 0 0 0
6208 0 0 0
6209 0 0 0
6488 0 0 0
6546 0 0 0
6547 0 0 0
6410 0 0 0
6487 0 0 0
6490 0 0 0
6491 0 0 0
6492 0 0 0
6506 0 0 0
6409 0 0 0
6426 0 0 0
6428 0 0 0
6331 0 0 0
6332 0 0 0
6334 0 0 0
6336 0 0 0
6427 0 0 0
6430 0 0 0
6254 0 0 0
6335 0 0 0
6354 0 0 0
6220 0 0 0
6253 0 0 0
6270 0 0 0
6271 0 0 0
6272 0 0 0
6274 0 0 0
6548 0 0 0
6549 0 0 0
6557 0 0 0
6508 0 0 0
6432 0 0 0
6507 0 0 0
6510 0 0 0
6431 0 0 0
6450 0 0 0
6355 0 0 0
6356 0 0 0
6358 0 0 0
6275 0 0 0
6576 0 0 0
6577 0 0 0
6826 0 0 0
6539 0 0 0
6541 0 0 0
6575 0 0 0
6752 0 0 0
6768 0 0 0
6769 0 0 0
6542 0 0 0
6687 0 0 0
6688 0 0 0
6471 0 0 0
6472 0 0 0
6473 0 0 0
6620 0 0 0
6635 0 0 0
6686 0 0 0
6387 0 0 0
6389 0 0 0
6636 0 0 0
6305 0 0 0
6306 0 0 0
6390 0 0 0
6595 0 0 0
6596 0 0 0
6597 0 0 0
6830 0 0 0
6846 0 0 0
6847 0 0 0
6849 0 0 0
6850 0 0 0
6771 0 0 0
6772 0 0 0
6776 0 0 0
6790 0 0 0
6848 0 0 0
6692 0 0 0
6708 0 0 0
6770 0 0 0
6791 0 0 0
6709 0 0 0
6710 0 0 0
6711 0 0 0
6712 0 0 0
6637 0 0 0
6638 0 0 0
6639 0 0 0
6643 0 0 0
6653 0 0 0
6600 0 0 0
6603 0 0 0
6604 0 0 0
6605 0 0 0
6654 0 0 0
6896 0 0 0
6854 0 0 0
6864 0 0 0
6865 0 0 0
6793 0 0 0
6794 0 0 0
6716 0 0 0
6726 0 0 0
6792 0 0 0
6727 0 0 0
6655 0 0 0
6656 0 0 0
6657 0 0 0
6900 0 0 0
6906 0 0 0
6907 0 0 0
6909 0 0 0
6910 0 0 0
6867 0 0 0
6868 0 0 0
6872 0 0 0
6874 0 0 0
6908 0 0 0
6798 0 0 0
6804 0 0 0
6866 0 0 0
6875 0 0 0
6805 0 0 0
6806 0 0 0
6807 0 0 0
6808 0 0 0
6728 0 0 0
6729 0 0 0
6730 0 0 0
6734 0 0 0
6736 0 0 0
6660 0 0 0
6663 0 0 0
6664 0 0 0
6665 0 0 0
6737 0 0 0
6571 0 0 0
6814 0 0 0
6827 0 0 0
6538 0 0 0
6569 0 0 0
6578 0 0 0
6750 0 0 0
6751 0 0 0
6753 0 0 0
6537 0 0 0
6540 0 0 0
6674 0 0 0
6465 0 0 0
6467 0 0 0
6474 0 0 0
6619 0 0 0
6672 0 0 0
6689 0 0 0
6386 0 0 0
6618 0 0 0
6621 0 0 0
6303 0 0 0
6385 0 0 0
6388 0 0 0
6587 0 0 0
6589 0 0 0
6598 0 0 0
6828 0 0 0
6829 0 0 0
6831 0 0 0
6834 0 0 0
6756 0 0 0
6775 0 0 0
6832 0 0 0
6851 0 0 0
6691 0 0 0
6754 0 0 0
6773 0 0 0
6774 0 0 0
6777 0 0 0
6690 0 0 0
6693 0 0 0
6694 0 0 0
6696 0 0 0
6713 0 0 0
6622 0 0 0
6624 0 0 0
6640 0 0 0
6642 0 0 0
6599 0 0 0
6602 0 0 0
6641 0 0 0
6644 0 0 0
6885 0 0 0
6897 0 0 0
6852 0 0 0
6853 0 0 0
6855 0 0 0
6780 0 0 0
6715 0 0 0
6778 0 0 0
6795 0 0 0
6714 0 0 0
6717 0 0 0
6645 0 0 0
6647 0 0 0
6658 0 0 0
6898 0 0 0
6899 0 0 0
6901 0 0 0
6904 0 0 0
6858 0 0 0
6871 0 0 0
6902 0 0 0
6911 0 0 0
6797 0 0 0
6856 0 0 0
6869 0 0 0
6870 0 0 0
6873 0 0 0
6796 0 0 0
6799 0 0 0
6800 0 0 0
6802 0 0 0
6809 0 0 0
6718 0 0 0
6720 0 0 0
6731 0 0 0
6733 0 0 0
6659 0 0 0
6662 0 0 0
6732 0 0 0
6735 0 0 0
6560 0 0 0
6570 0 0 0
6815 0 0 0
6528 0 0 0
6529 0 0 0
6572 0 0 0
6740 0 0 0
6741 0 0 0
6742 0 0 0
6527 0 0 0
6668 0 0 0
6673 0 0 0
6453 0 0 0
6466 0 0 0
6468 0 0 0
6609 0 0 0
6610 0 0 0
6675 0 0 0
6376 0 0 0
6377 0 0 0
6608 0 0 0
6293 0 0 0
6302 0 0 0
6375 0 0 0
6584 0 0 0
6588 0 0 0
6590 0 0 0
6816 0 0 0
6817 0 0 0
6818 0 0 0
6822 0 0 0
6833 0 0 0
6746 0 0 0
6755 0 0 0
6759 0 0 0
6760 0 0 0
6835 0 0 0
6677 0 0 0
6678 0 0 0
6757 0 0 0
6758 0 0 0
6676 0 0 0
6682 0 0 0
6695 0 0 0
6697 0 0 0
6614 0 0 0
6623 0 0 0
6625 0 0 0
6627 0 0 0
6628 0 0 0
6591 0 0 0
6592 0 0 0
6594 0 0 0
6601 0 0 0
6626 0 0 0
6886 0 0 0
6836 0 0 0
6837 0 0 0
6838 0 0 0
6764 0 0 0
6779 0 0 0
6699 0 0 0
6700 0 0 0
6781 0 0 0
6698 0 0 0
6632 0 0 0
6646 0 0 0
6648 0 0 0
6887 0 0 0
6888 0 0 0
6889 0 0 0
6893 0 0 0
6903 0 0 0
6842 0 0 0
6857 0 0 0
6861 0 0 0
6862 0 0 0
6905 0 0 0
6783 0 0 0
6784 0 0 0
6859 0 0 0
6860 0 0 0
6782 0 0 0
6788 0 0 0
6801 0 0 0
6803 0 0 0
6704 0 0 0
6719 0 0 0
6721 0 0 0
6723 0 0 0
6724 0 0 0
6649 0 0 0
6650 0 0 0
6652 0 0 0
6661 0 0 0
6722 0 0 0
6559 0 0 0
6810 0 0 0
6811 0 0 0
6512 0 0 0
6558 0 0 0
6561 0 0 0
6738 0 0 0
6739 0 0 0
6743 0 0 0
6511 0 0 0
6530 0 0 0
6667 0 0 0
6451 0 0 0
6452 0 0 0
6454 0 0 0
6607 0 0 0
6666 0 0 0
6669 0 0 0
6360 0 0 0
6606 0 0 0
6611 0 0 0
6292 0 0 0
6359 0 0 0
6378 0 0 0
6582 0 0 0
6583 0 0 0
6585 0 0 0
6812 0 0 0
6813 0 0 0
6819 0 0 0
6821 0 0 0
6745 0 0 0
6749 0 0 0
6820 0 0 0
6823 0 0 0
6671 0 0 0
6744 0 0 0
6747 0 0 0
6748 0 0 0
6761 0 0 0
6670 0 0 0
6679 0 0 0
6680 0 0 0
6681 0 0 0
6683 0 0 0
6612 0 0 0
6613 0 0 0
6615 0 0 0
6617 0 0 0
6586 0 0 0
6593 0 0 0
6616 0 0 0
6629 0 0 0
6879 0 0 0
6880 0 0 0
6824 0 0 0
6825 0 0 0
6839 0 0 0
6763 0 0 0
6685 0 0 0
6762 0 0 0
6765 0 0 0
6684 0 0 0
6701 0 0 0
6630 0 0 0
6631 0 0 0
6633 0 0 0
6881 0 0 0
6882 0 0 0
6890 0 0 0
6892 0 0 0
6841 0 0 0
6845 0 0 0
6891 0 0 0
6894 0 0 0
6767 0 0 0
6840 0 0 0
6843 0 0 0
6844 0 0 0
6863 0 0 0
6766 0 0 0
6785 0 0 0
6786 0 0 0
6787 0 0 0
6789 0 0 0
6702 0 0 0
6703 0 0 0
6705 0 0 0
6707 0 0 0
6634 0 0 0
6651 0 0 0
6706 0 0 0
6725 0 0 0
7186 0 0 0
7190 0 0 0
7206 0 0 0
7207 0 0 0
7100 0 0 0
7116 0 0 0
7117 0 0 0
7119 0 0 0
7120 0 0 0
7023 0 0 0
7024 0 0 0
7028 0 0 0
7044 0 0 0
7118 0 0 0
6956 0 0 0
6971 0 0 0
7022 0 0 0
7045 0 0 0
6972 0 0 0
6973 0 0 0
6974 0 0 0
6975 0 0 0
6931 0 0 0
6932 0 0 0
6933 0 0 0
6936 0 0 0
6939 0 0 0
7209 0 0 0
7210 0 0 0
7124 0 0 0
7140 0 0 0
7208 0 0 0
7141 0 0 0
7046 0 0 0
7047 0 0 0
7048 0 0 0
6979 0 0 0
6989 0 0 0
6940 0 0 0
6941 0 0 0
6990 0 0 0
7270 0 0 0
7274 0 0 0
7284 0 0 0
7285 0 0 0
7214 0 0 0
7228 0 0 0
7229 0 0 0
7231 0 0 0
7232 0 0 0
7143 0 0 0
7144 0 0 0
7148 0 0 0
7158 0 0 0
7230 0 0 0
7052 0 0 0
7066 0 0 0
7142 0 0 0
7159 0 0 0
7067 0 0 0
7068 0 0 0
7069 0 0 0
7070 0 0 0
6991 0 0 0
6992 0 0 0
6993 0 0 0
6996 0 0 0
6999 0 0 0
7287 0 0 0
7288 0 0 0
7306 0 0 0
7236 0 0 0
7242 0 0 0
7286 0 0 0
7292 0 0 0
7294 0 0 0
7295 0 0 0
7243 0 0 0
7245 0 0 0
7246 0 0 0
7160 0 0 0
7161 0 0 0
7162 0 0 0
7166 0 0 0
7168 0 0 0
7244 0 0 0
7074 0 0 0
7080 0 0 0
7169 0 0 0
7000 0 0 0
7001 0 0 0
7081 0 0 0
7082 0 0 0
7083 0 0 0
7084 0 0 0
7174 0 0 0
7187 0 0 0
7188 0 0 0
7189 0 0 0
7191 0 0 0
7098 0 0 0
7099 0 0 0
7101 0 0 0
7104 0 0 0
7010 0 0 0
7027 0 0 0
7102 0 0 0
7121 0 0 0
6955 0 0 0
7008 0 0 0
7025 0 0 0
7026 0 0 0
7029 0 0 0
6954 0 0 0
6957 0 0 0
6958 0 0 0
6960 0 0 0
6976 0 0 0
6923 0 0 0
6925 0 0 0
6934 0 0 0
6935 0 0 0
7194 0 0 0
7123 0 0 0
7192 0 0 0
7211 0 0 0
7122 0 0 0
7125 0 0 0
7030 0 0 0
7032 0 0 0
7049 0 0 0
6978 0 0 0
6938 0 0 0
6977 0 0 0
6980 0 0 0
7257 0 0 0
7271 0 0 0
7272 0 0 0
7273 0 0 0
7275 0 0 0
7212 0 0 0
7213 0 0 0
7215 0 0 0
7218 0 0 0
7128 0 0 0
7147 0 0 0
7216 0 0 0
7233 0 0 0
7051 0 0 0
7126 0 0 0
7145 0 0 0
7146 0 0 0
7149 0 0 0
7050 0 0 0
7053 0 0 0
7054 0 0 0
7056 0 0 0
7071 0 0 0
6981 0 0 0
6983 0 0 0
6994 0 0 0
6995 0 0 0
7278 0 0 0
7303 0 0 0
7307 0 0 0
7235 0 0 0
7276 0 0 0
7289 0 0 0
7290 0 0 0
7291 0 0 0
7293 0 0 0
7234 0 0 0
7237 0 0 0
7240 0 0 0
7150 0 0 0
7152 0 0 0
7163 0 0 0
7165 0 0 0
7238 0 0 0
7247 0 0 0
7073 0 0 0
7164 0 0 0
7167 0 0 0
6998 0 0 0
7072 0 0 0
7075 0 0 0
7076 0 0 0
7078 0 0 0
7085 0 0 0
7175 0 0 0
7176 0 0 0
7177 0 0 0
7178 0 0 0
7088 0 0 0
7089 0 0 0
7090 0 0 0
7094 0 0 0
7103 0 0 0
7004 0 0 0
7009 0 0 0
7013 0 0 0
7014 0 0 0
7105 0 0 0
6945 0 0 0
6946 0 0 0
7011 0 0 0
7012 0 0 0
6944 0 0 0
6950 0 0 0
6959 0 0 0
6961 0 0 0
6920 0 0 0
6924 0 0 0
6926 0 0 0
6927 0 0 0
6928 0 0 0
7182 0 0 0
7193 0 0 0
7107 0 0 0
7108 0 0 0
7195 0 0 0
7106 0 0 0
7018 0 0 0
7031 0 0 0
7033 0 0 0
6963 0 0 0
6964 0 0 0
6930 0 0 0
6937 0 0 0
6962 0 0 0
7258 0 0 0
7259 0 0 0
7260 0 0 0
7261 0 0 0
7196 0 0 0
7197 0 0 0
7198 0 0 0
7202 0 0 0
7217 0 0 0
7112 0 0 0
7127 0 0 0
7131 0 0 0
7132 0 0 0
7219 0 0 0
7035 0 0 0
7036 0 0 0
7129 0 0 0
7130 0 0 0
7034 0 0 0
7040 0 0 0
7055 0 0 0
7057 0 0 0
6968 0 0 0
6982 0 0 0
6984 0 0 0
6985 0 0 0
6986 0 0 0
7265 0 0 0
7277 0 0 0
7304 0 0 0
7221 0 0 0
7222 0 0 0
7279 0 0 0
7280 0 0 0
7281 0 0 0
7282 0 0 0
7220 0 0 0
7226 0 0 0
7239 0 0 0
7136 0 0 0
7151 0 0 0
7153 0 0 0
7155 0 0 0
7156 0 0 0
7241 0 0 0
7059 0 0 0
7060 0 0 0
7154 0 0 0
6988 0 0 0
6997 0 0 0
7058 0 0 0
7064 0 0 0
7077 0 0 0
7079 0 0 0
7170 0 0 0
7171 0 0 0
7172 0 0 0
7173 0 0 0
7179 0 0 0
7086 0 0 0
7087 0 0 0
7091 0 0 0
7093 0 0 0
7003 0 0 0
7007 0 0 0
7092 0 0 0
7095 0 0 0
6943 0 0 0
7002 0 0 0
7005 0 0 0
7006 0 0 0
7015 0 0 0
6942 0 0 0
6947 0 0 0
6948 0 0 0
6949 0 0 0
6951 0 0 0
6918 0 0 0
6919 0 0 0
6921 0 0 0
6922 0 0 0
7181 0 0 0
7097 0 0 0
7180 0 0 0
7183 0 0 0
7096 0 0 0
7109 0 0 0
7016 0 0 0
7017 0 0 0
7019 0 0 0
6953 0 0 0
6929 0 0 0
6952 0 0 0
6965 0 0 0
7251 0 0 0
7252 0 0 0
7253 0 0 0
7254 0 0 0
7262 0 0 0
7184 0 0 0
7185 0 0 0
7199 0 0 0
7201 0 0 0
7111 0 0 0
7115 0 0 0
7200 0 0 0
7203 0 0 0
7021 0 0 0
7110 0 0 0
7113 0 0 0
7114 0 0 0
7133 0 0 0
7020 0 0 0
7037 0 0 0
7038 0 0 0
7039 0 0 0
7041 0 0 0
6966 0 0 0
6967 0 0 0
6969 0 0 0
6970 0 0 0
7264 0 0 0
7299 0 0 0
7300 0 0 0
7205 0 0 0
7263 0 0 0
7266 0 0 0
7267 0 0 0
7268 0 0 0
7283 0 0 0
7204 0 0 0
7223 0 0 0
7225 0 0 0
7134 0 0 0
7135 0 0 0
7137 0 0 0
7139 0 0 0
7224 0 0 0
7227 0 0 0
7043 0 0 0
7138 0 0 0
7157 0 0 0
6987 0 0 0
7042 0 0 0
7061 0 0 0
7062 0 0 0
7063 0 0 0
7065 0 0 0
7544 0 0 0
7560 0 0 0
7561 0 0 0
7467 0 0 0
7468 0 0 0
7382 0 0 0
7398 0 0 0
7466 0 0 0
7399 0 0 0
7339 0 0 0
7340 0 0 0
7341 0 0 0
7314 0 0 0
7317 0 0 0
7563 0 0 0
7564 0 0 0
7634 0 0 0
7472 0 0 0
7488 0 0 0
7562 0 0 0
7568 0 0 0
7584 0 0 0
7585 0 0 0
7489 0 0 0
7491 0 0 0
7492 0 0 0
7400 0 0 0
7401 0 0 0
7402 0 0 0
7406 0 0 0
7421 0 0 0
7490 0 0 0
7345 0 0 0
7355 0 0 0
7422 0 0 0
7318 0 0 0
7319 0 0 0
7356 0 0 0
7357 0 0 0
7358 0 0 0
7359 0 0 0
7638 0 0 0
7652 0 0 0
7653 0 0 0
7655 0 0 0
7656 0 0 0
7587 0 0 0
7588 0 0 0
7654 0 0 0
7592 0 0 0
7602 0 0 0
7496 0 0 0
7510 0 0 0
7586 0 0 0
7603 0 0 0
7511 0 0 0
7513 0 0 0
7514 0 0 0
7512 0 0 0
7423 0 0 0
7424 0 0 0
7425 0 0 0
7429 0 0 0
7437 0 0 0
7362 0 0 0
7365 0 0 0
7438 0 0 0
7366 0 0 0
7367 0 0 0
7688 0 0 0
7692 0 0 0
7694 0 0 0
7695 0 0 0
7660 0 0 0
7666 0 0 0
7667 0 0 0
7669 0 0 0
7670 0 0 0
7605 0 0 0
7606 0 0 0
7610 0 0 0
7612 0 0 0
7668 0 0 0
7518 0 0 0
7524 0 0 0
7604 0 0 0
7613 0 0 0
7525 0 0 0
7526 0 0 0
7527 0 0 0
7528 0 0 0
7439 0 0 0
7440 0 0 0
7441 0 0 0
7444 0 0 0
7445 0 0 0
7542 0 0 0
7543 0 0 0
7545 0 0 0
7454 0 0 0
7381 0 0 0
7452 0 0 0
7469 0 0 0
7380 0 0 0
7383 0 0 0
7326 0 0 0
7328 0 0 0
7342 0 0 0
7313 0 0 0
7548 0 0 0
7622 0 0 0
7635 0 0 0
7471 0 0 0
7546 0 0 0
7565 0 0 0
7566 0 0 0
7567 0 0 0
7569 0 0 0
7470 0 0 0
7473 0 0 0
7476 0 0 0
7384 0 0 0
7386 0 0 0
7403 0 0 0
7405 0 0 0
7474 0 0 0
7493 0 0 0
7344 0 0 0
7404 0 0 0
7407 0 0 0
7316 0 0 0
7343 0 0 0
7346 0 0 0
7347 0 0 0
7349 0 0 0
7360 0 0 0
7636 0 0 0
7637 0 0 0
7639 0 0 0
7642 0 0 0
7572 0 0 0
7640 0 0 0
7657 0 0 0
7591 0 0 0
7495 0 0 0
7570 0 0 0
7589 0 0 0
7590 0 0 0
7593 0 0 0
7494 0 0 0
7497 0 0 0
7500 0 0 0
7498 0 0 0
7515 0 0 0
7408 0 0 0
7410 0 0 0
7426 0 0 0
7428 0 0 0
7361 0 0 0
7427 0 0 0
7430 0 0 0
7364 0 0 0
7681 0 0 0
7689 0 0 0
7690 0 0 0
7691 0 0 0
7693 0 0 0
7658 0 0 0
7659 0 0 0
7661 0 0 0
7664 0 0 0
7596 0 0 0
7609 0 0 0
7662 0 0 0
7671 0 0 0
7517 0 0 0
7594 0 0 0
7607 0 0 0
7608 0 0 0
7611 0 0 0
7516 0 0 0
7519 0 0 0
7520 0 0 0
7522 0 0 0
7529 0 0 0
7431 0 0 0
7433 0 0 0
7442 0 0 0
7443 0 0 0
7532 0 0 0
7533 0 0 0
7534 0 0 0
7448 0 0 0
7453 0 0 0
7371 0 0 0
7372 0 0 0
7455 0 0 0
7370 0 0 0
7322 0 0 0
7327 0 0 0
7329 0 0 0
7309 0 0 0
7310 0 0 0
7538 0 0 0
7547 0 0 0
7623 0 0 0
7457 0 0 0
7458 0 0 0
7549 0 0 0
7550 0 0 0
7551 0 0 0
7552 0 0 0
7456 0 0 0
7462 0 0 0
7475 0 0 0
7376 0 0 0
7385 0 0 0
7387 0 0 0
7389 0 0 0
7390 0 0 0
7477 0 0 0
7331 0 0 0
7332 0 0 0
7388 0 0 0
7312 0 0 0
7315 0 0 0
7330 0 0 0
7336 0 0 0
7348 0 0 0
7350 0 0 0
7624 0 0 0
7625 0 0 0
7626 0 0 0
7630 0 0 0
7641 0 0 0
7556 0 0 0
7571 0 0 0
7643 0 0 0
7575 0 0 0
7576 0 0 0
7479 0 0 0
7480 0 0 0
7573 0 0 0
7574 0 0 0
7478 0 0 0
7484 0 0 0
7499 0 0 0
7501 0 0 0
7394 0 0 0
7409 0 0 0
7411 0 0 0
7413 0 0 0
7414 0 0 0
7351 0 0 0
7352 0 0 0
7412 0 0 0
7354 0 0 0
7363 0 0 0
7682 0 0 0
7683 0 0 0
7684 0 0 0
7685 0 0 0
7644 0 0 0
7645 0 0 0
7646 0 0 0
7650 0 0 0
7663 0 0 0
7580 0 0 0
7595 0 0 0
7599 0 0 0
7600 0 0 0
7665 0 0 0
7503 0 0 0
7504 0 0 0
7597 0 0 0
7598 0 0 0
7502 0 0 0
7508 0 0 0
7521 0 0 0
7523 0 0 0
7418 0 0 0
7432 0 0 0
7434 0 0 0
7435 0 0 0
7436 0 0 0
7530 0 0 0
7531 0 0 0
7535 0 0 0
7447 0 0 0
7369 0 0 0
7446 0 0 0
7449 0 0 0
7368 0 0 0
7373 0 0 0
7320 0 0 0
7321 0 0 0
7323 0 0 0
7308 0 0 0
7537 0 0 0
7616 0 0 0
7617 0 0 0
7451 0 0 0
7536 0 0 0
7539 0 0 0
7540 0 0 0
7541 0 0 0
7553 0 0 0
7450 0 0 0
7459 0 0 0
7461 0 0 0
7374 0 0 0
7375 0 0 0
7377 0 0 0
7379 0 0 0
7460 0 0 0
7463 0 0 0
7325 0 0 0
7378 0 0 0
7391 0 0 0
7311 0 0 0
7324 0 0 0
7333 0 0 0
7334 0 0 0
7335 0 0 0
7337 0 0 0
7618 0 0 0
7619 0 0 0
7627 0 0 0
7629 0 0 0
7555 0 0 0
7628 0 0 0
7631 0 0 0
7559 0 0 0
7465 0 0 0
7554 0 0 0
7557 0 0 0
7558 0 0 0
7577 0 0 0
7464 0 0 0
7481 0 0 0
7483 0 0 0
7482 0 0 0
7485 0 0 0
7392 0 0 0
7393 0 0 0
7395 0 0 0
7397 0 0 0
7338 0 0 0
7396 0 0 0
7415 0 0 0
7353 0 0 0
7675 0 0 0
7676 0 0 0
7677 0 0 0
7678 0 0 0
7686 0 0 0
7632 0 0 0
7633 0 0 0
7647 0 0 0
7649 0 0 0
7579 0 0 0
7583 0 0 0
7648 0 0 0
7651 0 0 0
7487 0 0 0
7578 0 0 0
7581 0 0 0
7582 0 0 0
7601 0 0 0
7509 0 0 0
7507 0 0 0
7486 0 0 0
7505 0 0 0
7506 0 0 0
7420 0 0 0
7419 0 0 0
7417 0 0 0
7416 0 0 0
7897 0 0 0
7898 0 0 0
7967 0 0 0
7896 0 0 0
7818 0 0 0
7834 0 0 0
7835 0 0 0
7759 0 0 0
7760 0 0 0
7715 0 0 0
7725 0 0 0
7758 0 0 0
7726 0 0 0
7700 0 0 0
7701 0 0 0
7968 0 0 0
7972 0 0 0
7986 0 0 0
7987 0 0 0
7902 0 0 0
7918 0 0 0
7919 0 0 0
7921 0 0 0
7922 0 0 0
7837 0 0 0
7838 0 0 0
7842 0 0 0
7856 0 0 0
7920 0 0 0
7764 0 0 0
7779 0 0 0
7836 0 0 0
7857 0 0 0
7780 0 0 0
7781 0 0 0
7782 0 0 0
7783 0 0 0
7727 0 0 0
7728 0 0 0
7729 0 0 0
7732 0 0 0
7735 0 0 0
7989 0 0 0
7990 0 0 0
8020 0 0 0
8021 0 0 0
7988 0 0 0
7994 0 0 0
8000 0 0 0
8001 0 0 0
7926 0 0 0
7936 0 0 0
7937 0 0 0
7939 0 0 0
7940 0 0 0
7859 0 0 0
7860 0 0 0
7864 0 0 0
7870 0 0 0
7938 0 0 0
7787 0 0 0
7795 0 0 0
7858 0 0 0
7871 0 0 0
7796 0 0 0
7797 0 0 0
7798 0 0 0
7799 0 0 0
7736 0 0 0
7737 0 0 0
8025 0 0 0
8027 0 0 0
8028 0 0 0
8003 0 0 0
8004 0 0 0
7944 0 0 0
7946 0 0 0
8002 0 0 0
7947 0 0 0
7872 0 0 0
7873 0 0 0
7874 0 0 0
7802 0 0 0
7803 0 0 0
2356 0 0 0
7884 0 0 0
7954 0 0 0
7882 0 0 0
7899 0 0 0
7816 0 0 0
7817 0 0 0
7819 0 0 0
7746 0 0 0
7714 0 0 0
7744 0 0 0
7761 0 0 0
7713 0 0 0
7716 0 0 0
7699 0 0 0
7955 0 0 0
7969 0 0 0
7970 0 0 0
7971 0 0 0
7973 0 0 0
7900 0 0 0
7901 0 0 0
7903 0 0 0
7906 0 0 0
7822 0 0 0
7841 0 0 0
7904 0 0 0
7923 0 0 0
7763 0 0 0
7820 0 0 0
7839 0 0 0
7840 0 0 0
7843 0 0 0
7762 0 0 0
7765 0 0 0
7766 0 0 0
7768 0 0 0
7784 0 0 0
7717 0 0 0
7719 0 0 0
7730 0 0 0
7731 0 0 0
7976 0 0 0
8012 0 0 0
8013 0 0 0
8014 0 0 0
8022 0 0 0
7974 0 0 0
7991 0 0 0
7992 0 0 0
7993 0 0 0
7995 0 0 0
7924 0 0 0
7925 0 0 0
7927 0 0 0
7930 0 0 0
7846 0 0 0
7863 0 0 0
7928 0 0 0
7941 0 0 0
7786 0 0 0
7844 0 0 0
7861 0 0 0
7862 0 0 0
7865 0 0 0
7785 0 0 0
7788 0 0 0
7789 0 0 0
7791 0 0 0
7800 0 0 0
7734 0 0 0
8023 0 0 0
8024 0 0 0
8026 0 0 0
7998 0 0 0
7943 0 0 0
7996 0 0 0
8005 0 0 0
7942 0 0 0
7945 0 0 0
7866 0 0 0
7868 0 0 0
7875 0 0 0
7801 0 0 0
2351 0 0 0
7878 0 0 0
7883 0 0 0
7885 0 0 0
7806 0 0 0
7807 0 0 0
7808 0 0 0
7740 0 0 0
7745 0 0 0
7705 0 0 0
7706 0 0 0
7747 0 0 0
7704 0 0 0
7697 0 0 0
7698 0 0 0
7956 0 0 0
7957 0 0 0
7958 0 0 0
7959 0 0 0
7886 0 0 0
7887 0 0 0
7888 0 0 0
7892 0 0 0
7905 0 0 0
7812 0 0 0
7821 0 0 0
7825 0 0 0
7826 0 0 0
7907 0 0 0
7749 0 0 0
7750 0 0 0
7823 0 0 0
7824 0 0 0
7748 0 0 0
7754 0 0 0
7767 0 0 0
7769 0 0 0
7710 0 0 0
7718 0 0 0
7720 0 0 0
7721 0 0 0
7722 0 0 0
7963 0 0 0
7975 0 0 0
8006 0 0 0
8015 0 0 0
7977 0 0 0
7978 0 0 0
7979 0 0 0
7980 0 0 0
7908 0 0 0
7909 0 0 0
7910 0 0 0
7914 0 0 0
7929 0 0 0
7830 0 0 0
7845 0 0 0
7849 0 0 0
7850 0 0 0
7931 0 0 0
7771 0 0 0
7772 0 0 0
7847 0 0 0
7848 0 0 0
7770 0 0 0
7776 0 0 0
7790 0 0 0
7792 0 0 0
7724 0 0 0
7733 0 0 0
8016 0 0 0
8017 0 0 0
8018 0 0 0
7984 0 0 0
7997 0 0 0
7933 0 0 0
7934 0 0 0
7999 0 0 0
7932 0 0 0
7854 0 0 0
7867 0 0 0
7869 0 0 0
7793 0 0 0
7794 0 0 0
7877 0 0 0
7948 0 0 0
7949 0 0 0
7876 0 0 0
7879 0 0 0
7804 0 0 0
7805 0 0 0
7809 0 0 0
7739 0 0 0
7703 0 0 0
7738 0 0 0
7741 0 0 0
7702 0 0 0
7707 0 0 0
7696 0 0 0
7950 0 0 0
7951 0 0 0
7952 0 0 0
7953 0 0 0
7960 0 0 0
7880 0 0 0
7881 0 0 0
7889 0 0 0
7891 0 0 0
7811 0 0 0
7815 0 0 0
7890 0 0 0
7893 0 0 0
7743 0 0 0
7810 0 0 0
7813 0 0 0
7814 0 0 0
7827 0 0 0
7742 0 0 0
7751 0 0 0
7752 0 0 0
7753 0 0 0
7755 0 0 0
7708 0 0 0
7709 0 0 0
7711 0 0 0
7712 0 0 0
2382 0 0 0
7962 0 0 0
8007 0 0 0
8008 0 0 0
8009 0 0 0
7961 0 0 0
7964 0 0 0
7965 0 0 0
7966 0 0 0
7981 0 0 0
7894 0 0 0
7895 0 0 0
7911 0 0 0
7913 0 0 0
7829 0 0 0
7833 0 0 0
7912 0 0 0
7915 0 0 0
7757 0 0 0
7828 0 0 0
7831 0 0 0
7832 0 0 0
7851 0 0 0
7756 0 0 0
7773 0 0 0
7774 0 0 0
7775 0 0 0
7777 0 0 0
7723 0 0 0
8010 0 0 0
8011 0 0 0
8019 0 0 0
7983 0 0 0
7917 0 0 0
7982 0 0 0
7985 0 0 0
7916 0 0 0
7935 0 0 0
7852 0 0 0
7853 0 0 0
7855 0 0 0
7778 0 0 0
2676 0 0 0
2686 0 0 0
8396 0 0 0
8405 0 0 0
8351 0 0 0
8370 0 0 0
8285 0 0 0
8304 0 0 0
8332 0 0 0
8349 0 0 0
8219 0 0 0
8238 0 0 0
8266 0 0 0
8283 0 0 0
8153 0 0 0
8172 0 0 0
8200 0 0 0
8217 0 0 0
8087 0 0 0
8106 0 0 0
8134 0 0 0
8151 0 0 0
2688 0 0 0
8397 0 0 0
8403 0 0 0
8415 0 0 0
8416 0 0 0
8374 0 0 0
8308 0 0 0
8333 0 0 0
8346 0 0 0
8371 0 0 0
8372 0 0 0
8242 0 0 0
8267 0 0 0
8280 0 0 0
8305 0 0 0
8306 0 0 0
8176 0 0 0
8201 0 0 0
8214 0 0 0
8239 0 0 0
8240 0 0 0
8110 0 0 0
8135 0 0 0
8148 0 0 0
8173 0 0 0
8174 0 0 0
2695 0 0 0
2697 0 0 0
8404 0 0 0
8422 0 0 0
8386 0 0 0
8390 0 0 0
8320 0 0 0
8324 0 0 0
8347 0 0 0
8387 0 0 0
8254 0 0 0
8258 0 0 0
8281 0 0 0
8321 0 0 0
8188 0 0 0
8192 0 0 0
8215 0 0 0
8255 0 0 0
8122 0 0 0
8126 0 0 0
8149 0 0 0
8189 0 0 0
2700 0 0 0
8414 0 0 0
8423 0 0 0
8394 0 0 0
8328 0 0 0
8368 0 0 0
8388 0 0 0
8262 0 0 0
8302 0 0 0
8322 0 0 0
8196 0 0 0
8236 0 0 0
8256 0 0 0
8130 0 0 0
8170 0 0 0
8190 0 0 0
2669 0 0 0
2675 0 0 0
2677 0 0 0
2678 0 0 0
8406 0 0 0
8337 0 0 0
8350 0 0 0
8354 0 0 0
8355 0 0 0
8271 0 0 0
8284 0 0 0
8288 0 0 0
8289 0 0 0
8352 0 0 0
8205 0 0 0
8218 0 0 0
8222 0 0 0
8223 0 0 0
8286 0 0 0
8139 0 0 0
8152 0 0 0
8156 0 0 0
8157 0 0 0
8220 0 0 0
8073 0 0 0
8086 0 0 0
8090 0 0 0
8091 0 0 0
8154 0 0 0
2680 0 0 0
2687 0 0 0
8407 0 0 0
8417 0 0 0
8359 0 0 0
8373 0 0 0
8293 0 0 0
8307 0 0 0
8353 0 0 0
8375 0 0 0
8227 0 0 0
8241 0 0 0
8287 0 0 0
8309 0 0 0
8161 0 0 0
8175 0 0 0
8221 0 0 0
8243 0 0 0
8095 0 0 0
8109 0 0 0
8155 0 0 0
8177 0 0 0
2689 0 0 0
2690 0 0 0
2692 0 0 0
2696 0 0 0
8418 0 0 0
8377 0 0 0
8378 0 0 0
8382 0 0 0
8389 0 0 0
8311 0 0 0
8312 0 0 0
8316 0 0 0
8323 0 0 0
8376 0 0 0
8245 0 0 0
8246 0 0 0
8250 0 0 0
8257 0 0 0
8310 0 0 0
8179 0 0 0
8180 0 0 0
8184 0 0 0
8191 0 0 0
8244 0 0 0
8113 0 0 0
8114 0 0 0
8118 0 0 0
8125 0 0 0
8178 0 0 0
2698 0 0 0
2699 0 0 0
8424 0 0 0
8392 0 0 0
8393 0 0 0
8326 0 0 0
8327 0 0 0
8391 0 0 0
8260 0 0 0
8261 0 0 0
8325 0 0 0
8194 0 0 0
8195 0 0 0
8259 0 0 0
8128 0 0 0
8129 0 0 0
8193 0 0 0
2668 0 0 0
2671 0 0 0
8398 0 0 0
8399 0 0 0
8336 0 0 0
8341 0 0 0
8270 0 0 0
8275 0 0 0
8335 0 0 0
8338 0 0 0
8204 0 0 0
8209 0 0 0
8269 0 0 0
8272 0 0 0
8138 0 0 0
8143 0 0 0
8203 0 0 0
8206 0 0 0
8072 0 0 0
8077 0 0 0
8137 0 0 0
8140 0 0 0
2679 0 0 0
8400 0 0 0
8408 0 0 0
8409 0 0 0
8410 0 0 0
8358 0 0 0
8292 0 0 0
8339 0 0 0
8356 0 0 0
8357 0 0 0
8360 0 0 0
8226 0 0 0
8273 0 0 0
8290 0 0 0
8291 0 0 0
8294 0 0 0
8160 0 0 0
8207 0 0 0
8224 0 0 0
8225 0 0 0
8228 0 0 0
8094 0 0 0
8141 0 0 0
8158 0 0 0
8159 0 0 0
8162 0 0 0
2682 0 0 0
2691 0 0 0
8411 0 0 0
8419 0 0 0
8363 0 0 0
8381 0 0 0
8297 0 0 0
8315 0 0 0
8361 0 0 0
8379 0 0 0
8231 0 0 0
8249 0 0 0
8295 0 0 0
8313 0 0 0
8165 0 0 0
8183 0 0 0
8229 0 0 0
8247 0 0 0
8099 0 0 0
8117 0 0 0
8163 0 0 0
8181 0 0 0
2694 0 0 0
8420 0 0 0
8421 0 0 0
8385 0 0 0
8319 0 0 0
8380 0 0 0
8383 0 0 0
8253 0 0 0
8314 0 0 0
8317 0 0 0
8187 0 0 0
8248 0 0 0
8251 0 0 0
8121 0 0 0
8182 0 0 0
8185 0 0 0
2665 0 0 0
2666 0 0 0
2667 0 0 0
2670 0 0 0
8395 0 0 0
8330 0 0 0
8331 0 0 0
8334 0 0 0
8340 0 0 0
8264 0 0 0
8265 0 0 0
8268 0 0 0
8274 0 0 0
8329 0 0 0
8198 0 0 0
8199 0 0 0
8202 0 0 0
8208 0 0 0
8263 0 0 0
8132 0 0 0
8133 0 0 0
8136 0 0 0
8142 0 0 0
8197 0 0 0
8066 0 0 0
8067 0 0 0
8070 0 0 0
8076 0 0 0
8131 0 0 0
2672 0 0 0
2673 0 0 0
8401 0 0 0
8402 0 0 0
8344 0 0 0
8345 0 0 0
8278 0 0 0
8279 0 0 0
8342 0 0 0
8343 0 0 0
8212 0 0 0
8213 0 0 0
8276 0 0 0
8277 0 0 0
8146 0 0 0
8147 0 0 0
8210 0 0 0
8211 0 0 0
8080 0 0 0
8081 0 0 0
8144 0 0 0
8145 0 0 0
2674 0 0 0
2681 0 0 0
2683 0 0 0
2684 0 0 0
8412 0 0 0
8348 0 0 0
8362 0 0 0
8366 0 0 0
8367 0 0 0
8282 0 0 0
8296 0 0 0
8300 0 0 0
8301 0 0 0
8364 0 0 0
8216 0 0 0
8230 0 0 0
8234 0 0 0
8235 0 0 0
8298 0 0 0
8150 0 0 0
8164 0 0 0
8168 0 0 0
8169 0 0 0
8232 0 0 0
8084 0 0 0
8098 0 0 0
8102 0 0 0
8103 0 0 0
8166 0 0 0
2685 0 0 0
2693 0 0 0
8413 0 0 0
8369 0 0 0
8384 0 0 0
8303 0 0 0
8318 0 0 0
8365 0 0 0
8237 0 0 0
8252 0 0 0
8299 0 0 0
8171 0 0 0
8186 0 0 0
8233 0 0 0
8105 0 0 0
8120 0 0 0
8167 0 0 0
3006 0 0 0
8785 0 0 0
8789 0 0 0
8800 0 0 0
8801 0 0 0
8747 0 0 0
8681 0 0 0
8719 0 0 0
8725 0 0 0
8744 0 0 0
8745 0 0 0
8615 0 0 0
8653 0 0 0
8659 0 0 0
8678 0 0 0
8679 0 0 0
8549 0 0 0
8587 0 0 0
8593 0 0 0
8612 0 0 0
8613 0 0 0
8483 0 0 0
8521 0 0 0
8527 0 0 0
8546 0 0 0
8547 0 0 0
3015 0 0 0
3017 0 0 0
8790 0 0 0
8811 0 0 0
8765 0 0 0
8769 0 0 0
8699 0 0 0
8703 0 0 0
8726 0 0 0
8766 0 0 0
8633 0 0 0
8637 0 0 0
8660 0 0 0
8700 0 0 0
8567 0 0 0
8571 0 0 0
8594 0 0 0
8634 0 0 0
8501 0 0 0
8505 0 0 0
8528 0 0 0
8568 0 0 0
3022 0 0 0
8798 0 0 0
8799 0 0 0
8812 0 0 0
8818 0 0 0
8779 0 0 0
8713 0 0 0
8741 0 0 0
8742 0 0 0
8767 0 0 0
8780 0 0 0
8647 0 0 0
8675 0 0 0
8676 0 0 0
8701 0 0 0
8714 0 0 0
8581 0 0 0
8609 0 0 0
8610 0 0 0
8635 0 0 0
8648 0 0 0
8515 0 0 0
8543 0 0 0
8544 0 0 0
8569 0 0 0
8582 0 0 0
3024 0 0 0
3340 0 0 0
8810 0 0 0
8819 0 0 0
8783 0 0 0
9151 0 0 0
8717 0 0 0
8764 0 0 0
8781 0 0 0
9085 0 0 0
8651 0 0 0
8698 0 0 0
8715 0 0 0
9019 0 0 0
8585 0 0 0
8632 0 0 0
8649 0 0 0
8953 0 0 0
8519 0 0 0
8566 0 0 0
8583 0 0 0
8887 0 0 0
2999 0 0 0
3005 0 0 0
8791 0 0 0
8802 0 0 0
8732 0 0 0
8746 0 0 0
8666 0 0 0
8680 0 0 0
8728 0 0 0
8748 0 0 0
8600 0 0 0
8614 0 0 0
8662 0 0 0
8682 0 0 0
8534 0 0 0
8548 0 0 0
8596 0 0 0
8616 0 0 0
8468 0 0 0
8482 0 0 0
8530 0 0 0
8550 0 0 0
3007 0 0 0
3008 0 0 0
3010 0 0 0
3016 0 0 0
8803 0 0 0
8750 0 0 0
8751 0 0 0
8755 0 0 0
8768 0 0 0
8684 0 0 0
8685 0 0 0
8689 0 0 0
8702 0 0 0
8749 0 0 0
8618 0 0 0
8619 0 0 0
8623 0 0 0
8636 0 0 0
8683 0 0 0
8552 0 0 0
8553 0 0 0
8557 0 0 0
8570 0 0 0
8617 0 0 0
8486 0 0 0
8487 0 0 0
8491 0 0 0
8504 0 0 0
8551 0 0 0
3018 0 0 0
3019 0 0 0
8813 0 0 0
8814 0 0 0
8772 0 0 0
8773 0 0 0
8706 0 0 0
8707 0 0 0
8770 0 0 0
8771 0 0 0
8640 0 0 0
8641 0 0 0
8704 0 0 0
8705 0 0 0
8574 0 0 0
8575 0 0 0
8638 0 0 0
8639 0 0 0
8508 0 0 0
8509 0 0 0
8572 0 0 0
8573 0 0 0
3021 0 0 0
3023 0 0 0
3331 0 0 0
3332 0 0 0
8820 0 0 0
8777 0 0 0
8782 0 0 0
9134 0 0 0
9135 0 0 0
8711 0 0 0
8716 0 0 0
8784 0 0 0
9068 0 0 0
9069 0 0 0
8645 0 0 0
8650 0 0 0
8718 0 0 0
9002 0 0 0
9003 0 0 0
8579 0 0 0
8584 0 0 0
8652 0 0 0
8936 0 0 0
8937 0 0 0
8513 0 0 0
8518 0 0 0
8586 0 0 0
8870 0 0 0
8871 0 0 0
2998 0 0 0
8786 0 0 0
8792 0 0 0
8793 0 0 0
8794 0 0 0
8731 0 0 0
8665 0 0 0
8720 0 0 0
8729 0 0 0
8730 0 0 0
8733 0 0 0
8599 0 0 0
8654 0 0 0
8663 0 0 0
8664 0 0 0
8667 0 0 0
8533 0 0 0
8588 0 0 0
8597 0 0 0
8598 0 0 0
8601 0 0 0
8467 0 0 0
8522 0 0 0
8531 0 0 0
8532 0 0 0
8535 0 0 0
3001 0 0 0
3009 0 0 0
8795 0 0 0
8804 0 0 0
8736 0 0 0
8754 0 0 0
8670 0 0 0
8688 0 0 0
8734 0 0 0
8752 0 0 0
8604 0 0 0
8622 0 0 0
8668 0 0 0
8686 0 0 0
8538 0 0 0
8556 0 0 0
8602 0 0 0
8620 0 0 0
8472 0 0 0
8490 0 0 0
8536 0 0 0
8554 0 0 0
3012 0 0 0
8805 0 0 0
8806 0 0 0
8807 0 0 0
8815 0 0 0
8759 0 0 0
8693 0 0 0
8753 0 0 0
8756 0 0 0
8757 0 0 0
8774 0 0 0
8627 0 0 0
8687 0 0 0
8690 0 0 0
8691 0 0 0
8708 0 0 0
8561 0 0 0
8621 0 0 0
8624 0 0 0
8625 0 0 0
8642 0 0 0
8495 0 0 0
8555 0 0 0
8558 0 0 0
8559 0 0 0
8576 0 0 0
3020 0 0 0
3327 0 0 0
8816 0 0 0
8817 0 0 0
8776 0 0 0
9125 0 0 0
8710 0 0 0
8775 0 0 0
8778 0 0 0
9059 0 0 0
8644 0 0 0
8709 0 0 0
8712 0 0 0
8993 0 0 0
8578 0 0 0
8643 0 0 0
8646 0 0 0
8927 0 0 0
8512 0 0 0
8577 0 0 0
8580 0 0 0
8861 0 0 0
2995 0 0 0
2996 0 0 0
8787 0 0 0
8788 0 0 0
8723 0 0 0
8724 0 0 0
8657 0 0 0
8658 0 0 0
8721 0 0 0
8722 0 0 0
8591 0 0 0
8592 0 0 0
8655 0 0 0
8656 0 0 0
8525 0 0 0
8526 0 0 0
8589 0 0 0
8590 0 0 0
8459 0 0 0
8460 0 0 0
8523 0 0 0
8524 0 0 0
2997 0 0 0
3000 0 0 0
3002 0 0 0
3003 0 0 0
8796 0 0 0
8727 0 0 0
8735 0 0 0
8739 0 0 0
8740 0 0 0
8661 0 0 0
8669 0 0 0
8673 0 0 0
8674 0 0 0
8737 0 0 0
8595 0 0 0
8603 0 0 0
8607 0 0 0
8608 0 0 0
8671 0 0 0
8529 0 0 0
8537 0 0 0
8541 0 0 0
8542 0 0 0
8605 0 0 0
8463 0 0 0
8471 0 0 0
8475 0 0 0
8476 0 0 0
8539 0 0 0
3004 0 0 0
3011 0 0 0
8797 0 0 0
8808 0 0 0
8743 0 0 0
8758 0 0 0
8677 0 0 0
8692 0 0 0
8738 0 0 0
8760 0 0 0
8611 0 0 0
8626 0 0 0
8672 0 0 0
8694 0 0 0
8545 0 0 0
8560 0 0 0
8606 0 0 0
8628 0 0 0
8479 0 0 0
8494 0 0 0
8540 0 0 0
8562 0 0 0
3013 0 0 0
3014 0 0 0
3325 0 0 0
3326 0 0 0
8809 0 0 0
8762 0 0 0
8763 0 0 0
9122 0 0 0
9124 0 0 0
8696 0 0 0
8697 0 0 0
8761 0 0 0
9056 0 0 0
9058 0 0 0
8630 0 0 0
8631 0 0 0
8695 0 0 0
8990 0 0 0
8992 0 0 0
8564 0 0 0
8565 0 0 0
8629 0 0 0
8924 0 0 0
8926 0 0 0
8498 0 0 0
8499 0 0 0
8563 0 0 0
8858 0 0 0
8860 0 0 0
3342 0 0 0
9187 0 0 0
9202 0 0 0
9155 0 0 0
9089 0 0 0
9121 0 0 0
9152 0 0 0
9023 0 0 0
9055 0 0 0
9086 0 0 0
8957 0 0 0
8989 0 0 0
9020 0 0 0
8891 0 0 0
8923 0 0 0
8954 0 0 0
3351 0 0 0
9191 0 0 0
9192 0 0 0
9203 0 0 0
9211 0 0 0
9171 0 0 0
9105 0 0 0
9130 0 0 0
9131 0 0 0
9153 0 0 0
9172 0 0 0
9039 0 0 0
9064 0 0 0
9065 0 0 0
9087 0 0 0
9106 0 0 0
8973 0 0 0
8998 0 0 0
8999 0 0 0
9021 0 0 0
9040 0 0 0
8907 0 0 0
8932 0 0 0
8933 0 0 0
8955 0 0 0
8974 0 0 0
3353 0 0 0
3358 0 0 0
9200 0 0 0
9212 0 0 0
9175 0 0 0
9183 0 0 0
9109 0 0 0
9117 0 0 0
9148 0 0 0
9173 0 0 0
9043 0 0 0
9051 0 0 0
9082 0 0 0
9107 0 0 0
8977 0 0 0
8985 0 0 0
9016 0 0 0
9041 0 0 0
8911 0 0 0
8919 0 0 0
8950 0 0 0
8975 0 0 0
3360 0 0 0
9201 0 0 0
9216 0 0 0
9578 0 0 0
9587 0 0 0
9186 0 0 0
9120 0 0 0
9149 0 0 0
9184 0 0 0
9512 0 0 0
9527 0 0 0
9054 0 0 0
9083 0 0 0
9118 0 0 0
9446 0 0 0
9461 0 0 0
8988 0 0 0
9017 0 0 0
9052 0 0 0
9380 0 0 0
9395 0 0 0
8922 0 0 0
8951 0 0 0
8986 0 0 0
9314 0 0 0
9329 0 0 0
3334 0 0 0
3341 0 0 0
9193 0 0 0
9139 0 0 0
9154 0 0 0
9073 0 0 0
9088 0 0 0
9133 0 0 0
9007 0 0 0
9022 0 0 0
9067 0 0 0
8941 0 0 0
8956 0 0 0
9001 0 0 0
8875 0 0 0
8890 0 0 0
8935 0 0 0
3343 0 0 0
3344 0 0 0
9204 0 0 0
9205 0 0 0
9158 0 0 0
9159 0 0 0
9092 0 0 0
9093 0 0 0
9156 0 0 0
9157 0 0 0
9026 0 0 0
9027 0 0 0
9090 0 0 0
9091 0 0 0
8960 0 0 0
8961 0 0 0
9024 0 0 0
9025 0 0 0
8894 0 0 0
8895 0 0 0
8958 0 0 0
8959 0 0 0
3346 0 0 0
3352 0 0 0
3354 0 0 0
3355 0 0 0
9213 0 0 0
9163 0 0 0
9174 0 0 0
9178 0 0 0
9179 0 0 0
9097 0 0 0
9108 0 0 0
9112 0 0 0
9113 0 0 0
9176 0 0 0
9031 0 0 0
9042 0 0 0
9046 0 0 0
9047 0 0 0
9110 0 0 0
8965 0 0 0
8976 0 0 0
8980 0 0 0
8981 0 0 0
9044 0 0 0
8899 0 0 0
8910 0 0 0
8914 0 0 0
8915 0 0 0
8978 0 0 0
3357 0 0 0
3359 0 0 0
9214 0 0 0
9588 0 0 0
9182 0 0 0
9185 0 0 0
9116 0 0 0
9119 0 0 0
9177 0 0 0
9528 0 0 0
9050 0 0 0
9053 0 0 0
9111 0 0 0
9462 0 0 0
8984 0 0 0
8987 0 0 0
9045 0 0 0
9396 0 0 0
8918 0 0 0
8921 0 0 0
8979 0 0 0
9330 0 0 0
3333 0 0 0
9188 0 0 0
9194 0 0 0
9138 0 0 0
9072 0 0 0
9123 0 0 0
9136 0 0 0
9006 0 0 0
9057 0 0 0
9070 0 0 0
8940 0 0 0
8991 0 0 0
9004 0 0 0
8874 0 0 0
8925 0 0 0
8938 0 0 0
3336 0 0 0
9195 0 0 0
9196 0 0 0
9197 0 0 0
9206 0 0 0
9143 0 0 0
9077 0 0 0
9137 0 0 0
9140 0 0 0
9141 0 0 0
9160 0 0 0
9011 0 0 0
9071 0 0 0
9074 0 0 0
9075 0 0 0
9094 0 0 0
8945 0 0 0
9005 0 0 0
9008 0 0 0
9009 0 0 0
9028 0 0 0
8879 0 0 0
8939 0 0 0
8942 0 0 0
8943 0 0 0
8962 0 0 0
3345 0 0 0
3348 0 0 0
9207 0 0 0
9208 0 0 0
9162 0 0 0
9167 0 0 0
9096 0 0 0
9101 0 0 0
9161 0 0 0
9164 0 0 0
9030 0 0 0
9035 0 0 0
9095 0 0 0
9098 0 0 0
8964 0 0 0
8969 0 0 0
9029 0 0 0
9032 0 0 0
8898 0 0 0
8903 0 0 0
8963 0 0 0
8966 0 0 0
3356 0 0 0
9209 0 0 0
9215 0 0 0
9580 0 0 0
9581 0 0 0
9181 0 0 0
9115 0 0 0
9165 0 0 0
9180 0 0 0
9515 0 0 0
9516 0 0 0
9049 0 0 0
9099 0 0 0
9114 0 0 0
9449 0 0 0
9450 0 0 0
8983 0 0 0
9033 0 0 0
9048 0 0 0
9383 0 0 0
9384 0 0 0
8917 0 0 0
8967 0 0 0
8982 0 0 0
9317 0 0 0
9318 0 0 0
3328 0 0 0
3329 0 0 0
9189 0 0 0
9128 0 0 0
9129 0 0 0
9062 0 0 0
9063 0 0 0
9126 0 0 0
8996 0 0 0
8997 0 0 0
9060 0 0 0
8930 0 0 0
8931 0 0 0
8994 0 0 0
8864 0 0 0
8865 0 0 0
8928 0 0 0
3330 0 0 0
3335 0 0 0
9190 0 0 0
9198 0 0 0
9132 0 0 0
9142 0 0 0
9066 0 0 0
9076 0 0 0
9127 0 0 0
9144 0 0 0
9000 0 0 0
9010 0 0 0
9061 0 0 0
9078 0 0 0
8934 0 0 0
8944 0 0 0
8995 0 0 0
9012 0 0 0
8868 0 0 0
8878 0 0 0
8929 0 0 0
8946 0 0 0
3337 0 0 0
3338 0 0 0
3339 0 0 0
3347 0 0 0
9199 0 0 0
9146 0 0 0
9147 0 0 0
9150 0 0 0
9166 0 0 0
9080 0 0 0
9081 0 0 0
9084 0 0 0
9100 0 0 0
9145 0 0 0
9014 0 0 0
9015 0 0 0
9018 0 0 0
9034 0 0 0
9079 0 0 0
8948 0 0 0
8949 0 0 0
8952 0 0 0
8968 0 0 0
9013 0 0 0
8882 0 0 0
8883 0 0 0
8886 0 0 0
8902 0 0 0
8947 0 0 0
3349 0 0 0
3350 0 0 0
9210 0 0 0
9577 0 0 0
9169 0 0 0
9170 0 0 0
9103 0 0 0
9104 0 0 0
9168 0 0 0
9511 0 0 0
9037 0 0 0
9038 0 0 0
9102 0 0 0
9445 0 0 0
8971 0 0 0
8972 0 0 0
9036 0 0 0
9379 0 0 0
8905 0 0 0
8906 0 0 0
8970 0 0 0
9313 0 0 0
3670 0 0 0
9579 0 0 0
9598 0 0 0
9547 0 0 0
9481 0 0 0
9513 0 0 0
9548 0 0 0
9415 0 0 0
9447 0 0 0
9482 0 0 0
9349 0 0 0
9381 0 0 0
9416 0 0 0
9283 0 0 0
9315 0 0 0
9350 0 0 0
3672 0 0 0
3679 0 0 0
9585 0 0 0
9599 0 0 0
9551 0 0 0
9565 0 0 0
9485 0 0 0
9499 0 0 0
9524 0 0 0
9549 0 0 0
9419 0 0 0
9433 0 0 0
9458 0 0 0
9483 0 0 0
9353 0 0 0
9367 0 0 0
9392 0 0 0
9417 0 0 0
9287 0 0 0
9301 0 0 0
9326 0 0 0
9351 0 0 0
3681 0 0 0
9586 0 0 0
9596 0 0 0
9607 0 0 0
9608 0 0 0
9569 0 0 0
9503 0 0 0
9525 0 0 0
9544 0 0 0
9566 0 0 0
9567 0 0 0
9437 0 0 0
9459 0 0 0
9478 0 0 0
9500 0 0 0
9501 0 0 0
9371 0 0 0
9393 0 0 0
9412 0 0 0
9434 0 0 0
9435 0 0 0
9305 0 0 0
9327 0 0 0
9346 0 0 0
9368 0 0 0
9369 0 0 0
3684 0 0 0
3996 0 0 0
9597 0 0 0
9612 0 0 0
9575 0 0 0
9935 0 0 0
9509 0 0 0
9545 0 0 0
9576 0 0 0
9869 0 0 0
9443 0 0 0
9479 0 0 0
9510 0 0 0
9803 0 0 0
9377 0 0 0
9413 0 0 0
9444 0 0 0
9737 0 0 0
9311 0 0 0
9347 0 0 0
9378 0 0 0
9671 0 0 0
3661 0 0 0
3662 0 0 0
9589 0 0 0
9530 0 0 0
9531 0 0 0
9464 0 0 0
9465 0 0 0
9529 0 0 0
9398 0 0 0
9399 0 0 0
9463 0 0 0
9332 0 0 0
9333 0 0 0
9397 0 0 0
9266 0 0 0
9267 0 0 0
9331 0 0 0
3664 0 0 0
3671 0 0 0
3673 0 0 0
3674 0 0 0
9600 0 0 0
9535 0 0 0
9550 0 0 0
9554 0 0 0
9555 0 0 0
9469 0 0 0
9484 0 0 0
9488 0 0 0
9489 0 0 0
9552 0 0 0
9403 0 0 0
9418 0 0 0
9422 0 0 0
9423 0 0 0
9486 0 0 0
9337 0 0 0
9352 0 0 0
9356 0 0 0
9357 0 0 0
9420 0 0 0
9271 0 0 0
9286 0 0 0
9290 0 0 0
9291 0 0 0
9354 0 0 0
3676 0 0 0
3680 0 0 0
9601 0 0 0
9609 0 0 0
9559 0 0 0
9568 0 0 0
9493 0 0 0
9502 0 0 0
9553 0 0 0
9570 0 0 0
9427 0 0 0
9436 0 0 0
9487 0 0 0
9504 0 0 0
9361 0 0 0
9370 0 0 0
9421 0 0 0
9438 0 0 0
9295 0 0 0
9304 0 0 0
9355 0 0 0
9372 0 0 0
3682 0 0 0
3683 0 0 0
3989 0 0 0
3995 0 0 0
9610 0 0 0
9572 0 0 0
9573 0 0 0
9921 0 0 0
9934 0 0 0
9506 0 0 0
9507 0 0 0
9571 0 0 0
9855 0 0 0
9868 0 0 0
9440 0 0 0
9441 0 0 0
9505 0 0 0
9789 0 0 0
9802 0 0 0
9374 0 0 0
9375 0 0 0
9439 0 0 0
9723 0 0 0
9736 0 0 0
9308 0 0 0
9309 0 0 0
9373 0 0 0
9657 0 0 0
9670 0 0 0
3657 0 0 0
9582 0 0 0
9590 0 0 0
9519 0 0 0
9453 0 0 0
9517 0 0 0
9532 0 0 0
9387 0 0 0
9451 0 0 0
9466 0 0 0
9321 0 0 0
9385 0 0 0
9400 0 0 0
9255 0 0 0
9319 0 0 0
9334 0 0 0
3663 0 0 0
3666 0 0 0
9591 0 0 0
9592 0 0 0
9534 0 0 0
9539 0 0 0
9468 0 0 0
9473 0 0 0
9533 0 0 0
9536 0 0 0
9402 0 0 0
9407 0 0 0
9467 0 0 0
9470 0 0 0
9336 0 0 0
9341 0 0 0
9401 0 0 0
9404 0 0 0
9270 0 0 0
9275 0 0 0
9335 0 0 0
9338 0 0 0
3675 0 0 0
9593 0 0 0
9602 0 0 0
9603 0 0 0
9604 0 0 0
9558 0 0 0
9492 0 0 0
9537 0 0 0
9556 0 0 0
9557 0 0 0
9560 0 0 0
9426 0 0 0
9471 0 0 0
9490 0 0 0
9491 0 0 0
9494 0 0 0
9360 0 0 0
9405 0 0 0
9424 0 0 0
9425 0 0 0
9428 0 0 0
9294 0 0 0
9339 0 0 0
9358 0 0 0
9359 0 0 0
9362 0 0 0
3678 0 0 0
3988 0 0 0
9605 0 0 0
9611 0 0 0
9563 0 0 0
9920 0 0 0
9497 0 0 0
9561 0 0 0
9574 0 0 0
9854 0 0 0
9431 0 0 0
9495 0 0 0
9508 0 0 0
9788 0 0 0
9365 0 0 0
9429 0 0 0
9442 0 0 0
9722 0 0 0
9299 0 0 0
9363 0 0 0
9376 0 0 0
9656 0 0 0
3655 0 0 0
3656 0 0 0
9583 0 0 0
9514 0 0 0
9518 0 0 0
9448 0 0 0
9452 0 0 0
9520 0 0 0
9382 0 0 0
9386 0 0 0
9454 0 0 0
9316 0 0 0
9320 0 0 0
9388 0 0 0
9250 0 0 0
9254 0 0 0
9322 0 0 0
3658 0 0 0
3659 0 0 0
3660 0 0 0
3665 0 0 0
9584 0 0 0
9522 0 0 0
9523 0 0 0
9526 0 0 0
9538 0 0 0
9456 0 0 0
9457 0 0 0
9460 0 0 0
9472 0 0 0
9521 0 0 0
9390 0 0 0
9391 0 0 0
9394 0 0 0
9406 0 0 0
9455 0 0 0
9324 0 0 0
9325 0 0 0
9328 0 0 0
9340 0 0 0
9389 0 0 0
9258 0 0 0
9259 0 0 0
9262 0 0 0
9274 0 0 0
9323 0 0 0
3667 0 0 0
3668 0 0 0
9594 0 0 0
9595 0 0 0
9542 0 0 0
9543 0 0 0
9476 0 0 0
9477 0 0 0
9540 0 0 0
9541 0 0 0
9410 0 0 0
9411 0 0 0
9474 0 0 0
9475 0 0 0
9344 0 0 0
9345 0 0 0
9408 0 0 0
9409 0 0 0
9278 0 0 0
9279 0 0 0
9342 0 0 0
9343 0 0 0
3669 0 0 0
3677 0 0 0
3985 0 0 0
3986 0 0 0
9606 0 0 0
9546 0 0 0
9562 0 0 0
9914 0 0 0
9915 0 0 0
9480 0 0 0
9496 0 0 0
9564 0 0 0
9848 0 0 0
9849 0 0 0
9414 0 0 0
9430 0 0 0
9498 0 0 0
9782 0 0 0
9783 0 0 0
9348 0 0 0
9364 0 0 0
9432 0 0 0
9716 0 0 0
9717 0 0 0
9282 0 0 0
9298 0 0 0
9366 0 0 0
9650 0 0 0
9651 0 0 0
4006 0 0 0
9980 0 0 0
9981 0 0 0
9989 0 0 0
9999 0 0 0
9954 0 0 0
9888 0 0 0
9916 0 0 0
9917 0 0 0
9933 0 0 0
9955 0 0 0
9822 0 0 0
9850 0 0 0
9851 0 0 0
9867 0 0 0
9889 0 0 0
9756 0 0 0
9784 0 0 0
9785 0 0 0
9801 0 0 0
9823 0 0 0
9690 0 0 0
9718 0 0 0
9719 0 0 0
9735 0 0 0
9757 0 0 0
4008 0 0 0
9987 0 0 0
10000 0 0 0
9958 0 0 0
9892 0 0 0
9930 0 0 0
9956 0 0 0
9826 0 0 0
9864 0 0 0
9890 0 0 0
9760 0 0 0
9798 0 0 0
9824 0 0 0
9694 0 0 0
9732 0 0 0
9758 0 0 0
4015 0 0 0
4017 0 0 0
9988 0 0 0
10006 0 0 0
9970 0 0 0
9974 0 0 0
9904 0 0 0
9908 0 0 0
9931 0 0 0
9971 0 0 0
9838 0 0 0
9842 0 0 0
9865 0 0 0
9905 0 0 0
9772 0 0 0
9776 0 0 0
9799 0 0 0
9839 0 0 0
9706 0 0 0
9710 0 0 0
9733 0 0 0
9773 0 0 0
4020 0 0 0
9998 0 0 0
10007 0 0 0
10369 0 0 0
10384 0 0 0
9978 0 0 0
9912 0 0 0
9952 0 0 0
9972 0 0 0
10303 0 0 0
10328 0 0 0
9846 0 0 0
9886 0 0 0
9906 0 0 0
10237 0 0 0
10262 0 0 0
9780 0 0 0
9820 0 0 0
9840 0 0 0
10171 0 0 0
10196 0 0 0
9714 0 0 0
9754 0 0 0
9774 0 0 0
10105 0 0 0
10130 0 0 0
3997 0 0 0
3998 0 0 0
9990 0 0 0
9991 0 0 0
9938 0 0 0
9939 0 0 0
9872 0 0 0
9873 0 0 0
9936 0 0 0
9937 0 0 0
9806 0 0 0
9807 0 0 0
9870 0 0 0
9871 0 0 0
9740 0 0 0
9741 0 0 0
9804 0 0 0
9805 0 0 0
9674 0 0 0
9675 0 0 0
9738 0 0 0
9739 0 0 0
4000 0 0 0
4007 0 0 0
10001 0 0 0
9943 0 0 0
9957 0 0 0
9877 0 0 0
9891 0 0 0
9959 0 0 0
9811 0 0 0
9825 0 0 0
9893 0 0 0
9745 0 0 0
9759 0 0 0
9827 0 0 0
9679 0 0 0
9693 0 0 0
9761 0 0 0
4009 0 0 0
4010 0 0 0
4012 0 0 0
4016 0 0 0
10002 0 0 0
9961 0 0 0
9962 0 0 0
9966 0 0 0
9973 0 0 0
9895 0 0 0
9896 0 0 0
9900 0 0 0
9907 0 0 0
9960 0 0 0
9829 0 0 0
9830 0 0 0
9834 0 0 0
9841 0 0 0
9894 0 0 0
9763 0 0 0
9764 0 0 0
9768 0 0 0
9775 0 0 0
9828 0 0 0
9697 0 0 0
9698 0 0 0
9702 0 0 0
9709 0 0 0
9762 0 0 0
4018 0 0 0
4019 0 0 0
10008 0 0 0
10375 0 0 0
9976 0 0 0
9977 0 0 0
9910 0 0 0
9911 0 0 0
9975 0 0 0
10312 0 0 0
9844 0 0 0
9845 0 0 0
9909 0 0 0
10246 0 0 0
9778 0 0 0
9779 0 0 0
9843 0 0 0
10180 0 0 0
9712 0 0 0
9713 0 0 0
9777 0 0 0
10114 0 0 0
3991 0 0 0
9982 0 0 0
9983 0 0 0
9984 0 0 0
9992 0 0 0
9925 0 0 0
9859 0 0 0
9919 0 0 0
9922 0 0 0
9923 0 0 0
9940 0 0 0
9793 0 0 0
9853 0 0 0
9856 0 0 0
9857 0 0 0
9874 0 0 0
9727 0 0 0
9787 0 0 0
9790 0 0 0
9791 0 0 0
9808 0 0 0
9661 0 0 0
9721 0 0 0
9724 0 0 0
9725 0 0 0
9742 0 0 0
3999 0 0 0
9993 0 0 0
9994 0 0 0
9942 0 0 0
9876 0 0 0
9941 0 0 0
9944 0 0 0
9810 0 0 0
9875 0 0 0
9878 0 0 0
9744 0 0 0
9809 0 0 0
9812 0 0 0
9678 0 0 0
9743 0 0 0
9746 0 0 0
4002 0 0 0
4011 0 0 0
9995 0 0 0
10003 0 0 0
9947 0 0 0
9965 0 0 0
9881 0 0 0
9899 0 0 0
9945 0 0 0
9963 0 0 0
9815 0 0 0
9833 0 0 0
9879 0 0 0
9897 0 0 0
9749 0 0 0
9767 0 0 0
9813 0 0 0
9831 0 0 0
9683 0 0 0
9701 0 0 0
9747 0 0 0
9765 0 0 0
4014 0 0 0
10004 0 0 0
10005 0 0 0
10370 0 0 0
10376 0 0 0
9969 0 0 0
9903 0 0 0
9964 0 0 0
9967 0 0 0
10304 0 0 0
10313 0 0 0
9837 0 0 0
9898 0 0 0
9901 0 0 0
10238 0 0 0
10247 0 0 0
9771 0 0 0
9832 0 0 0
9835 0 0 0
10172 0 0 0
10181 0 0 0
9705 0 0 0
9766 0 0 0
9769 0 0 0
10106 0 0 0
10115 0 0 0
3987 0 0 0
3990 0 0 0
9979 0 0 0
9985 0 0 0
9918 0 0 0
9924 0 0 0
9852 0 0 0
9858 0 0 0
9913 0 0 0
9926 0 0 0
9786 0 0 0
9792 0 0 0
9847 0 0 0
9860 0 0 0
9720 0 0 0
9726 0 0 0
9781 0 0 0
9794 0 0 0
9654 0 0 0
9660 0 0 0
9715 0 0 0
9728 0 0 0
3992 0 0 0
3993 0 0 0
9986 0 0 0
9928 0 0 0
9929 0 0 0
9862 0 0 0
9863 0 0 0
9927 0 0 0
9796 0 0 0
9797 0 0 0
9861 0 0 0
9730 0 0 0
9731 0 0 0
9795 0 0 0
9664 0 0 0
9665 0 0 0
9729 0 0 0
3994 0 0 0
4001 0 0 0
4003 0 0 0
4004 0 0 0
9996 0 0 0
9932 0 0 0
9946 0 0 0
9950 0 0 0
9951 0 0 0
9866 0 0 0
9880 0 0 0
9884 0 0 0
9885 0 0 0
9948 0 0 0
9800 0 0 0
9814 0 0 0
9818 0 0 0
9819 0 0 0
9882 0 0 0
9734 0 0 0
9748 0 0 0
9752 0 0 0
9753 0 0 0
9816 0 0 0
9668 0 0 0
9682 0 0 0
9686 0 0 0
9687 0 0 0
9750 0 0 0
4005 0 0 0
4013 0 0 0
9997 0 0 0
10371 0 0 0
9953 0 0 0
9968 0 0 0
9887 0 0 0
9902 0 0 0
9949 0 0 0
10305 0 0 0
9821 0 0 0
9836 0 0 0
9883 0 0 0
10239 0 0 0
9755 0 0 0
9770 0 0 0
9817 0 0 0
10173 0 0 0
9689 0 0 0
9704 0 0 0
9751 0 0 0
10107 0 0 0
4326 0 0 0
4335 0 0 0
10373 0 0 0
10385 0 0 0
10331 0 0 0
10349 0 0 0
10265 0 0 0
10283 0 0 0
10309 0 0 0
10329 0 0 0
10199 0 0 0
10217 0 0 0
10243 0 0 0
10263 0 0 0
10133 0 0 0
10151 0 0 0
10177 0 0 0
10197 0 0 0
10067 0 0 0
10085 0 0 0
10111 0 0 0
10131 0 0 0
4337 0 0 0
10374 0 0 0
10395 0 0 0
10353 0 0 0
10287 0 0 0
10310 0 0 0
10350 0 0 0
10221 0 0 0
10244 0 0 0
10284 0 0 0
10155 0 0 0
10178 0 0 0
10218 0 0 0
10089 0 0 0
10112 0 0 0
10152 0 0 0
4342 0 0 0
10382 0 0 0
10383 0 0 0
10396 0 0 0
10402 0 0 0
10363 0 0 0
10297 0 0 0
10325 0 0 0
10326 0 0 0
10351 0 0 0
10364 0 0 0
10231 0 0 0
10259 0 0 0
10260 0 0 0
10285 0 0 0
10298 0 0 0
10165 0 0 0
10193 0 0 0
10194 0 0 0
10219 0 0 0
10232 0 0 0
10099 0 0 0
10127 0 0 0
10128 0 0 0
10153 0 0 0
10166 0 0 0
4344 0 0 0
4660 0 0 0
10394 0 0 0
10403 0 0 0
10367 0 0 0
10735 0 0 0
10301 0 0 0
10348 0 0 0
10365 0 0 0
10669 0 0 0
10235 0 0 0
10282 0 0 0
10299 0 0 0
10603 0 0 0
10169 0 0 0
10216 0 0 0
10233 0 0 0
10537 0 0 0
10103 0 0 0
10150 0 0 0
10167 0 0 0
10471 0 0 0
4319 0 0 0
4325 0 0 0
4327 0 0 0
4328 0 0 0
10386 0 0 0
10316 0 0 0
10330 0 0 0
10334 0 0 0
10335 0 0 0
10250 0 0 0
10264 0 0 0
10268 0 0 0
10269 0 0 0
10332 0 0 0
10184 0 0 0
10198 0 0 0
10202 0 0 0
10203 0 0 0
10266 0 0 0
10118 0 0 0
10132 0 0 0
10136 0 0 0
10137 0 0 0
10200 0 0 0
10052 0 0 0
10066 0 0 0
10070 0 0 0
10071 0 0 0
10134 0 0 0
4330 0 0 0
4336 0 0 0
10387 0 0 0
10339 0 0 0
10352 0 0 0
10273 0 0 0
10286 0 0 0
10333 0 0 0
10207 0 0 0
10220 0 0 0
10267 0 0 0
10141 0 0 0
10154 0 0 0
10201 0 0 0
10075 0 0 0
10088 0 0 0
10135 0 0 0
4338 0 0 0
4339 0 0 0
10397 0 0 0
10398 0 0 0
10356 0 0 0
10357 0 0 0
10290 0 0 0
10291 0 0 0
10354 0 0 0
10355 0 0 0
10224 0 0 0
10225 0 0 0
10288 0 0 0
10289 0 0 0
10158 0 0 0
10159 0 0 0
10222 0 0 0
10223 0 0 0
10092 0 0 0
10093 0 0 0
10156 0 0 0
10157 0 0 0
4341 0 0 0
4343 0 0 0
4651 0 0 0
4652 0 0 0
10404 0 0 0
10361 0 0 0
10366 0 0 0
10718 0 0 0
10719 0 0 0
10295 0 0 0
10300 0 0 0
10368 0 0 0
10652 0 0 0
10653 0 0 0
10229 0 0 0
10234 0 0 0
10302 0 0 0
10586 0 0 0
10587 0 0 0
10163 0 0 0
10168 0 0 0
10236 0 0 0
10520 0 0 0
10521 0 0 0
10097 0 0 0
10102 0 0 0
10170 0 0 0
10454 0 0 0
10455 0 0 0
4318 0 0 0
4321 0 0 0
10377 0 0 0
10378 0 0 0
10315 0 0 0
10320 0 0 0
10249 0 0 0
10254 0 0 0
10314 0 0 0
10317 0 0 0
10183 0 0 0
10188 0 0 0
10248 0 0 0
10251 0 0 0
10117 0 0 0
10122 0 0 0
10182 0 0 0
10185 0 0 0
10051 0 0 0
10056 0 0 0
10116 0 0 0
10119 0 0 0
4329 0 0 0
10379 0 0 0
10388 0 0 0
10338 0 0 0
10272 0 0 0
10318 0 0 0
10336 0 0 0
10206 0 0 0
10252 0 0 0
10270 0 0 0
10140 0 0 0
10186 0 0 0
10204 0 0 0
10074 0 0 0
10120 0 0 0
10138 0 0 0
4332 0 0 0
10389 0 0 0
10390 0 0 0
10391 0 0 0
10399 0 0 0
10343 0 0 0
10277 0 0 0
10337 0 0 0
10340 0 0 0
10341 0 0 0
10358 0 0 0
10211 0 0 0
10271 0 0 0
10274 0 0 0
10275 0 0 0
10292 0 0 0
10145 0 0 0
10205 0 0 0
10208 0 0 0
10209 0 0 0
10226 0 0 0
10079 0 0 0
10139 0 0 0
10142 0 0 0
10143 0 0 0
10160 0 0 0
4340 0 0 0
4647 0 0 0
10400 0 0 0
10401 0 0 0
10360 0 0 0
10709 0 0 0
10294 0 0 0
10359 0 0 0
10362 0 0 0
10643 0 0 0
10228 0 0 0
10293 0 0 0
10296 0 0 0
10577 0 0 0
10162 0 0 0
10227 0 0 0
10230 0 0 0
10511 0 0 0
10096 0 0 0
10161 0 0 0
10164 0 0 0
10445 0 0 0
4315 0 0 0
4316 0 0 0
4317 0 0 0
4320 0 0 0
10372 0 0 0
10307 0 0 0
10308 0 0 0
10311 0 0 0
10319 0 0 0
10241 0 0 0
10242 0 0 0
10245 0 0 0
10253 0 0 0
10306 0 0 0
10175 0 0 0
10176 0 0 0
10179 0 0 0
10187 0 0 0
10240 0 0 0
10109 0 0 0
10110 0 0 0
10113 0 0 0
10121 0 0 0
10174 0 0 0
10043 0 0 0
10044 0 0 0
10047 0 0 0
10055 0 0 0
10108 0 0 0
4322 0 0 0
4323 0 0 0
10380 0 0 0
10323 0 0 0
10324 0 0 0
10257 0 0 0
10258 0 0 0
10321 0 0 0
10191 0 0 0
10192 0 0 0
10255 0 0 0
10125 0 0 0
10126 0 0 0
10189 0 0 0
10059 0 0 0
10060 0 0 0
10123 0 0 0
4324 0 0 0
4331 0 0 0
10381 0 0 0
10392 0 0 0
10327 0 0 0
10342 0 0 0
10261 0 0 0
10276 0 0 0
10322 0 0 0
10344 0 0 0
10195 0 0 0
10210 0 0 0
10256 0 0 0
10278 0 0 0
10129 0 0 0
10144 0 0 0
10190 0 0 0
10212 0 0 0
10063 0 0 0
10078 0 0 0
10124 0 0 0
10146 0 0 0
4333 0 0 0
4334 0 0 0
4645 0 0 0
4646 0 0 0
10393 0 0 0
10346 0 0 0
10347 0 0 0
10706 0 0 0
10708 0 0 0
10280 0 0 0
10281 0 0 0
10345 0 0 0
10640 0 0 0
10642 0 0 0
10214 0 0 0
10215 0 0 0
10279 0 0 0
10574 0 0 0
10576 0 0 0
10148 0 0 0
10149 0 0 0
10213 0 0 0
10508 0 0 0
10510 0 0 0
10082 0 0 0
10083 0 0 0
10147 0 0 0
10442 0 0 0
10444 0 0 0
4662 0 0 0
10771 0 0 0
10775 0 0 0
10786 0 0 0
10787 0 0 0
10739 0 0 0
10673 0 0 0
10705 0 0 0
10714 0 0 0
10736 0 0 0
10737 0 0 0
10607 0 0 0
10639 0 0 0
10648 0 0 0
10670 0 0 0
10671 0 0 0
10541 0 0 0
10573 0 0 0
10582 0 0 0
10604 0 0 0
10605 0 0 0
10475 0 0 0
10507 0 0 0
10516 0 0 0
10538 0 0 0
10539 0 0 0
4671 0 0 0
10776 0 0 0
10795 0 0 0
4673 0 0 0
10755 0 0 0
10759 0 0 0
10689 0 0 0
10715 0 0 0
10756 0 0 0
10693 0 0 0
10623 0 0 0
10649 0 0 0
10690 0 0 0
10627 0 0 0
10557 0 0 0
10583 0 0 0
10624 0 0 0
10561 0 0 0
10491 0 0 0
10517 0 0 0
10558 0 0 0
10495 0 0 0
4678 0 0 0
10784 0 0 0
10796 0 0 0
10767 0 0 0
10701 0 0 0
10732 0 0 0
10757 0 0 0
10635 0 0 0
10666 0 0 0
10691 0 0 0
10569 0 0 0
10600 0 0 0
10625 0 0 0
10503 0 0 0
10534 0 0 0
10559 0 0 0
4680 0 0 0
10785 0 0 0
10800 0 0 0
11030 0 0 0
11039 0 0 0
10770 0 0 0
10704 0 0 0
10733 0 0 0
10768 0 0 0
10988 0 0 0
11003 0 0 0
10638 0 0 0
10667 0 0 0
10702 0 0 0
10946 0 0 0
10961 0 0 0
10572 0 0 0
10601 0 0 0
10636 0 0 0
10904 0 0 0
10919 0 0 0
10506 0 0 0
10535 0 0 0
10570 0 0 0
10862 0 0 0
10877 0 0 0
4654 0 0 0
4661 0 0 0
10777 0 0 0
10788 0 0 0
10723 0 0 0
10738 0 0 0
10657 0 0 0
10672 0 0 0
10717 0 0 0
10740 0 0 0
10591 0 0 0
10606 0 0 0
10651 0 0 0
10674 0 0 0
10525 0 0 0
10540 0 0 0
10585 0 0 0
10608 0 0 0
10459 0 0 0
10474 0 0 0
10519 0 0 0
10542 0 0 0
4663 0 0 0
4664 0 0 0
10789 0 0 0
4666 0 0 0
4672 0 0 0
10742 0 0 0
10743 0 0 0
10747 0 0 0
10758 0 0 0
10676 0 0 0
10677 0 0 0
10741 0 0 0
10681 0 0 0
10692 0 0 0
10610 0 0 0
10611 0 0 0
10675 0 0 0
10615 0 0 0
10626 0 0 0
10544 0 0 0
10545 0 0 0
10609 0 0 0
10549 0 0 0
10560 0 0 0
10478 0 0 0
10479 0 0 0
10543 0 0 0
10483 0 0 0
10494 0 0 0
4674 0 0 0
4675 0 0 0
10797 0 0 0
10762 0 0 0
10763 0 0 0
10696 0 0 0
10697 0 0 0
10760 0 0 0
10630 0 0 0
10631 0 0 0
10694 0 0 0
10564 0 0 0
10565 0 0 0
10628 0 0 0
10498 0 0 0
10499 0 0 0
10562 0 0 0
4677 0 0 0
4679 0 0 0
10798 0 0 0
11040 0 0 0
10766 0 0 0
10769 0 0 0
10700 0 0 0
10703 0 0 0
10761 0 0 0
11004 0 0 0
10634 0 0 0
10637 0 0 0
10695 0 0 0
10962 0 0 0
10568 0 0 0
10571 0 0 0
10629 0 0 0
10920 0 0 0
10502 0 0 0
10505 0 0 0
10563 0 0 0
10878 0 0 0
4653 0 0 0
10772 0 0 0
10778 0 0 0
10779 0 0 0
10780 0 0 0
10722 0 0 0
10656 0 0 0
10707 0 0 0
10720 0 0 0
10721 0 0 0
10724 0 0 0
10590 0 0 0
10641 0 0 0
10654 0 0 0
10655 0 0 0
10658 0 0 0
10524 0 0 0
10575 0 0 0
10588 0 0 0
10589 0 0 0
10592 0 0 0
10458 0 0 0
10509 0 0 0
10522 0 0 0
10523 0 0 0
10526 0 0 0
4656 0 0 0
10781 0 0 0
10790 0 0 0
4665 0 0 0
10727 0 0 0
10746 0 0 0
10661 0 0 0
10725 0 0 0
10744 0 0 0
10680 0 0 0
10595 0 0 0
10659 0 0 0
10678 0 0 0
10614 0 0 0
10529 0 0 0
10593 0 0 0
10612 0 0 0
10548 0 0 0
10463 0 0 0
10527 0 0 0
10546 0 0 0
10482 0 0 0
4668 0 0 0
10791 0 0 0
10792 0 0 0
10751 0 0 0
10685 0 0 0
10745 0 0 0
10748 0 0 0
10619 0 0 0
10679 0 0 0
10682 0 0 0
10553 0 0 0
10613 0 0 0
10616 0 0 0
10487 0 0 0
10547 0 0 0
10550 0 0 0
4676 0 0 0
10793 0 0 0
10799 0 0 0
11032 0 0 0
11033 0 0 0
10765 0 0 0
10699 0 0 0
10749 0 0 0
10764 0 0 0
10991 0 0 0
10992 0 0 0
10633 0 0 0
10683 0 0 0
10698 0 0 0
10949 0 0 0
10950 0 0 0
10567 0 0 0
10617 0 0 0
10632 0 0 0
10907 0 0 0
10908 0 0 0
10501 0 0 0
10551 0 0 0
10566 0 0 0
10865 0 0 0
10866 0 0 0
4648 0 0 0
4649 0 0 0
10773 0 0 0
10774 0 0 0
10712 0 0 0
10713 0 0 0
10646 0 0 0
10647 0 0 0
10710 0 0 0
10711 0 0 0
10580 0 0 0
10581 0 0 0
10644 0 0 0
10645 0 0 0
10514 0 0 0
10515 0 0 0
10578 0 0 0
10579 0 0 0
10448 0 0 0
10449 0 0 0
10512 0 0 0
10513 0 0 0
4650 0 0 0
4655 0 0 0
10782 0 0 0
4657 0 0 0
4658 0 0 0
10716 0 0 0
10726 0 0 0
10730 0 0 0
10731 0 0 0
10650 0 0 0
10660 0 0 0
10728 0 0 0
10664 0 0 0
10665 0 0 0
10584 0 0 0
10594 0 0 0
10662 0 0 0
10598 0 0 0
10599 0 0 0
10518 0 0 0
10528 0 0 0
10596 0 0 0
10532 0 0 0
10533 0 0 0
10452 0 0 0
10462 0 0 0
10530 0 0 0
10466 0 0 0
10467 0 0 0
4659 0 0 0
4667 0 0 0
10783 0 0 0
10734 0 0 0
10750 0 0 0
10668 0 0 0
10684 0 0 0
10729 0 0 0
10602 0 0 0
10618 0 0 0
10663 0 0 0
10536 0 0 0
10552 0 0 0
10597 0 0 0
10470 0 0 0
10486 0 0 0
10531 0 0 0
4669 0 0 0
4670 0 0 0
10794 0 0 0
11029 0 0 0
10753 0 0 0
10754 0 0 0
10687 0 0 0
10688 0 0 0
10752 0 0 0
10987 0 0 0
10621 0 0 0
10622 0 0 0
10686 0 0 0
10945 0 0 0
10555 0 0 0
10556 0 0 0
10620 0 0 0
10903 0 0 0
10489 0 0 0
10490 0 0 0
10554 0 0 0
10861 0 0 0
4987 0 0 0
4989 0 0 0
11031 0 0 0
11047 0 0 0
11017 0 0 0
11021 0 0 0
10975 0 0 0
10979 0 0 0
10989 0 0 0
11018 0 0 0
10933 0 0 0
10937 0 0 0
10947 0 0 0
10976 0 0 0
10891 0 0 0
10895 0 0 0
10905 0 0 0
10934 0 0 0
10849 0 0 0
10853 0 0 0
10863 0 0 0
10892 0 0 0
4992 0 0 0
11037 0 0 0
11038 0 0 0
11048 0 0 0
11052 0 0 0
11027 0 0 0
10985 0 0 0
11000 0 0 0
11001 0 0 0
11019 0 0 0
11028 0 0 0
10943 0 0 0
10958 0 0 0
10959 0 0 0
10977 0 0 0
10986 0 0 0
10901 0 0 0
10916 0 0 0
10917 0 0 0
10935 0 0 0
10944 0 0 0
10859 0 0 0
10874 0 0 0
10875 0 0 0
10893 0 0 0
10902 0 0 0
4981 0 0 0
4982 0 0 0
4984 0 0 0
4988 0 0 0
11041 0 0 0
11006 0 0 0
11007 0 0 0
11011 0 0 0
11020 0 0 0
10964 0 0 0
10965 0 0 0
10969 0 0 0
10978 0 0 0
11005 0 0 0
10922 0 0 0
10923 0 0 0
10927 0 0 0
10936 0 0 0
10963 0 0 0
10880 0 0 0
10881 0 0 0
10885 0 0 0
10894 0 0 0
10921 0 0 0
10838 0 0 0
10839 0 0 0
10843 0 0 0
10852 0 0 0
10879 0 0 0
4990 0 0 0
4991 0 0 0
11049 0 0 0
11050 0 0 0
11024 0 0 0
11025 0 0 0
10982 0 0 0
10983 0 0 0
11022 0 0 0
11023 0 0 0
10940 0 0 0
10941 0 0 0
10980 0 0 0
10981 0 0 0
10898 0 0 0
10899 0 0 0
10938 0 0 0
10939 0 0 0
10856 0 0 0
10857 0 0 0
10896 0 0 0
10897 0 0 0
4977 0 0 0
4983 0 0 0
11034 0 0 0
11042 0 0 0
10995 0 0 0
11010 0 0 0
10953 0 0 0
10968 0 0 0
10993 0 0 0
11008 0 0 0
10911 0 0 0
10926 0 0 0
10951 0 0 0
10966 0 0 0
10869 0 0 0
10884 0 0 0
10909 0 0 0
10924 0 0 0
10827 0 0 0
10842 0 0 0
10867 0 0 0
10882 0 0 0
4986 0 0 0
11043 0 0 0
11044 0 0 0
11045 0 0 0
11051 0 0 0
11015 0 0 0
10973 0 0 0
11009 0 0 0
11012 0 0 0
11013 0 0 0
11026 0 0 0
10931 0 0 0
10967 0 0 0
10970 0 0 0
10971 0 0 0
10984 0 0 0
10889 0 0 0
10925 0 0 0
10928 0 0 0
10929 0 0 0
10942 0 0 0
10847 0 0 0
10883 0 0 0
10886 0 0 0
10887 0 0 0
10900 0 0 0
4975 0 0 0
4976 0 0 0
4978 0 0 0
4979 0 0 0
11035 0 0 0
10990 0 0 0
10994 0 0 0
10998 0 0 0
10999 0 0 0
10948 0 0 0
10952 0 0 0
10956 0 0 0
10957 0 0 0
10996 0 0 0
10906 0 0 0
10910 0 0 0
10914 0 0 0
10915 0 0 0
10954 0 0 0
10864 0 0 0
10868 0 0 0
10872 0 0 0
10873 0 0 0
10912 0 0 0
10822 0 0 0
10826 0 0 0
10830 0 0 0
10831 0 0 0
10870 0 0 0
4980 0 0 0
4985 0 0 0
11036 0 0 0
11046 0 0 0
11002 0 0 0
11014 0 0 0
10960 0 0 0
10972 0 0 0
10997 0 0 0
11016 0 0 0
10918 0 0 0
10930 0 0 0
10955 0 0 0
10974 0 0 0
10876 0 0 0
10888 0 0 0
10913 0 0 0
10932 0 0 0
10834 0 0 0
10846 0 0 0
10871 0 0 0
10890 0 0 0
