LAMMPS data file via write_data, version 30 Mar 2026, timestep = 680, units = metal

11052 atoms
1 atom types

-19.37175440091473 19.37174559908527 xlo xhi
-123.7982680891511 124.690731910849 ylo yhi
-7.464885943232366 7.464914056767634 zlo zhi

Masses

1 58.6934

Atoms # atomic

174 1 -17.285908362252012 -103.00986724467067 -5.274135193181213 0 0 0
176 1 -18.002008287137844 -100.96881319734963 -4.029985192168773 0 0 0
177 1 -18.00200828723066 -100.96881319727875 -6.518285192222892 0 0 0
123 1 -12.981075462157655 -103.00986692222924 -5.274135191111923 0 0 0
124 1 -15.133491914100548 -103.00986698754362 -4.0299851933859445 0 0 0
125 1 -15.133491914143171 -103.00986698748525 -6.518285193378894 0 0 0
129 1 -13.697175232053239 -100.96881274932488 -4.029985189311526 0 0 0
139 1 -13.697175232107922 -100.96881274929467 -6.518285189345493 0 0 0
175 1 -15.849591762892832 -100.96881287760364 -5.274135191283299 0 0 0
69 1 -10.828658979153763 -103.0098670579844 -4.0299851905813355 0 0 0
83 1 -10.828658979091164 -103.00986705790773 -6.518285190553046 0 0 0
140 1 -11.544758676956436 -100.9688128293136 -5.27413518720372 0 0 0
33 1 -6.523825832065553 -103.00986784459818 -4.029985185222496 0 0 0
34 1 -6.523825832087517 -103.00986784445044 -6.518285185201843 0 0 0
84 1 -8.67624244056032 -103.00986737808901 -5.2741351885418535 0 0 0
85 1 -7.239925449550246 -100.9688135528615 -5.274135182150164 0 0 0
86 1 -9.392342087019072 -100.96881310836334 -4.029985184206356 0 0 0
87 1 -9.39234208706408 -100.96881310832624 -6.518285184277084 0 0 0
32 1 -4.371409148381412 -103.00986840076504 -5.274135179853589 0 0 0
38 1 -5.087508762341211 -100.96881410864886 -4.029985177066376 0 0 0
46 1 -5.087508762380481 -100.96881410866618 -6.518285177091211 0 0 0
7 1 -2.21899238861285 -103.00986898156049 -4.029985174099814 0 0 0
10 1 -2.2189923885808653 -103.00986898149375 -6.518285174037831 0 0 0
11 1 -0.7826752541471187 -100.96881527873629 -4.029985169188623 0 0 0
12 1 -0.78267525417118 -100.96881527862418 -6.518285169155707 0 0 0
47 1 -2.9350920278723356 -100.96881470843768 -5.274135171933401 0 0 0
5390 1 -0.06657556599540028 -103.00986950936569 -5.274135169105111 0 0 0
181 1 -16.565783648701853 -98.93499132151995 -4.029985190658433 0 0 0
187 1 -16.56578364864915 -98.93499132152344 -6.51828519060767 0 0 0
200 1 -18.71820019700352 -98.93499170416453 -5.274135189950555 0 0 0
204 1 -17.281980561491032 -96.90270733024155 -5.2741351909335386 0 0 0
188 1 -14.413367088077475 -98.93499113026887 -5.274135187974308 0 0 0
189 1 -12.97714741660846 -96.90270703093336 -5.274135188401748 0 0 0
190 1 -15.129564003919404 -96.90270707152618 -4.029985190779052 0 0 0
191 1 -15.129564003941722 -96.90270707148824 -6.518285190814667 0 0 0
141 1 -10.10853388358162 -98.93499138334194 -5.2741351813957875 0 0 0
142 1 -12.260950503753616 -98.93499115056919 -4.029985185070502 0 0 0
143 1 -12.260950503749575 -98.93499115052126 -6.5182851851281995 0 0 0
147 1 -10.824730792602384 -96.90270721588605 -4.0299851820726005 0 0 0
149 1 -10.824730792614467 -96.90270721590711 -6.518285182072307 0 0 0
91 1 -7.956117223734265 -98.934991798848 -4.0299851775395386 0 0 0
97 1 -7.956117223796461 -98.93499179894134 -6.518285177663171 0 0 0
100 1 -6.519897412699433 -96.90270814915932 -4.0299851735416565 0 0 0
101 1 -6.519897412663681 -96.90270814909726 -6.518285173589262 0 0 0
150 1 -8.67231412463024 -96.9027076037064 -5.274135177396227 0 0 0
49 1 -3.6512837808296212 -98.93499296435643 -4.0299851698767215 0 0 0
50 1 -3.651283780759724 -98.93499296435391 -6.5182851698878 0 0 0
98 1 -5.803700521396118 -98.93499234878854 -5.274135173836503 0 0 0
99 1 -4.367480661647867 -96.90270878338018 -5.2741351688052225 0 0 0
48 1 -1.4988670143280436 -98.93499357203726 -5.274135168741349 0 0 0
53 1 -2.215063883345773 -96.9027094293547 -4.029985165842288 0 0 0
54 1 -2.215063883434649 -96.90270942937873 -6.518285165965265 0 0 0
5412 1 -0.06264709040464717 -96.90271001267016 -5.274135162576767 0 0 0
160 1 -17.285908362309705 -103.00986724455136 -2.7858351932712626 0 0 0
161 1 -17.285908362268074 -103.00986724465092 -0.2975351932446292 0 0 0
164 1 -18.002008287113245 -100.96881319731764 -1.5416851922588846 0 0 0
109 1 -12.981075462189485 -103.00986692223337 -0.2975351912376821 0 0 0
111 1 -15.133491914173181 -103.00986698755655 -1.5416851933923823 0 0 0
126 1 -12.981075462209729 -103.00986692217354 -2.7858351912217625 0 0 0
128 1 -13.69717523204174 -100.96881274931386 -1.5416851893763426 0 0 0
162 1 -15.849591762873736 -100.96881287759169 -0.2975351912780711 0 0 0
178 1 -15.849591762934852 -100.96881287764123 -2.7858351913079926 0 0 0
68 1 -10.828658979138343 -103.00986705803541 -1.5416851906588536 0 0 0
127 1 -11.544758677042273 -100.96881282923984 -2.785835187192553 0 0 0
130 1 -11.544758676918997 -100.9688128292473 -0.297535187137484 0 0 0
21 1 -6.523825832006376 -103.00986784459303 -1.5416851851686104 0 0 0
67 1 -8.676242440609713 -103.00986737804932 -2.7858351885037957 0 0 0
70 1 -8.676242440552391 -103.00986737811982 -0.2975351884629881 0 0 0
71 1 -7.239925449584147 -100.96881355280436 -0.2975351820796929 0 0 0
73 1 -9.392342087010805 -100.96881310828091 -1.5416851842480284 0 0 0
88 1 -7.239925449636774 -100.96881355281315 -2.785835182056255 0 0 0
19 1 -4.371409148433531 -103.00986840076253 -0.297535179879013 0 0 0
35 1 -4.371409148408376 -103.00986840070938 -2.785835179841635 0 0 0
37 1 -5.087508762375219 -100.96881410870594 -1.5416851771284765 0 0 0
6 1 -2.2189923886016154 -103.00986898156766 -1.541685174068614 0 0 0
9 1 -0.7826752541065709 -100.9688152786871 -1.5416851692081461 0 0 0
36 1 -2.9350920279844512 -100.96881470847667 -2.785835171913157 0 0 0
39 1 -2.9350920278705717 -100.96881470839634 -0.2975351718215069 0 0 0
5378 1 -0.06657556606607476 -103.00986950930869 -2.785835169107296 0 0 0
5379 1 -0.06657556604419683 -103.00986950936735 -0.297535169115389 0 0 0
180 1 -16.565783648731525 -98.93499132157503 -1.5416851906575777 0 0 0
196 1 -18.718200196974703 -98.93499170414698 -0.2975351898935267 0 0 0
201 1 -18.718200196938724 -98.93499170415626 -2.7858351899428397 0 0 0
202 1 -17.281980561538468 -96.90270733019237 -2.7858351909306545 0 0 0
203 1 -17.281980561564726 -96.9027073302793 -0.2975351909250821 0 0 0
179 1 -14.413367088098932 -98.93499113023222 -2.785835187939721 0 0 0
182 1 -14.41336708811115 -98.93499113027707 -0.2975351879969404 0 0 0
183 1 -12.977147416577681 -96.90270703094411 -0.29753518838083376 0 0 0
185 1 -15.129564003935478 -96.90270707154343 -1.5416851907734765 0 0 0
192 1 -12.977147416571613 -96.90270703092122 -2.785835188336507 0 0 0
131 1 -10.10853388359249 -98.93499138334441 -0.29753518139126844 0 0 0
133 1 -12.260950503662775 -98.93499115058795 -1.5416851851123334 0 0 0
144 1 -10.108533883538994 -98.93499138336949 -2.7858351812976756 0 0 0
146 1 -10.824730792590438 -96.90270721587899 -1.5416851820543325 0 0 0
90 1 -7.956117223799097 -98.93499179896614 -1.541685177569477 0 0 0
95 1 -6.519897412672951 -96.902708149054 -1.5416851735826544 0 0 0
145 1 -8.672314124676507 -96.90270760365419 -2.78583517739938 0 0 0
148 1 -8.672314124643016 -96.90270760367778 -0.2975351773488625 0 0 0
42 1 -3.651283780786063 -98.9349929643242 -1.541685169995738 0 0 0
89 1 -5.803700521485643 -98.93499234879728 -2.785835173832377 0 0 0
92 1 -5.803700521438776 -98.93499234877942 -0.29753517383452677 0 0 0
93 1 -4.367480661640885 -96.902708783385 -0.2975351688509837 0 0 0
102 1 -4.367480661573747 -96.90270878335576 -2.7858351688022127 0 0 0
40 1 -1.498867014356365 -98.93499357202502 -0.2975351687351206 0 0 0
51 1 -1.4988670142964762 -98.9349935718509 -2.785835168727647 0 0 0
52 1 -2.2150638833230247 -96.90270942941436 -1.5416851659344288 0 0 0
5410 1 -0.06264709043259802 -96.90271001266689 -2.7858351626450912 0 0 0
5411 1 -0.06264709045291056 -96.90271001272714 -0.29753516264777913 0 0 0
152 1 -17.285908362243198 -103.00986724464858 2.190764806796203 0 0 0
156 1 -18.00200828714941 -100.9688131973351 3.434914807806861 0 0 0
163 1 -18.00200828724653 -100.96881319728293 0.9466148078264264 0 0 0
105 1 -15.133491914105264 -103.00986698754421 3.4349148066189565 0 0 0
110 1 -15.133491914138729 -103.00986698749504 0.9466148066179031 0 0 0
112 1 -12.981075462168532 -103.00986692223692 2.1907648088605316 0 0 0
114 1 -13.69717523204159 -100.96881274933843 3.43491481067865 0 0 0
115 1 -13.697175232093533 -100.96881274929844 0.9466148106402059 0 0 0
165 1 -15.84959176290333 -100.96881287762635 2.190764808719593 0 0 0
58 1 -10.82865897916952 -103.00986705798637 3.4349148093905626 0 0 0
59 1 -10.82865897906938 -103.00986705789974 0.9466148094126664 0 0 0
113 1 -11.544758676934853 -100.96881282930867 2.19076481279017 0 0 0
15 1 -6.523825832076496 -103.00986784456094 3.434914814818786 0 0 0
20 1 -6.523825832095158 -103.00986784446756 0.9466148148134764 0 0 0
57 1 -8.676242440562026 -103.00986737806677 2.1907648114250886 0 0 0
63 1 -9.392342087023387 -100.9688131083502 3.4349148157902176 0 0 0
72 1 -9.39234208709463 -100.96881310833449 0.9466148157252124 0 0 0
74 1 -7.239925449579378 -100.96881355286216 2.1907648178946437 0 0 0
22 1 -4.371409148380701 -103.00986840075879 2.190764820136516 0 0 0
24 1 -5.087508762353938 -100.96881410865979 3.4349148229108812 0 0 0
25 1 -5.0875087623766015 -100.96881410866708 0.9466148229254233 0 0 0
2 1 -2.2189923885830605 -103.00986898158482 3.4349148259198437 0 0 0
3 1 -2.2189923885893044 -103.00986898147089 0.9466148259511062 0 0 0
5 1 -0.7826752541037908 -100.96881527872188 3.4349148308479016 0 0 0
8 1 -0.7826752541705907 -100.96881527862635 0.9466148308252701 0 0 0
23 1 -2.935092027855521 -100.96881470846247 2.1907648280409187 0 0 0
5372 1 -0.06657556599285018 -103.00986950934556 2.190764830863063 0 0 0
167 1 -16.565783648692257 -98.9349913215178 3.434914809364973 0 0 0
168 1 -16.56578364863506 -98.93499132149701 0.9466148093422542 0 0 0
197 1 -18.718200197009995 -98.93499170417903 2.1907648100469834 0 0 0
198 1 -17.281980561455708 -96.9027073301907 2.190764809078067 0 0 0
166 1 -14.41336708807145 -98.93499113024278 2.1907648120106655 0 0 0
172 1 -15.129564003885754 -96.90270707150854 3.4349148091603645 0 0 0
184 1 -15.129564003960915 -96.90270707147944 0.946614809218754 0 0 0
186 1 -12.977147416655999 -96.90270703096745 2.1907648116408156 0 0 0
119 1 -12.260950503758226 -98.93499115054479 3.4349148149242765 0 0 0
132 1 -12.260950503772897 -98.93499115054765 0.946614814883232 0 0 0
134 1 -10.108533883594458 -98.93499138334342 2.19076481861994 0 0 0
136 1 -10.824730792618253 -96.9027072158945 3.4349148179643323 0 0 0
137 1 -10.824730792610461 -96.90270721589377 0.946614817915573 0 0 0
76 1 -7.956117223722383 -98.93499179888133 3.4349148224742323 0 0 0
77 1 -7.9561172237815585 -98.93499179892954 0.9466148223225842 0 0 0
81 1 -6.51989741266359 -96.90270814915066 3.434914826432822 0 0 0
94 1 -6.519897412676515 -96.90270814912553 0.9466148264082407 0 0 0
135 1 -8.672314124633798 -96.90270760370973 2.190764822565636 0 0 0
29 1 -3.6512837808056475 -98.9349929643479 3.43491483011505 0 0 0
41 1 -3.651283780783462 -98.93499296438183 0.946614830068214 0 0 0
75 1 -5.803700521392692 -98.93499234881997 2.1907648261072277 0 0 0
96 1 -4.36748066163886 -96.90270878338931 2.190764831218529 0 0 0
43 1 -1.4988670143054386 -98.93499357202928 2.190764831279676 0 0 0
44 1 -2.2150638833898086 -96.90270942938957 3.4349148341307827 0 0 0
45 1 -2.2150638834050422 -96.90270942936186 0.9466148341121089 0 0 0
5408 1 -0.06264709045602009 -96.90271001270408 2.1907648373995796 0 0 0
151 1 -17.285908362266486 -103.00986724461744 7.167364806766411 0 0 0
153 1 -17.285908362296908 -103.00986724454575 4.679064806729647 0 0 0
155 1 -18.00200828712271 -100.96881319730868 5.923214807756844 0 0 0
103 1 -12.981075462208763 -103.00986692216813 4.679064808790577 0 0 0
104 1 -15.133491914170053 -103.00986698755237 5.923214806660608 0 0 0
106 1 -12.981075462203698 -103.00986692224149 7.167364808796661 0 0 0
108 1 -13.697175232028533 -100.96881274931245 5.923214810628067 0 0 0
154 1 -15.849591762917488 -100.96881287759074 4.679064808671884 0 0 0
157 1 -15.849591762879049 -100.96881287760084 7.167364808734272 0 0 0
56 1 -10.828658979164794 -103.00986705803264 5.923214809349411 0 0 0
107 1 -11.544758676900573 -100.96881282924525 7.167364812849748 0 0 0
116 1 -11.54475867706321 -100.96881282925531 4.67906481285418 0 0 0
14 1 -6.52382583201371 -103.00986784455736 5.923214814828503 0 0 0
55 1 -8.676242440561342 -103.00986737808952 7.167364811553944 0 0 0
60 1 -8.676242440648483 -103.00986737803244 4.67906481152285 0 0 0
61 1 -7.239925449648365 -100.96881355278865 4.679064817926027 0 0 0
62 1 -9.392342087029366 -100.96881310829775 5.923214815769268 0 0 0
64 1 -7.239925449589235 -100.96881355279332 7.167364817932356 0 0 0
13 1 -4.371409148392244 -103.00986840070094 4.679064820179863 0 0 0
16 1 -4.371409148431825 -103.00986840072633 7.167364820128609 0 0 0
18 1 -5.087508762366489 -100.96881410867182 5.923214822882935 0 0 0
1 1 -2.218992388577424 -103.00986898159034 5.923214825926306 0 0 0
4 1 -0.7826752541070217 -100.96881527870511 5.923214830769928 0 0 0
17 1 -2.93509202787157 -100.96881470842783 7.167364828166896 0 0 0
26 1 -2.9350920279782096 -100.96881470847318 4.679064828118668 0 0 0
5371 1 -0.06657556603128424 -103.00986950940425 7.167364830893892 0 0 0
5373 1 -0.06657556602194001 -103.00986950929264 4.679064830918401 0 0 0
159 1 -16.565783648731063 -98.93499132154363 5.923214809315658 0 0 0
193 1 -18.718200196922435 -98.93499170412595 4.679064810055808 0 0 0
194 1 -18.718200197016845 -98.93499170416791 7.167364810111366 0 0 0
195 1 -17.281980561537978 -96.90270733024573 7.167364809034667 0 0 0
199 1 -17.28198056155007 -96.9027073302484 4.6790648090828215 0 0 0
158 1 -14.413367088088151 -98.93499113025344 7.167364812010781 0 0 0
169 1 -14.413367088103179 -98.9349911302732 4.67906481207839 0 0 0
170 1 -12.977147416546156 -96.90270703090125 4.679064811618815 0 0 0
171 1 -15.129564003942912 -96.9027070715507 5.923214809277765 0 0 0
173 1 -12.977147416611302 -96.90270703097006 7.167364811630673 0 0 0
117 1 -10.108533883521167 -98.93499138337388 4.679064818699455 0 0 0
118 1 -12.260950503639746 -98.93499115058846 5.923214814913399 0 0 0
120 1 -10.108533883566896 -98.93499138336455 7.167364818606221 0 0 0
122 1 -10.824730792552648 -96.90270721585206 5.923214817939943 0 0 0
66 1 -7.9561172237508115 -98.93499179894799 5.923214822405467 0 0 0
80 1 -6.519897412683591 -96.90270814909212 5.923214826418268 0 0 0
121 1 -8.672314124636276 -96.90270760367251 7.167364822602671 0 0 0
138 1 -8.67231412467562 -96.90270760368313 4.679064822609812 0 0 0
28 1 -3.6512837807855605 -98.93499296435165 5.923214830001607 0 0 0
65 1 -5.803700521436851 -98.93499234880595 7.167364826168434 0 0 0
78 1 -5.80370052144387 -98.93499234879943 4.679064826187165 0 0 0
79 1 -4.367480661600154 -96.90270878339561 4.679064831144482 0 0 0
82 1 -4.3674806616397 -96.9027087834 7.1673648311865685 0 0 0
27 1 -1.4988670143054046 -98.93499357189013 4.679064831232261 0 0 0
30 1 -1.4988670143481257 -98.93499357200457 7.167364831261287 0 0 0
31 1 -2.215063883315284 -96.90270942940151 5.923214834101098 0 0 0
5407 1 -0.06264709049169692 -96.90271001277254 7.167364837309234 0 0 0
5409 1 -0.06264709041591265 -96.90271001264385 4.679064837426281 0 0 0
424 1 -17.998181195873563 -94.8695099286711 -4.029985195555525 0 0 0
425 1 -17.9981811959024 -94.86950992866319 -6.518285195566414 0 0 0
429 1 -16.56196506127369 -92.83630235350373 -4.029985199234457 0 0 0
445 1 -16.56196506122464 -92.8363023535328 -6.51828519916688 0 0 0
500 1 -18.714381564310102 -92.83630277210091 -5.274135201033715 0 0 0
333 1 -13.693348092283944 -94.86950948964005 -4.029985192432523 0 0 0
349 1 -13.693348092349376 -94.86950948963212 -6.518285192353189 0 0 0
423 1 -15.845764659568065 -94.86950959469077 -5.2741351961794765 0 0 0
446 1 -14.409548525434094 -92.83630217185201 -5.2741351945261865 0 0 0
350 1 -11.54093148233684 -94.86950962303922 -5.274135184851931 0 0 0
351 1 -10.104715302936073 -92.83630258491219 -5.274135177229121 0 0 0
352 1 -12.257131943818425 -92.83630225184552 -4.029985184736687 0 0 0
353 1 -12.257131943814732 -92.83630225178723 -6.518285184783805 0 0 0
267 1 -7.236098107540811 -94.86951052867097 -5.274135172591693 0 0 0
268 1 -9.388514820420568 -94.86950998412641 -4.029985176918058 0 0 0
269 1 -9.388514820490895 -94.86950998399662 -6.5182851770850725 0 0 0
273 1 -7.952298600345031 -92.83630313010596 -4.029985172309866 0 0 0
288 1 -7.95229860033822 -92.83630313012794 -6.518285172294633 0 0 0
224 1 -5.083681351635488 -94.86951118661493 -4.029985168772926 0 0 0
234 1 -5.083681351753642 -94.86951118665085 -6.518285168831157 0 0 0
237 1 -3.6474650377198516 -92.83630457312682 -4.029985163161239 0 0 0
238 1 -3.64746503769158 -92.83630457311673 -6.518285163213094 0 0 0
289 1 -5.799881842009171 -92.83630382162984 -5.274135169809231 0 0 0
209 1 -0.7788477467613627 -94.86951252852808 -4.029985158084601 0 0 0
210 1 -0.7788477468389969 -94.8695125285131 -6.518285158091969 0 0 0
235 1 -2.9312645595567988 -94.86951188063237 -5.27413516292019 0 0 0
236 1 -1.495048203394767 -92.83630529884454 -5.274135156853664 0 0 0
518 1 -17.278165465200107 -90.80307985597328 -5.274135202900757 0 0 0
447 1 -12.973332427515242 -90.80307960270495 -5.274135187363287 0 0 0
448 1 -15.125748971616538 -90.80307958704783 -4.029985196512595 0 0 0
449 1 -15.12574897163029 -90.80307958703018 -6.518285196646402 0 0 0
357 1 -10.820915818832423 -90.80307990186928 -4.029985180681337 0 0 0
373 1 -10.820915818831413 -90.80307990187501 -6.518285180722452 0 0 0
291 1 -6.516082384982001 -90.80308118144073 -4.029985170532996 0 0 0
292 1 -6.516082384987825 -90.80308118141798 -6.518285170425829 0 0 0
374 1 -8.668499138310866 -90.80308045179136 -5.274135174952035 0 0 0
290 1 -4.363665572115703 -90.80308200525954 -5.274135163093045 0 0 0
241 1 -2.211248716782167 -90.80308282232372 -4.029985157825094 0 0 0
244 1 -2.2112487167381434 -90.8030828223226 -6.5182851578441605 0 0 0
5764 1 -0.058831842266775985 -90.80308353213908 -5.274135153119022 0 0 0
520 1 -17.99436582972061 -88.7698604344612 -4.029985208450766 0 0 0
521 1 -17.99436582975267 -88.76986043446007 -6.51828520848378 0 0 0
525 1 -16.558149781439642 -86.73664037052247 -4.02998520272067 0 0 0
535 1 -16.55814978144823 -86.73664037054749 -6.518285202640932 0 0 0
558 1 -18.710566174158608 -86.73664087717175 -5.274135214399415 0 0 0
453 1 -13.689532888963933 -88.76985999458127 -4.029985189889025 0 0 0
467 1 -13.689532889084914 -88.76985999458132 -6.518285189951388 0 0 0
519 1 -15.841949383468554 -88.76986005915363 -5.274135198802271 0 0 0
536 1 -14.405733341092072 -86.73664020650962 -5.274135194098279 0 0 0
468 1 -11.537116321178948 -88.76986025445046 -5.274135182469343 0 0 0
469 1 -10.100900209993634 -86.73664095991154 -5.274135179838797 0 0 0
470 1 -12.25331682420697 -86.73664041103645 -4.029985186639318 0 0 0
471 1 -12.253316824224882 -86.73664041095681 -6.518285186689623 0 0 0
375 1 -7.232282930702804 -88.76986158226059 -5.274135170514032 0 0 0
376 1 -9.384699668619273 -88.7698608055453 -4.029985177679184 0 0 0
377 1 -9.384699668625737 -88.7698608055741 -6.5182851777712285 0 0 0
381 1 -7.948483494122985 -86.73664178679935 -4.029985170749658 0 0 0
391 1 -7.94848349406963 -86.73664178683184 -6.5182851706504445 0 0 0
296 1 -5.079866115205332 -88.7698624891733 -4.029985162789246 0 0 0
306 1 -5.079866115272059 -88.76986248914578 -6.518285162886894 0 0 0
309 1 -3.6436497912473778 -86.73664384554378 -4.029985161009045 0 0 0
310 1 -3.6436497912781354 -86.73664384555062 -6.5182851609468 0 0 0
392 1 -5.7960666820587585 -86.73664278831221 -5.274135166055229 0 0 0
245 1 -0.7750323325576075 -88.76986424933467 -4.029985155831552 0 0 0
246 1 -0.7750323325807764 -88.76986424927875 -6.5182851558744614 0 0 0
307 1 -2.9274492400326535 -88.7698634162642 -5.274135158859624 0 0 0
308 1 -1.4912328499547665 -86.73664482747414 -5.274135159836745 0 0 0
566 1 -17.27435016283598 -84.70342073816656 -5.274135211936909 0 0 0
568 1 -17.99055052752512 -82.67020107051493 -4.029985221075758 0 0 0
569 1 -17.990550527531063 -82.67020107047934 -6.5182852212666225 0 0 0
537 1 -12.969517328285951 -84.703420577131 -5.274135192145676 0 0 0
538 1 -15.121933785854045 -84.70342044789149 -4.029985202955775 0 0 0
539 1 -15.121933785898758 -84.7034204479053 -6.518285203070492 0 0 0
543 1 -13.685717836186933 -82.67020064671223 -4.029985195897333 0 0 0
545 1 -13.685717836322365 -82.67020064672974 -6.51828519590312 0 0 0
567 1 -15.838134223296567 -82.67020061937994 -5.274135209755982 0 0 0
475 1 -10.817100764024849 -84.7034211131131 -4.029985182549767 0 0 0
481 1 -10.817100764041353 -84.70342111304176 -6.518285182465789 0 0 0
546 1 -11.533301329874977 -82.67020115290185 -5.274135185352394 0 0 0
394 1 -6.512267275729998 -84.70342309931931 -4.029985170259869 0 0 0
395 1 -6.512267275718193 -84.70342309932217 -6.518285170228755 0 0 0
482 1 -8.664684077666065 -84.7034219903826 -5.2741351740652656 0 0 0
483 1 -7.228467902190676 -82.67020330112938 -5.2741351723979415 0 0 0
484 1 -9.380884686867265 -82.67020207626916 -4.029985177765854 0 0 0
485 1 -9.380884686886601 -82.67020207625707 -6.518285177775462 0 0 0
393 1 -4.359850372896901 -84.70342430688666 -5.274135166212968 0 0 0
399 1 -5.0760509908968325 -82.67020467883141 -4.029985170489906 0 0 0
401 1 -5.076050990953562 -82.67020467891226 -6.518285170439088 0 0 0
313 1 -2.2074333978218097 -84.70342546292761 -4.029985166166063 0 0 0
316 1 -2.207433397873311 -84.70342546289474 -6.518285166108592 0 0 0
317 1 -0.7712169237206663 -82.67020721950504 -4.029985175732269 0 0 0
318 1 -0.7712169237591521 -82.67020721952825 -6.5182851756728235 0 0 0
402 1 -2.9236339838691925 -82.67020604012156 -5.274135171096812 0 0 0
5800 1 -0.05501639061849405 -84.7034264273175 -5.274135170808994 0 0 0
411 1 -17.99818119588349 -94.86950992870358 -1.5416851956575504 0 0 0
428 1 -16.561965061279576 -92.83630235349698 -1.5416851991958949 0 0 0
490 1 -18.714381564225416 -92.83630277202555 -0.29753520101301084 0 0 0
501 1 -18.714381564293554 -92.83630277206363 -2.7858352009138976 0 0 0
332 1 -13.693348092321907 -94.86950948962853 -1.5416851923211494 0 0 0
409 1 -15.84576465960443 -94.86950959474146 -0.2975351961419969 0 0 0
426 1 -15.845764659680135 -94.86950959469266 -2.785835196176397 0 0 0
427 1 -14.40954852547454 -92.83630217176461 -2.7858351945553497 0 0 0
430 1 -14.409548525515426 -92.83630217181219 -0.2975351945096101 0 0 0
331 1 -11.540931482370938 -94.86950962302033 -2.78583518485646 0 0 0
334 1 -11.54093148234898 -94.86950962306932 -0.2975351848641597 0 0 0
335 1 -10.104715302950241 -92.83630258496267 -0.2975351770950287 0 0 0
337 1 -12.257131943811803 -92.83630225182438 -1.5416851848382764 0 0 0
354 1 -10.104715303015608 -92.83630258498523 -2.785835177078393 0 0 0
253 1 -7.236098107499149 -94.86951052865234 -0.297535172539904 0 0 0
255 1 -9.388514820423541 -94.86950998404143 -1.5416851769639675 0 0 0
270 1 -7.236098107542943 -94.8695105286665 -2.7858351725431976 0 0 0
272 1 -7.952298600280214 -92.83630313018323 -1.5416851723059728 0 0 0
223 1 -5.08368135166675 -94.86951118665384 -1.5416851687844502 0 0 0
228 1 -3.6474650376746274 -92.8363045730668 -1.5416851631668962 0 0 0
271 1 -5.7998818419376175 -92.83630382163079 -2.785835169779354 0 0 0
274 1 -5.799881842024387 -92.83630382169679 -0.2975351696911003 0 0 0
208 1 -0.7788477467828749 -94.86951252854082 -1.5416851581060715 0 0 0
222 1 -2.931264559618028 -94.86951188053901 -2.7858351629451703 0 0 0
225 1 -2.9312645595782234 -94.86951188062271 -0.29753516296836396 0 0 0
226 1 -1.4950482034566048 -92.83630529883442 -0.2975351567897106 0 0 0
239 1 -1.495048203463809 -92.8363052988132 -2.7858351567269577 0 0 0
502 1 -17.278165465142308 -90.80307985577991 -2.7858352029315077 0 0 0
503 1 -17.278165465143953 -90.80307985590419 -0.2975352029359342 0 0 0
431 1 -12.973332427542427 -90.80307960273329 -0.2975351872911999 0 0 0
433 1 -15.125748971549694 -90.80307958699264 -1.5416851965963023 0 0 0
450 1 -12.973332427562898 -90.80307960278623 -2.7858351873332587 0 0 0
356 1 -10.820915818828784 -90.80307990193673 -1.5416851807414942 0 0 0
277 1 -6.5160823849959195 -90.8030811814191 -1.5416851704749708 0 0 0
355 1 -8.668499138325682 -90.80308045170317 -2.7858351749481476 0 0 0
358 1 -8.66849913834615 -90.80308045176355 -0.2975351749410046 0 0 0
275 1 -4.363665572113682 -90.80308200524182 -0.29753516309893024 0 0 0
293 1 -4.3636655721192685 -90.80308200521368 -2.7858351631307636 0 0 0
240 1 -2.211248716765575 -90.803082822307 -1.5416851578383646 0 0 0
5750 1 -0.05883184229940486 -90.80308353226955 -2.785835153147152 0 0 0
5751 1 -0.058831842226442076 -90.8030835321975 -0.2975351531111187 0 0 0
506 1 -17.994365829701145 -88.76986043449445 -1.5416852085712294 0 0 0
524 1 -16.558149781394103 -86.73664037053061 -1.541685202638624 0 0 0
550 1 -18.710566174206782 -86.73664087728413 -0.2975352143389755 0 0 0
559 1 -18.710566174269836 -86.73664087728844 -2.7858352143876037 0 0 0
452 1 -13.689532888996686 -88.7698599946396 -1.5416851899297568 0 0 0
504 1 -15.841949383470965 -88.76986005910734 -0.29753519883546525 0 0 0
522 1 -15.84194938356442 -88.76986005919751 -2.7858351987904664 0 0 0
523 1 -14.405733340984124 -86.73664020641637 -2.7858351940184254 0 0 0
526 1 -14.40573334109819 -86.73664020644196 -0.29753519406514667 0 0 0
451 1 -11.53711632114644 -88.76986025434795 -2.78583518253435 0 0 0
454 1 -11.537116321154997 -88.76986025449683 -0.2975351824674572 0 0 0
455 1 -10.10090021005706 -86.73664095989446 -0.29753517976380467 0 0 0
457 1 -12.253316824195549 -86.73664041109362 -1.5416851867591628 0 0 0
472 1 -10.100900210053966 -86.7366409599927 -2.7858351797276026 0 0 0
359 1 -7.232282930743251 -88.76986158228583 -0.2975351704718145 0 0 0
361 1 -9.384699668560188 -88.7698608055105 -1.5416851778041916 0 0 0
378 1 -7.232282930737022 -88.76986158223085 -2.785835170487454 0 0 0
380 1 -7.948483494115742 -86.73664178687336 -1.5416851705861971 0 0 0
295 1 -5.079866115221654 -88.76986248917181 -1.5416851629617672 0 0 0
300 1 -3.6436497912187615 -86.73664384556926 -1.5416851609826776 0 0 0
379 1 -5.7960666820061775 -86.73664278823408 -2.785835166091708 0 0 0
382 1 -5.796066682011952 -86.73664278833799 -0.297535166043516 0 0 0
243 1 -0.7750323325387356 -88.76986424931326 -1.5416851558331177 0 0 0
294 1 -2.9274492401510788 -88.7698634162866 -2.785835158894893 0 0 0
297 1 -2.9274492400561094 -88.76986341626768 -0.29753515885928633 0 0 0
298 1 -1.4912328499933187 -86.73664482743455 -0.29753515988399315 0 0 0
311 1 -1.491232849969446 -86.73664482742586 -2.7858351598185944 0 0 0
560 1 -17.274350162810634 -84.70342073807547 -2.7858352119281125 0 0 0
561 1 -17.27435016287183 -84.70342073820223 -0.29753521183376835 0 0 0
564 1 -17.99055052751825 -82.67020107047229 -1.5416852211595997 0 0 0
527 1 -12.969517328325104 -84.70342057709686 -0.29753519213613977 0 0 0
529 1 -15.121933785928716 -84.70342044789055 -1.5416852030149057 0 0 0
540 1 -12.969517328408946 -84.70342057709505 -2.7858351921726783 0 0 0
542 1 -13.685717836197075 -82.67020064679797 -1.5416851958928495 0 0 0
562 1 -15.83813422335807 -82.6702006193395 -0.29753520974396447 0 0 0
570 1 -15.83813422336185 -82.67020061941624 -2.7858352096792194 0 0 0
474 1 -10.81710076395257 -84.70342111301838 -1.5416851824923483 0 0 0
541 1 -11.533301329811145 -82.67020115287818 -2.7858351853900727 0 0 0
544 1 -11.533301329799341 -82.67020115291695 -0.29753518541083834 0 0 0
385 1 -6.512267275692842 -84.70342309930885 -1.5416851702551726 0 0 0
473 1 -8.664684077597023 -84.70342199034368 -2.785835174068096 0 0 0
476 1 -8.664684077655535 -84.70342199038326 -0.2975351739901576 0 0 0
477 1 -7.228467902217035 -82.67020330117208 -0.29753517239118055 0 0 0
479 1 -9.380884686837886 -82.67020207625454 -1.5416851778080096 0 0 0
486 1 -7.228467902279678 -82.67020330110158 -2.7858351723467725 0 0 0
383 1 -4.359850372922266 -84.70342430681949 -0.2975351661717423 0 0 0
396 1 -4.35985037292717 -84.70342430688683 -2.7858351662371152 0 0 0
398 1 -5.076050990953646 -82.6702046788855 -1.5416851704791696 0 0 0
312 1 -2.207433397851993 -84.70342546289027 -1.5416851661832593 0 0 0
315 1 -0.7712169236903298 -82.67020721947117 -1.5416851756348726 0 0 0
397 1 -2.9236339839458485 -82.67020604009083 -2.785835171054452 0 0 0
400 1 -2.9236339838532963 -82.67020604018174 -0.2975351711055785 0 0 0
5796 1 -0.05501639068657163 -84.7034264273124 -2.7858351708166817 0 0 0
5797 1 -0.055016390641015156 -84.70342642727162 -0.29753517076788655 0 0 0
405 1 -17.998181195876807 -94.86950992866524 3.4349148043823217 0 0 0
410 1 -17.998181195913332 -94.86950992868073 0.9466148044776137 0 0 0
414 1 -16.561965061276 -92.83630235353684 3.4349148008256476 0 0 0
415 1 -16.561965061217407 -92.83630235353077 0.946614800759204 0 0 0
491 1 -18.7143815643515 -92.8363027721839 2.1907647989939685 0 0 0
322 1 -13.693348092296533 -94.86950948966273 3.4349148076000424 0 0 0
323 1 -13.69334809234075 -94.86950948960084 0.946614807595368 0 0 0
412 1 -15.845764659598526 -94.86950959475057 2.1907648038352407 0 0 0
413 1 -14.409548525389962 -92.83630217181162 2.1907648054483184 0 0 0
321 1 -11.54093148232861 -94.86950962303075 2.190764815131837 0 0 0
327 1 -12.257131943793565 -92.83630225183352 3.4349148152005142 0 0 0
336 1 -12.257131943835955 -92.8363022518076 0.946614815259467 0 0 0
338 1 -10.104715302954073 -92.83630258494168 2.1907648228334393 0 0 0
249 1 -9.388514820419271 -94.86950998407518 3.4349148230755233 0 0 0
254 1 -9.388514820496512 -94.86950998402834 0.9466148229284416 0 0 0
256 1 -7.236098107535969 -94.86951052867657 2.19076482745458 0 0 0
258 1 -7.95229860035684 -92.83630313014481 3.4349148277143926 0 0 0
259 1 -7.952298600298581 -92.83630313011386 0.9466148276570118 0 0 0
214 1 -5.083681351669314 -94.86951118665615 3.4349148312196434 0 0 0
215 1 -5.083681351736217 -94.86951118661253 0.946614831167215 0 0 0
219 1 -3.6474650377111537 -92.83630457309246 3.434914836860901 0 0 0
227 1 -3.647465037729716 -92.83630457313032 0.9466148367692979 0 0 0
257 1 -5.799881842009712 -92.83630382161823 2.190764830185302 0 0 0
206 1 -0.7788477467816624 -94.86951252850865 3.434914841983839 0 0 0
207 1 -0.7788477468670159 -94.86951252854996 0.94661484190359 0 0 0
213 1 -2.931264559605378 -94.86951188066199 2.1907648370373334 0 0 0
229 1 -1.4950482033862376 -92.83630529882726 2.190764843226443 0 0 0
492 1 -17.278165465157567 -90.8030798559006 2.190764797119947 0 0 0
419 1 -15.125748971640201 -90.80307958704748 3.4349148034346806 0 0 0
432 1 -15.12574897164866 -90.80307958704925 0.9466148034232256 0 0 0
434 1 -12.973332427546053 -90.80307960274486 2.190764812708757 0 0 0
340 1 -10.820915818842439 -90.8030799018956 3.4349148193330366 0 0 0
341 1 -10.820915818804677 -90.80307990186226 0.9466148192251429 0 0 0
263 1 -6.5160823849661025 -90.80308118141616 3.4349148294702005 0 0 0
276 1 -6.516082384994159 -90.80308118143546 0.946614829580988 0 0 0
339 1 -8.668499138286313 -90.8030804517667 2.190764825032161 0 0 0
278 1 -4.363665572107789 -90.80308200522026 2.190764836957632 0 0 0
230 1 -2.211248716794583 -90.80308282233129 3.4349148421273483 0 0 0
231 1 -2.2112487167063315 -90.80308282229619 0.9466148422050423 0 0 0
5744 1 -0.05883184225904026 -90.80308353219448 2.190764846917988 0 0 0
496 1 -17.9943658296919 -88.76986043444771 3.4349147914710767 0 0 0
505 1 -17.994365829757285 -88.76986043446327 0.9466147916011184 0 0 0
509 1 -16.558149781465893 -86.73664037055609 3.434914797326357 0 0 0
510 1 -16.558149781417796 -86.73664037052089 0.9466147972300091 0 0 0
551 1 -18.710566174226887 -86.73664087727762 2.1907647856320023 0 0 0
436 1 -13.689532888998299 -88.76985999461004 3.4349148101783635 0 0 0
437 1 -13.689532889056323 -88.76985999454551 0.946614809988754 0 0 0
507 1 -15.84194938349946 -88.76986005920442 2.1907648012423566 0 0 0
508 1 -14.405733341052237 -86.7366402064319 2.1907648059007094 0 0 0
435 1 -11.537116321151046 -88.76986025439408 2.190764817522487 0 0 0
441 1 -12.253316824202525 -86.73664041097699 3.4349148132750167 0 0 0
456 1 -12.253316824235835 -86.73664041098262 0.9466148133487653 0 0 0
458 1 -10.10090021001077 -86.73664095992565 2.1907648202310446 0 0 0
345 1 -9.384699668623545 -88.76986080551444 3.4349148222936323 0 0 0
360 1 -9.38469966865372 -88.76986080559941 0.9466148223104645 0 0 0
362 1 -7.232282930727044 -88.76986158227506 2.1907648295886175 0 0 0
364 1 -7.948483494157576 -86.73664178683795 3.4349148292878176 0 0 0
365 1 -7.948483494033518 -86.73664178681217 0.9466148293507664 0 0 0
280 1 -5.079866115226678 -88.76986248918912 3.434914837198711 0 0 0
281 1 -5.079866115249827 -88.76986248911412 0.9466148371046628 0 0 0
285 1 -3.6436497912633823 -86.73664384550827 3.4349148389831843 0 0 0
299 1 -3.6436497912862533 -86.73664384557986 0.9466148390394866 0 0 0
363 1 -5.796066682069719 -86.73664278830955 2.1907648339326293 0 0 0
233 1 -0.7750323325227956 -88.76986424929406 3.434914844217569 0 0 0
242 1 -0.7750323325936544 -88.76986424930551 0.9466148440684877 0 0 0
279 1 -2.927449240043027 -88.76986341625417 2.190764841113604 0 0 0
301 1 -1.4912328499410243 -86.73664482741371 2.190764840203067 0 0 0
552 1 -17.27435016277134 -84.70342073812868 2.1907647880723045 0 0 0
556 1 -17.99055052750748 -82.67020107048937 3.4349147788006174 0 0 0
563 1 -17.990550527554355 -82.67020107050384 0.9466147788253442 0 0 0
514 1 -15.121933785822689 -84.7034204478505 3.434914796955928 0 0 0
528 1 -15.121933785899428 -84.70342044791418 0.9466147970403772 0 0 0
530 1 -12.969517328315803 -84.70342057717498 2.1907648079270428 0 0 0
532 1 -13.685717836225415 -82.67020064673484 3.434914804168919 0 0 0
533 1 -13.685717836301702 -82.67020064670787 0.9466148040533041 0 0 0
565 1 -15.838134223370158 -82.67020061943332 2.1907647902771488 0 0 0
460 1 -10.81710076405991 -84.70342111310973 3.434914817486004 0 0 0
461 1 -10.817100764027277 -84.7034211130113 0.9466148174439669 0 0 0
531 1 -11.533301329833188 -82.67020115284835 2.1907648146468195 0 0 0
369 1 -6.5122672757416415 -84.70342309931205 3.4349148297282643 0 0 0
384 1 -6.512267275726386 -84.70342309935394 0.9466148297364697 0 0 0
459 1 -8.66468407766407 -84.70342199036578 2.190764825900961 0 0 0
465 1 -9.380884686811989 -82.6702020762407 3.434914822170468 0 0 0
478 1 -9.380884686893207 -82.67020207628482 0.9466148222428238 0 0 0
480 1 -7.228467902195245 -82.67020330116527 2.1907648276296445 0 0 0
386 1 -4.3598503729131375 -84.70342430689925 2.1907648338232595 0 0 0
388 1 -5.076050990904549 -82.67020467885361 3.4349148295194234 0 0 0
389 1 -5.0760509909484774 -82.67020467889714 0.9466148294953316 0 0 0
302 1 -2.2074333978669154 -84.70342546292498 3.4349148338166016 0 0 0
303 1 -2.2074333978495684 -84.70342546287148 0.9466148339184735 0 0 0
305 1 -0.7712169237041676 -82.67020721952566 3.4349148242640246 0 0 0
314 1 -0.7712169237630954 -82.67020721952551 0.9466148242675277 0 0 0
387 1 -2.9236339838649874 -82.67020604012785 2.190764828931358 0 0 0
5792 1 -0.05501639063068688 -84.70342642735314 2.1907648291857935 0 0 0
404 1 -17.998181195875283 -94.86950992872306 5.923214804408877 0 0 0
408 1 -16.56196506125655 -92.8363023535051 5.923214800739645 0 0 0
487 1 -18.714381564233467 -92.83630277199599 4.67906479904147 0 0 0
488 1 -18.71438156427189 -92.83630277211473 7.167364798992942 0 0 0
320 1 -13.693348092314306 -94.86950948962829 5.923214807633245 0 0 0
403 1 -15.845764659669063 -94.86950959466579 4.679064803810466 0 0 0
406 1 -15.845764659626838 -94.86950959479513 7.167364803847215 0 0 0
407 1 -14.409548525462466 -92.83630217178138 7.167364805474392 0 0 0
416 1 -14.409548525509248 -92.83630217182974 4.679064805496717 0 0 0
319 1 -11.54093148233026 -94.86950962302824 7.167364815103902 0 0 0
324 1 -11.540931482398738 -94.86950962304367 4.679064815159309 0 0 0
325 1 -10.104715302989883 -92.83630258494156 4.679064822880921 0 0 0
326 1 -12.257131943833103 -92.83630225186425 5.923214815199452 0 0 0
328 1 -10.104715302977707 -92.8363025849635 7.1673648229278335 0 0 0
247 1 -7.236098107554047 -94.8695105286872 4.679064827436533 0 0 0
248 1 -9.388514820435839 -94.86950998405483 5.92321482303941 0 0 0
250 1 -7.236098107506912 -94.86951052865028 7.167364827466492 0 0 0
252 1 -7.95229860025091 -92.83630313015765 5.923214827705336 0 0 0
212 1 -5.083681351640979 -94.86951118662972 5.923214831222299 0 0 0
218 1 -3.6474650376765223 -92.83630457308391 5.923214836805155 0 0 0
251 1 -5.7998818420177045 -92.83630382172302 7.167364830239807 0 0 0
260 1 -5.799881841944837 -92.8363038216412 4.679064830260815 0 0 0
205 1 -0.7788477468509082 -94.86951252858574 5.923214841842454 0 0 0
211 1 -2.931264559609087 -94.8695118806444 7.167364836996672 0 0 0
216 1 -2.931264559654922 -94.86951188053274 4.679064837097938 0 0 0
217 1 -1.4950482034786132 -92.83630529881944 4.679064843220547 0 0 0
220 1 -1.495048203439547 -92.83630529877986 7.167364843206491 0 0 0
489 1 -17.27816546509112 -90.80307985584703 7.167364797058535 0 0 0
493 1 -17.278165465212926 -90.80307985585023 4.679064797094296 0 0 0
417 1 -12.973332427532748 -90.80307960275248 4.679064812637886 0 0 0
418 1 -15.12574897158485 -90.80307958703439 5.923214803482629 0 0 0
420 1 -12.973332427573121 -90.80307960279787 7.167364812700255 0 0 0
330 1 -10.820915818824265 -90.80307990189299 5.923214819262173 0 0 0
262 1 -6.516082385009955 -90.80308118147303 5.923214829540482 0 0 0
329 1 -8.668499138333578 -90.80308045172252 7.167364825006432 0 0 0
342 1 -8.668499138349542 -90.80308045173746 4.679064825084438 0 0 0
261 1 -4.363665572140187 -90.80308200520082 4.679064836856597 0 0 0
264 1 -4.3636655721193565 -90.80308200524631 7.167364836906697 0 0 0
221 1 -2.2112487167675865 -90.80308282225786 5.923214842158714 0 0 0
5743 1 -0.05883184227602056 -90.80308353220745 7.167364846796939 0 0 0
5745 1 -0.05883184226399897 -90.80308353218922 4.679064846891218 0 0 0
495 1 -17.994365829706425 -88.7698604345069 5.923214791555545 0 0 0
499 1 -16.558149781403024 -86.73664037051778 5.923214797301938 0 0 0
547 1 -18.71056617422888 -86.73664087722814 4.6790647856212955 0 0 0
548 1 -18.71056617428484 -86.73664087736768 7.167364785684009 0 0 0
422 1 -13.689532888999151 -88.76985999461483 5.923214810009028 0 0 0
494 1 -15.8419493835035 -88.76986005913072 4.679064801163198 0 0 0
497 1 -15.84194938352371 -88.769860059172 7.16736480120223 0 0 0
498 1 -14.405733341085147 -86.73664020637761 7.167364805887114 0 0 0
511 1 -14.405733341047478 -86.73664020644922 4.679064805987848 0 0 0
421 1 -11.537116321145685 -88.76986025443603 7.167364817470235 0 0 0
438 1 -11.53711632122237 -88.76986025437111 4.679064817495741 0 0 0
439 1 -10.10090021006637 -86.73664095992578 4.679064820254372 0 0 0
440 1 -12.253316824250627 -86.73664041109555 5.923214813310972 0 0 0
442 1 -10.100900210091456 -86.73664095993078 7.167364820233112 0 0 0
343 1 -7.232282930715985 -88.76986158222738 4.6790648294788415 0 0 0
344 1 -9.384699668610958 -88.76986080554141 5.923214822257708 0 0 0
346 1 -7.232282930761275 -88.7698615822962 7.167364829528209 0 0 0
348 1 -7.948483494125101 -86.73664178685097 5.923214829396863 0 0 0
266 1 -5.079866115191302 -88.76986248915487 5.923214837066534 0 0 0
284 1 -3.6436497912854287 -86.7366438455988 5.923214839015975 0 0 0
347 1 -5.7960666820489815 -86.73664278833272 7.167364833918947 0 0 0
366 1 -5.796066682028917 -86.73664278823705 4.679064833948714 0 0 0
232 1 -0.7750323325505898 -88.76986424930077 5.9232148440899195 0 0 0
265 1 -2.927449240063764 -88.7698634162768 7.1673648410797055 0 0 0
282 1 -2.927449240129959 -88.76986341625216 4.679064841118923 0 0 0
283 1 -1.4912328500169283 -86.7366448274268 4.67906484017121 0 0 0
286 1 -1.4912328499863463 -86.7366448273999 7.167364840098498 0 0 0
549 1 -17.274350162837607 -84.70342073813994 7.16736478808675 0 0 0
553 1 -17.274350162877706 -84.70342073815576 4.679064788082271 0 0 0
555 1 -17.990550527525542 -82.67020107048347 5.923214778935444 0 0 0
512 1 -12.96951732836824 -84.70342057701889 4.679064807811534 0 0 0
513 1 -15.121933785955767 -84.70342044790364 5.923214797052626 0 0 0
515 1 -12.969517328380123 -84.70342057713651 7.167364807867112 0 0 0
517 1 -13.68571783621911 -82.67020064676315 5.923214804067736 0 0 0
554 1 -15.83813422335334 -82.67020061934406 4.679064790280708 0 0 0
557 1 -15.8381342234096 -82.67020061939542 7.167364790259312 0 0 0
444 1 -10.81710076394444 -84.70342111297167 5.923214817500289 0 0 0
516 1 -11.533301329779926 -82.67020115286971 7.167364814519931 0 0 0
534 1 -11.533301329843377 -82.67020115292203 4.679064814660693 0 0 0
368 1 -6.512267275744902 -84.70342309934448 5.92321482977268 0 0 0
443 1 -8.664684077651835 -84.70342199035703 7.167364825950726 0 0 0
462 1 -8.66468407764649 -84.70342199035909 4.679064825969357 0 0 0
463 1 -7.228467902234916 -82.67020330111491 4.679064827665087 0 0 0
464 1 -9.380884686842347 -82.67020207627391 5.923214822272302 0 0 0
466 1 -7.228467902230191 -82.67020330117883 7.167364827644466 0 0 0
367 1 -4.359850372979308 -84.70342430686114 4.679064833728634 0 0 0
370 1 -4.359850372952227 -84.70342430682277 7.167364833850285 0 0 0
372 1 -5.076050990934169 -82.67020467885135 5.923214829534087 0 0 0
287 1 -2.2074333978709677 -84.70342546289146 5.923214833845673 0 0 0
304 1 -0.77121692367683 -82.67020721950543 5.923214824320165 0 0 0
371 1 -2.923633983839013 -82.67020604017617 7.167364828868525 0 0 0
390 1 -2.9236339839492693 -82.67020604008862 4.67906482897633 0 0 0
5791 1 -0.055016390670748594 -84.70342642729148 7.167364829204257 0 0 0
5793 1 -0.05501639065061767 -84.70342642728536 4.6790648291911445 0 0 0
753 1 -16.554334647648087 -80.63698073640707 -4.029985214178837 0 0 0
769 1 -16.55433464762067 -80.63698073647888 -6.518285214092151 0 0 0
836 1 -18.706750869858247 -80.63698138908394 -5.274135228613681 0 0 0
770 1 -14.401918342687338 -80.63698062640711 -5.274135198321465 0 0 0
675 1 -10.097085319177518 -80.63698203643484 -5.274135178674385 0 0 0
676 1 -12.249501909822522 -80.63698107802229 -4.0299851862535645 0 0 0
677 1 -12.249501909834386 -80.6369810780465 -6.518285186298123 0 0 0
609 1 -7.944668560946765 -80.6369833839569 -4.029985173379628 0 0 0
624 1 -7.944668560980662 -80.63698338399801 -6.518285173413512 0 0 0
585 1 -3.6398346098896184 -80.63698655337588 -4.029985172224083 0 0 0
586 1 -3.6398346098228425 -80.63698655344162 -6.518285172222263 0 0 0
625 1 -5.7922516485809705 -80.63698495403592 -5.274135169355789 0 0 0
584 1 -1.487417492347767 -80.63698798673146 -5.2741351785637 0 0 0
854 1 -17.270535052309512 -78.6037608014257 -5.2741352169730895 0 0 0
856 1 -17.986735429750592 -76.57054082282441 -4.029985216557258 0 0 0
857 1 -17.986735429761207 -76.57054082282339 -6.518285216625092 0 0 0
771 1 -12.965702499661067 -78.60376087305477 -5.274135185654873 0 0 0
772 1 -15.118118845338737 -78.6037605088764 -4.029985199111968 0 0 0
773 1 -15.118118845305524 -78.60376050881335 -6.518285199166146 0 0 0
777 1 -13.681903099940433 -76.57054052377633 -4.029985176490576 0 0 0
793 1 -13.681903100033423 -76.57054052372042 -6.518285176456566 0 0 0
855 1 -15.834319337055847 -76.57054029206607 -5.274135195379037 0 0 0
681 1 -10.813285977785256 -78.60376184853656 -4.029985175390812 0 0 0
697 1 -10.813285977800696 -78.6037618485252 -6.518285175333817 0 0 0
794 1 -11.529486663446193 -76.57054149232083 -5.27413516327705 0 0 0
627 1 -6.50845235087315 -78.60376510216672 -4.029985165571032 0 0 0
628 1 -6.508452350844048 -78.60376510209016 -6.518285165546507 0 0 0
698 1 -8.660869259391356 -78.6037633197947 -5.2741351684119655 0 0 0
699 1 -7.224653106556989 -76.57054509347152 -5.274135153957018 0 0 0
700 1 -9.377069999481892 -76.57054308069935 -4.0299851545349545 0 0 0
701 1 -9.377069999535639 -76.57054308063411 -6.518285154569917 0 0 0
626 1 -4.356035282907954 -78.6037669765716 -5.274135169500429 0 0 0
632 1 -5.0722360131879105 -76.57054727882095 -4.029985161354349 0 0 0
642 1 -5.072236013156659 -76.57054727881754 -6.518285161348706 0 0 0
589 1 -2.203618105248209 -78.60376871125781 -4.029985179828144 0 0 0
592 1 -2.203618105260876 -78.6037687113125 -6.518285179889748 0 0 0
593 1 -0.7674014583363108 -76.57055109828333 -4.029985200246975 0 0 0
594 1 -0.7674014584240819 -76.57055109842113 -6.518285200261504 0 0 0
643 1 -2.919818772699773 -76.57054936727401 -5.274135178784967 0 0 0
6130 1 -0.05120088157107208 -78.60377009412727 -5.274135194134395 0 0 0
861 1 -16.550519809807714 -74.53731997423786 -4.029985179414617 0 0 0
875 1 -16.550519809767597 -74.53731997422112 -6.518285179348668 0 0 0
908 1 -18.702935769504364 -74.53732080952395 -5.274135209832939 0 0 0
920 1 -17.26672024646742 -72.50409955751334 -5.274135148542251 0 0 0
876 1 -14.398103700477847 -74.53732001668392 -5.274135153156573 0 0 0
877 1 -12.961888101707583 -72.50410016494837 -5.274135096742116 0 0 0
878 1 -15.114304292637545 -72.50409933871876 -4.029985116275583 0 0 0
879 1 -15.114304292532992 -72.50409933873188 -6.518285116304866 0 0 0
795 1 -10.093270782847856 -74.53732263439407 -5.274135130251363 0 0 0
796 1 -12.245687373215624 -74.5373209386089 -4.029985137832408 0 0 0
797 1 -12.24568737314326 -74.53732093858049 -6.518285137926429 0 0 0
801 1 -10.809471610177338 -72.50410194296848 -4.029985093829316 0 0 0
811 1 -10.809471610179918 -72.50410194301308 -6.518285093812368 0 0 0
705 1 -7.940853919259218 -74.53732489171401 -4.029985133181658 0 0 0
719 1 -7.940853919258039 -74.53732489173673 -6.518285133212616 0 0 0
722 1 -6.5046376745627565 -72.50410737807184 -4.029985129560526 0 0 0
723 1 -6.50463767452881 -72.50410737805332 -6.5182851294576185 0 0 0
812 1 -8.657054794858942 -72.5041044536574 -5.274135105122266 0 0 0
645 1 -3.636019504412318 -74.53732992544661 -4.029985174422958 0 0 0
646 1 -3.636019504346237 -74.53732992546135 -6.518285174406295 0 0 0
720 1 -5.788436807848406 -74.53732742749219 -5.274135148944673 0 0 0
721 1 -4.352220308247148 -72.50411034971164 -5.2741351683916005 0 0 0
644 1 -1.4836020907135454 -74.53733207547118 -5.274135206926189 0 0 0
649 1 -2.1998027868999714 -72.50411299738708 -4.029985214373342 0 0 0
652 1 -2.199802786985135 -72.50411299736864 -6.518285214446118 0 0 0
6184 1 -0.04738521723844936 -72.5041149981602 -5.274135260736797 0 0 0
922 1 -17.982920639919655 -70.47087905469338 -4.029985103618967 0 0 0
923 1 -17.982920639941042 -70.47087905467848 -6.518285103550128 0 0 0
883 1 -13.678088843487417 -70.47087914246318 -4.029985037752455 0 0 0
889 1 -13.67808884356404 -70.47087914243353 -6.518285037782198 0 0 0
921 1 -15.830504867985413 -70.47087848243669 -5.274135061354292 0 0 0
890 1 -11.5256724818835 -70.4708809651758 -5.274135038527949 0 0 0
813 1 -7.220838626005862 -70.47088708260276 -5.274135102892687 0 0 0
814 1 -9.373255739050991 -70.47088373023533 -4.029985061179808 0 0 0
815 1 -9.373255739011523 -70.470883730226 -6.518285061128469 0 0 0
727 1 -5.068421199858975 -70.47089059766746 -4.029985159458408 0 0 0
733 1 -5.068421199911665 -70.47089059773413 -6.518285159501251 0 0 0
653 1 -0.7635858367601517 -70.4708963855275 -4.029985288475406 0 0 0
654 1 -0.7635858367695834 -70.47089638549967 -6.518285288395183 0 0 0
734 1 -2.9160035621229223 -70.47089382903279 -5.274135223035003 0 0 0
752 1 -16.554334647683486 -80.63698073645374 -1.5416852140666562 0 0 0
826 1 -18.706750869832966 -80.63698138912807 -0.2975352286504645 0 0 0
837 1 -18.706750869889213 -80.63698138915926 -2.7858352285911887 0 0 0
751 1 -14.401918342651554 -80.63698062636794 -2.7858351984229524 0 0 0
754 1 -14.401918342747248 -80.6369806264781 -0.2975351983331815 0 0 0
661 1 -10.097085319180103 -80.63698203639971 -0.2975351786516582 0 0 0
663 1 -12.24950190975531 -80.63698107807308 -1.5416851862407643 0 0 0
678 1 -10.097085319222796 -80.63698203640118 -2.7858351785720186 0 0 0
608 1 -7.944668561002056 -80.63698338401959 -1.5416851733884414 0 0 0
578 1 -3.6398346098335566 -80.63698655341952 -1.541685172254915 0 0 0
607 1 -5.792251648520061 -80.63698495407577 -2.7858351693913193 0 0 0
610 1 -5.792251648513989 -80.63698495409227 -0.2975351693292018 0 0 0
576 1 -1.4874174922469454 -80.63698798671365 -0.2975351783883255 0 0 0
587 1 -1.487417492264245 -80.63698798662105 -2.7858351784099926 0 0 0
838 1 -17.270535052229583 -78.60376080132491 -2.7858352170275906 0 0 0
839 1 -17.270535052282888 -78.60376080142227 -0.29753521695197344 0 0 0
842 1 -17.98673542973168 -76.57054082288138 -1.5416852166027282 0 0 0
755 1 -12.965702499597565 -78.60376087302829 -0.2975351856847361 0 0 0
757 1 -15.118118845351365 -78.6037605088056 -1.5416851992601952 0 0 0
774 1 -12.965702499616793 -78.60376087307506 -2.7858351856872656 0 0 0
776 1 -13.681903099905865 -76.57054052368235 -1.5416851764008872 0 0 0
840 1 -15.834319337105017 -76.5705402920499 -0.29753519537605005 0 0 0
858 1 -15.834319337150145 -76.57054029210848 -2.785835195329801 0 0 0
680 1 -10.813285977821678 -78.60376184848863 -1.5416851753454157 0 0 0
775 1 -11.52948666342359 -76.57054149222533 -2.7858351632171363 0 0 0
778 1 -11.52948666342808 -76.57054149221351 -0.29753516323070583 0 0 0
613 1 -6.508452350825414 -78.60376510215355 -1.5416851656076662 0 0 0
679 1 -8.660869259363686 -78.60376331969027 -2.7858351684437745 0 0 0
682 1 -8.660869259390909 -78.60376331976688 -0.2975351684261374 0 0 0
683 1 -7.224653106524786 -76.5705450934459 -0.2975351539161788 0 0 0
685 1 -9.377069999451761 -76.57054308066675 -1.541685154599153 0 0 0
702 1 -7.224653106574022 -76.57054509349919 -2.7858351538900616 0 0 0
611 1 -4.356035282903888 -78.60376697653504 -0.29753516953069264 0 0 0
629 1 -4.356035282993821 -78.60376697651348 -2.7858351695470653 0 0 0
631 1 -5.0722360131808415 -76.57054727881618 -1.5416851613246876 0 0 0
588 1 -2.2036181052507846 -78.60376871127968 -1.5416851797702578 0 0 0
591 1 -0.7674014583754174 -76.57055109836385 -1.541685200256634 0 0 0
630 1 -2.9198187728442546 -76.57054936716816 -2.7858351786927784 0 0 0
633 1 -2.919818772760417 -76.57054936716861 -0.2975351786909166 0 0 0
6116 1 -0.051200881588391534 -78.60377009420313 -2.7858351940981243 0 0 0
6117 1 -0.05120088157151033 -78.60377009420489 -0.29753519418753266 0 0 0
860 1 -16.5505198097412 -74.53731997425186 -1.541685179409313 0 0 0
898 1 -18.702935769495344 -74.53732080954629 -0.2975352097841628 0 0 0
909 1 -18.702935769598362 -74.53732080954731 -2.7858352097347625 0 0 0
910 1 -17.26672024641602 -72.50409955750817 -2.7858351486276844 0 0 0
911 1 -17.26672024641209 -72.50409955750004 -0.2975351486232859 0 0 0
859 1 -14.398103700425523 -74.537320016639 -2.785835153250172 0 0 0
862 1 -14.398103700491985 -74.53732001666833 -0.2975351532170367 0 0 0
863 1 -12.961888101608391 -72.50410016500612 -0.2975350967548127 0 0 0
865 1 -15.114304292634737 -72.50409933872484 -1.541685116324275 0 0 0
880 1 -12.96188810164567 -72.50410016493859 -2.785835096776542 0 0 0
779 1 -10.09327078284187 -74.53732263443594 -0.2975351302588695 0 0 0
781 1 -12.245687373145905 -74.53732093856036 -1.541685137921477 0 0 0
798 1 -10.093270782825593 -74.5373226344255 -2.785835130211896 0 0 0
800 1 -10.809471610203103 -72.50410194299901 -1.541685093798686 0 0 0
704 1 -7.940853919246689 -74.53732489172893 -1.5416851331956356 0 0 0
709 1 -6.504637674564718 -72.50410737809524 -1.5416851295003857 0 0 0
799 1 -8.657054794920317 -72.50410445362184 -2.785835105162143 0 0 0
802 1 -8.657054794886696 -72.50410445360046 -0.29753510507301467 0 0 0
636 1 -3.6360195044247052 -74.53732992545942 -1.5416851743837947 0 0 0
703 1 -5.788436807770855 -74.53732742758089 -2.785835148975693 0 0 0
706 1 -5.788436807839007 -74.53732742751804 -0.2975351489429615 0 0 0
707 1 -4.352220308162299 -72.50411034988352 -0.29753516834346466 0 0 0
724 1 -4.352220308071184 -72.50411034973519 -2.7858351684787652 0 0 0
634 1 -1.4836020908057233 -74.53733207544109 -0.29753520690051977 0 0 0
647 1 -1.4836020907183833 -74.5373320754365 -2.7858352068535206 0 0 0
648 1 -2.199802786972007 -72.50411299739505 -1.5416852144320856 0 0 0
6176 1 -0.04738521721377527 -72.50411499820505 -2.7858352607373424 0 0 0
6177 1 -0.04738521722764868 -72.5041149981219 -0.29753526080888887 0 0 0
914 1 -17.982920639876863 -70.47087905467967 -1.5416851036050478 0 0 0
882 1 -13.678088843486238 -70.47087914246505 -1.5416850378267337 0 0 0
912 1 -15.830504867934676 -70.47087848248428 -0.2975350613818533 0 0 0
924 1 -15.830504867986422 -70.47087848246395 -2.7858350614006393 0 0 0
881 1 -11.525672482041164 -70.4708809651264 -2.7858350385217223 0 0 0
884 1 -11.525672481952398 -70.47088096508567 -0.2975350385021066 0 0 0
803 1 -7.220838625980412 -70.47088708257725 -0.2975351029350391 0 0 0
805 1 -9.373255739024133 -70.47088373013972 -1.541685061073101 0 0 0
816 1 -7.220838626019522 -70.4708870826444 -2.785835102867944 0 0 0
726 1 -5.068421199819803 -70.47089059765463 -1.5416851595109031 0 0 0
651 1 -0.7635858366459376 -70.4708963854967 -1.5416852883497387 0 0 0
725 1 -2.916003562135072 -70.47089382905816 -2.785835223058869 0 0 0
728 1 -2.916003562112554 -70.47089382905669 -0.29753522298480367 0 0 0
742 1 -16.554334647642772 -80.63698073642117 3.4349147858870013 0 0 0
743 1 -16.554334647621815 -80.63698073645963 0.9466147858314671 0 0 0
827 1 -18.70675086991585 -80.63698138916021 2.1907647714533867 0 0 0
741 1 -14.401918342674454 -80.6369806263604 2.1907648016526613 0 0 0
657 1 -12.24950190981936 -80.63698107800234 3.434914813692903 0 0 0
662 1 -12.2495019098509 -80.63698107806704 0.9466148137336529 0 0 0
664 1 -10.09708531919606 -80.63698203647093 2.190764821387721 0 0 0
598 1 -7.944668560930835 -80.63698338398926 3.434914826623454 0 0 0
599 1 -7.944668560948881 -80.63698338397762 0.9466148265202343 0 0 0
573 1 -3.639834609871703 -80.63698655338274 3.434914827767733 0 0 0
577 1 -3.639834609810317 -80.63698655347221 0.9466148277750494 0 0 0
597 1 -5.79225164856693 -80.63698495402444 2.190764830668503 0 0 0
579 1 -1.487417492311955 -80.63698798673552 2.190764821483965 0 0 0
828 1 -17.270535052246757 -78.60376080140009 2.1907647830194437 0 0 0
832 1 -17.98673542970785 -76.57054082282437 3.434914783385132 0 0 0
841 1 -17.986735429766135 -76.5705408228693 0.9466147834163557 0 0 0
747 1 -15.118118845324753 -78.60376050883833 3.4349148008009154 0 0 0
756 1 -15.118118845327304 -78.6037605088482 0.946614800819548 0 0 0
758 1 -12.965702499710773 -78.60376087309349 2.1907648143999925 0 0 0
760 1 -13.68190309996684 -76.5705405237963 3.4349148235281284 0 0 0
761 1 -13.681903100029695 -76.57054052368595 0.9466148234585487 0 0 0
843 1 -15.834319337050086 -76.57054029209068 2.1907648046475847 0 0 0
666 1 -10.813285977786101 -78.60376184856321 3.4349148246518584 0 0 0
667 1 -10.813285977788366 -78.60376184851344 0.9466148246102708 0 0 0
759 1 -11.529486663448163 -76.57054149230339 2.1907648367460992 0 0 0
603 1 -6.508452350843114 -78.60376510211755 3.434914834394229 0 0 0
612 1 -6.508452350830452 -78.6037651021089 0.9466148344676939 0 0 0
665 1 -8.6608692593793 -78.60376331977399 2.190764831608286 0 0 0
671 1 -9.377069999468146 -76.57054308069645 3.434914845447096 0 0 0
684 1 -9.377069999531933 -76.57054308064849 0.946614845455359 0 0 0
686 1 -7.224653106565705 -76.57054509346905 2.1907648460942606 0 0 0
614 1 -4.356035282872218 -78.60376697656879 2.1907648305632965 0 0 0
616 1 -5.07223601320968 -76.57054727882061 3.4349148386441937 0 0 0
617 1 -5.072236013159201 -76.57054727879974 0.9466148386569206 0 0 0
580 1 -2.203618105234651 -78.60376871128058 3.434914820184533 0 0 0
581 1 -2.2036181052571884 -78.6037687113099 0.9466148200769184 0 0 0
583 1 -0.7674014583559225 -76.57055109831587 3.434914799761691 0 0 0
590 1 -0.7674014584375617 -76.57055109841627 0.946614799691023 0 0 0
615 1 -2.919818772731462 -76.57054936726618 2.1907648212858426 0 0 0
6110 1 -0.05120088158388508 -78.60377009413561 2.1907648059022433 0 0 0
845 1 -16.550519809827737 -74.53731997424518 3.434914820579995 0 0 0
846 1 -16.550519809746163 -74.53731997421701 0.9466148205786059 0 0 0
899 1 -18.702935769513907 -74.53732080956463 2.190764790221789 0 0 0
900 1 -17.266720246451317 -72.50409955750732 2.190764851466602 0 0 0
844 1 -14.39810370046036 -74.53732001665242 2.1907648468645076 0 0 0
850 1 -15.114304292607835 -72.50409933869302 3.4349148837029153 0 0 0
864 1 -15.114304292520533 -72.5040993387384 0.9466148836838046 0 0 0
866 1 -12.96188810168422 -72.50410016494335 2.1907649032407197 0 0 0
765 1 -12.245687373218196 -74.53732093858528 3.4349148621135943 0 0 0
780 1 -12.24568737315466 -74.5373209385875 0.9466148620304011 0 0 0
782 1 -10.09327078285152 -74.53732263443158 2.190764869776007 0 0 0
784 1 -10.809471610183833 -72.50410194299022 3.4349149061469793 0 0 0
785 1 -10.809471610166334 -72.5041019429999 0.9466149061841752 0 0 0
688 1 -7.9408539192850816 -74.5373248917034 3.434914866812346 0 0 0
689 1 -7.9408539192585605 -74.53732489172661 0.9466148667724892 0 0 0
693 1 -6.504637674564687 -72.50410737807469 3.4349148704203167 0 0 0
708 1 -6.504637674542735 -72.50410737807343 0.9466148704667021 0 0 0
783 1 -8.657054794878675 -72.50410445366276 2.1907648948808425 0 0 0
621 1 -3.636019504408169 -74.5373299254378 3.4349148255981086 0 0 0
635 1 -3.6360195043812 -74.5373299254863 0.9466148255572231 0 0 0
687 1 -5.788436807868173 -74.53732742749814 2.1907648510913873 0 0 0
710 1 -4.352220308231005 -72.50411034969194 2.1907648316354167 0 0 0
637 1 -1.4836020907212326 -74.5373320754907 2.1907647931152012 0 0 0
638 1 -2.199802786908128 -72.50411299744576 3.4349147856114692 0 0 0
639 1 -2.1998027869607717 -72.50411299738737 0.9466147855863931 0 0 0
6170 1 -0.047385217247990975 -72.50411499817403 2.1907647392586487 0 0 0
904 1 -17.982920639869544 -70.47087905468358 3.4349148963765086 0 0 0
913 1 -17.98292063995706 -70.4708790546723 0.9466148964357564 0 0 0
868 1 -13.67808884347212 -70.47087914248982 3.4349149621945627 0 0 0
869 1 -13.67808884356557 -70.47087914243531 0.946614962230494 0 0 0
915 1 -15.830504867953243 -70.47087848242472 2.1907649386796066 0 0 0
867 1 -11.5256724819031 -70.47088096519443 2.190764961482881 0 0 0
789 1 -9.373255739028941 -70.47088373022879 3.4349149388733506 0 0 0
804 1 -9.373255739012299 -70.47088373024374 0.9466149388345948 0 0 0
806 1 -7.2208386259847 -70.47088708256716 2.190764897117386 0 0 0
712 1 -5.0684211998822395 -70.47089059768224 3.43491484045038 0 0 0
713 1 -5.068421199913792 -70.47089059771574 0.9466148405363426 0 0 0
641 1 -0.7635858367214953 -70.47089638551753 3.434914711534152 0 0 0
650 1 -0.7635858367782284 -70.47089638550037 0.9466147115648821 0 0 0
711 1 -2.9160035621466585 -70.4708938290794 2.1907647769378213 0 0 0
740 1 -16.554334647627506 -80.63698073641037 5.923214785862502 0 0 0
823 1 -18.70675086981287 -80.63698138911539 4.67906477137907 0 0 0
824 1 -18.706750869861928 -80.63698138921065 7.167364771349319 0 0 0
739 1 -14.401918342711937 -80.63698062640677 7.16736480161856 0 0 0
744 1 -14.401918342681236 -80.63698062642754 4.679064801619622 0 0 0
655 1 -10.097085319183016 -80.63698203637568 4.679064821397976 0 0 0
656 1 -12.249501909783154 -80.63698107808757 5.923214813826298 0 0 0
658 1 -10.097085319223492 -80.63698203643753 7.167364821338735 0 0 0
596 1 -7.944668560976337 -80.63698338400735 5.923214826613572 0 0 0
572 1 -3.639834609846901 -80.6369865534159 5.923214827736396 0 0 0
595 1 -5.79225164852346 -80.63698495407338 7.167364830606227 0 0 0
600 1 -5.792251648521863 -80.6369849540697 4.679064830639612 0 0 0
571 1 -1.4874174922529912 -80.63698798666583 4.679064821576323 0 0 0
574 1 -1.4874174922455838 -80.63698798673467 7.16736482157932 0 0 0
825 1 -17.270535052222332 -78.60376080136616 7.167364782980687 0 0 0
829 1 -17.270535052259437 -78.60376080139486 4.679064783007455 0 0 0
831 1 -17.986735429722785 -76.57054082289554 5.923214783445274 0 0 0
745 1 -12.965702499597448 -78.60376087303226 4.679064814286441 0 0 0
746 1 -15.118118845378303 -78.60376050882226 5.923214800818621 0 0 0
748 1 -12.96570249963837 -78.60376087305778 7.167364814303022 0 0 0
750 1 -13.681903099891073 -76.57054052366821 5.923214823594249 0 0 0
830 1 -15.834319337099439 -76.57054029204777 4.679064804647068 0 0 0
833 1 -15.83431933711389 -76.5705402920823 7.167364804634336 0 0 0
660 1 -10.81328597780123 -78.60376184847829 5.923214824639799 0 0 0
749 1 -11.529486663419961 -76.57054149219 7.167364836685783 0 0 0
762 1 -11.529486663469063 -76.57054149225011 4.679064836800062 0 0 0
602 1 -6.508452350829554 -78.60376510214861 5.92321483442748 0 0 0
659 1 -8.660869259388802 -78.6037633197672 7.1673648315216205 0 0 0
668 1 -8.660869259346736 -78.60376331972881 4.679064831574346 0 0 0
669 1 -7.224653106567597 -76.57054509347273 4.679064846098811 0 0 0
670 1 -9.377069999471699 -76.5705430806887 5.923214845448358 0 0 0
672 1 -7.224653106536903 -76.57054509344351 7.1673648460626795 0 0 0
601 1 -4.356035282972487 -78.60376697651043 4.679064830434252 0 0 0
604 1 -4.356035282912827 -78.60376697653011 7.167364830412552 0 0 0
606 1 -5.072236013171567 -76.57054727879999 5.923214838680088 0 0 0
575 1 -2.2036181052476205 -78.60376871131103 5.9232148202423485 0 0 0
582 1 -0.7674014583596104 -76.57055109838724 5.9232147997479325 0 0 0
605 1 -2.9198187727516776 -76.57054936716565 7.167364821241018 0 0 0
618 1 -2.919818772839646 -76.57054936719516 4.679064821338882 0 0 0
6109 1 -0.051200881571167485 -78.60377009422655 7.167364805784155 0 0 0
6111 1 -0.05120088159407597 -78.60377009420753 4.679064805874988 0 0 0
835 1 -16.550519809728016 -74.5373199742255 5.923214820597163 0 0 0
895 1 -18.702935769560153 -74.53732080952092 4.679064790228228 0 0 0
896 1 -18.702935769524135 -74.53732080956433 7.167364790213542 0 0 0
897 1 -17.26672024640752 -72.50409955748263 7.167364851329868 0 0 0
901 1 -17.266720246393188 -72.50409955750334 4.679064851383452 0 0 0
834 1 -14.398103700487768 -74.53732001667215 7.16736484670827 0 0 0
847 1 -14.398103700460725 -74.53732001664379 4.679064846766815 0 0 0
848 1 -12.961888101629622 -72.50410016497506 4.679064903205411 0 0 0
849 1 -15.114304292621645 -72.50409933872652 5.923214883706367 0 0 0
851 1 -12.961888101620945 -72.50410016501375 7.167364903269428 0 0 0
763 1 -10.093270782843918 -74.5373226344281 4.679064869770708 0 0 0
764 1 -12.24568737319074 -74.53732093858098 5.923214862120344 0 0 0
766 1 -10.093270782862053 -74.53732263444594 7.167364869739709 0 0 0
768 1 -10.80947161020722 -72.50410194299141 5.923214906222075 0 0 0
674 1 -7.940853919254488 -74.53732489170822 5.92321486682672 0 0 0
692 1 -6.504637674586068 -72.50410737808275 5.923214870491219 0 0 0
767 1 -8.657054794891643 -72.50410445360467 7.167364894882165 0 0 0
786 1 -8.65705479492252 -72.50410445361285 4.67906489486555 0 0 0
620 1 -3.636019504404661 -74.53732992545866 5.923214825634506 0 0 0
673 1 -5.788436807820126 -74.53732742751012 7.1673648509977275 0 0 0
690 1 -5.788436807764855 -74.53732742755388 4.679064851053518 0 0 0
691 1 -4.352220308109376 -72.50411034974938 4.679064831527174 0 0 0
694 1 -4.352220308153288 -72.5041103498294 7.167364831622602 0 0 0
619 1 -1.4836020906995515 -74.53733207549782 4.679064793154675 0 0 0
622 1 -1.4836020907889507 -74.5373320754206 7.167364793102579 0 0 0
623 1 -2.1998027869635157 -72.50411299737922 5.9232147855831965 0 0 0
6169 1 -0.04738521723610771 -72.50411499813262 7.167364739173063 0 0 0
6171 1 -0.04738521721697507 -72.50411499817105 4.679064739288222 0 0 0
903 1 -17.982920639841577 -70.47087905467953 5.923214896388846 0 0 0
853 1 -13.67808884344482 -70.47087914248512 5.923214962216279 0 0 0
902 1 -15.830504867954911 -70.47087848247165 4.679064938602039 0 0 0
905 1 -15.830504867890454 -70.47087848244341 7.16736493863362 0 0 0
852 1 -11.525672481974425 -70.47088096511689 7.167364961447994 0 0 0
870 1 -11.525672481997164 -70.4708809651221 4.679064961482996 0 0 0
787 1 -7.220838626045373 -70.47088708268775 4.679064897096902 0 0 0
788 1 -9.373255739038404 -70.4708837301445 5.923214938891887 0 0 0
790 1 -7.220838625963671 -70.47088708253276 7.167364897066262 0 0 0
696 1 -5.068421199824081 -70.47089059763351 5.923214840512433 0 0 0
640 1 -0.7635858366506052 -70.47089638551766 5.923214711632051 0 0 0
695 1 -2.9160035621313196 -70.47089382906165 7.167364776967127 0 0 0
714 1 -2.916003562126376 -70.47089382903398 4.679064776924156 0 0 0
927 1 -16.546705418890063 -68.43765744293215 -4.029984982753752 0 0 0
929 1 -16.546705418860718 -68.43765744286249 -6.518284982821032 0 0 0
935 1 -18.699120974613102 -68.43765847832829 -5.274135037812255 0 0 0
1191 1 -17.262905929442535 -66.40443621921824 -5.274134875393567 0 0 0
930 1 -14.394289598381459 -68.43765784472154 -5.274134956099472 0 0 0
1102 1 -12.958074367783132 -66.404437971512 -5.274134864586857 0 0 0
1103 1 -15.11049035731738 -66.40443624863663 -4.029984847654992 0 0 0
1104 1 -15.110490357435845 -66.40443624863623 -6.518284847539868 0 0 0
891 1 -10.089456759417878 -68.43766266403753 -5.274135001796068 0 0 0
892 1 -12.241873400598886 -68.43765965751255 -4.029984963185888 0 0 0
893 1 -12.241873400583433 -68.43765965756367 -6.518284963127049 0 0 0
1015 1 -10.805657867418212 -66.40444119223434 -4.0299849252744675 0 0 0
1031 1 -10.805657867411902 -66.40444119218498 -6.518284925458746 0 0 0
819 1 -7.937039672411663 -68.43766647946978 -4.02998506599908 0 0 0
821 1 -7.937039672376886 -68.43766647951847 -6.518285065985245 0 0 0
973 1 -6.500823315356903 -66.40445032570896 -4.029985135801303 0 0 0
974 1 -6.500823315363839 -66.40445032566056 -6.518285135700517 0 0 0
1032 1 -8.653240834063206 -66.40444549573051 -5.274135018327351 0 0 0
736 1 -3.6322044352384424 -68.43767453164129 -4.029985237098325 0 0 0
737 1 -3.6322044351529206 -68.43767453159138 -6.51828523708583 0 0 0
822 1 -5.784622194033119 -68.43767061176158 -5.274135146750424 0 0 0
972 1 -4.348405430580892 -66.40445504770395 -5.274135262960442 0 0 0
735 1 -1.4797865364569278 -68.43767775599433 -5.274135328543913 0 0 0
946 1 -2.1959873373885674 -66.40445907536782 -4.02998538786448 0 0 0
949 1 -2.195987337409026 -66.40445907539889 -6.518285387874684 0 0 0
950 1 -0.0435692183676241 -66.40446192750044 -5.274135488850977 0 0 0
1193 1 -17.979106374220354 -64.37121481887789 -4.029984726967982 0 0 0
1194 1 -17.979106374318626 -64.37121481896023 -6.518284726866277 0 0 0
1198 1 -16.542891807174577 -62.33799207331386 -4.029984496627435 0 0 0
1214 1 -16.542891807080103 -62.337992073272176 -6.518284496690882 0 0 0
1257 1 -18.695306728563384 -62.3379932664209 -5.274134521074563 0 0 0
1108 1 -13.674275373948987 -64.37121585765821 -4.029984733517693 0 0 0
1124 1 -13.674275373972149 -64.37121585761409 -6.518284733606369 0 0 0
1192 1 -15.826691099489908 -64.37121432993992 -5.274134699263207 0 0 0
1215 1 -14.39047640888121 -62.337993261378365 -5.27413455830756 0 0 0
1125 1 -11.5218590658795 -64.37121924106623 -5.274134826262096 0 0 0
1126 1 -10.08564354817661 -62.33800204734128 -5.274134899302442 0 0 0
1127 1 -12.238060351436905 -62.337996729995616 -4.029984698534372 0 0 0
1128 1 -12.238060351440232 -62.337996730014964 -6.518284698466853 0 0 0
1033 1 -7.217024582335229 -64.37122965570181 -5.27413513172029 0 0 0
1034 1 -9.36944212213612 -64.37122405203712 -4.0299849630890225 0 0 0
1035 1 -9.369442122249616 -64.37122405202312 -6.518284963022809 0 0 0
1039 1 -7.9332260154425525 -62.338008505389105 -4.029985138332958 0 0 0
1055 1 -7.933226015395398 -62.33800850531058 -6.518285138511709 0 0 0
978 1 -5.06460656875573 -64.37123531020256 -4.029985308894618 0 0 0
988 1 -5.06460656883606 -64.37123531021791 -6.518285308991173 0 0 0
991 1 -3.628389340795788 -62.33802135683861 -4.029985610868867 0 0 0
992 1 -3.628389340724164 -62.33802135679049 -6.518285610750502 0 0 0
1056 1 -5.78080787711023 -62.33801523394183 -5.274135384777604 0 0 0
951 1 -0.7597698773638438 -64.37124400869672 -4.02998561086207 0 0 0
952 1 -0.7597698773948226 -64.37124400866055 -6.518285610805874 0 0 0
989 1 -2.912188262911224 -64.37124029487994 -5.274135476788184 0 0 0
990 1 -1.4759706530054884 -62.3380261195314 -5.274135790368671 0 0 0
1273 1 -17.25909245586164 -60.304769474423594 -5.274134216450218 0 0 0
1275 1 -17.975293010559867 -58.27154653934686 -4.029983826838383 0 0 0
1276 1 -17.975293010723778 -58.271546539477036 -6.518283826710363 0 0 0
1216 1 -12.95426172864375 -60.30477357061795 -5.274134534504461 0 0 0
1217 1 -15.106677457884073 -60.30477013432027 -4.029984321341273 0 0 0
1218 1 -15.106677457926246 -60.304770134494305 -6.518284321176972 0 0 0
1222 1 -13.670463190780579 -58.271549663218316 -4.029984324012234 0 0 0
1232 1 -13.670463190750242 -58.27154966318647 -6.518284324125283 0 0 0
1274 1 -15.82287850311384 -58.2715464275858 -5.2741340020531595 0 0 0
1132 1 -10.801845125677225 -60.30477936787176 -4.029984827414632 0 0 0
1146 1 -10.801845125714427 -60.304779367822555 -6.518284827572517 0 0 0
1233 1 -11.518046870348092 -58.27155588472487 -5.274134752372215 0 0 0
1058 1 -6.497009390042596 -60.304794715175774 -4.029985510216624 0 0 0
1059 1 -6.497009390026573 -60.30479471514653 -6.518285510069895 0 0 0
1147 1 -8.649427639702076 -60.304786754705376 -5.274135166224995 0 0 0
1148 1 -7.213211140344566 -58.27157361834941 -5.274135714878083 0 0 0
1149 1 -9.365629482802062 -58.27156426083369 -4.029985234217254 0 0 0
1150 1 -9.365629482782209 -58.27156426085763 -6.518285234050308 0 0 0
1057 1 -4.344590604731888 -60.30480218214603 -5.274135818189412 0 0 0
1063 1 -5.060792091647585 -58.27158267411415 -4.029986132536062 0 0 0
1072 1 -5.060792091716323 -58.27158267405869 -6.518286132681231 0 0 0
995 1 -2.192171575104636 -60.304808220615804 -4.029986055606748 0 0 0
998 1 -2.192171575228502 -60.30480822063066 -6.518286055707041 0 0 0
999 1 -0.7559532576746067 -58.27159547407912 -4.029986599810665 0 0 0
1000 1 -0.7559532577159201 -58.271595474028466 -6.518286599705477 0 0 0
1073 1 -2.9083726777820686 -58.27159025102613 -5.274136439938666 0 0 0
6562 1 -0.03975260149792705 -60.30481214521285 -5.274136189853061 0 0 0
1280 1 -16.53907950954869 -56.23832210542507 -4.029983573954766 0 0 0
1286 1 -16.539079509332513 -56.23832210529496 -6.518283574159402 0 0 0
1299 1 -18.691493428485632 -56.238323297526854 -5.274133288049444 0 0 0
1287 1 -14.386664729241819 -56.23832490729631 -5.274134057416433 0 0 0
1234 1 -10.081831578145659 -56.23834085167863 -5.274135366327771 0 0 0
1235 1 -12.234248791469353 -56.23833144684039 -4.029984681142643 0 0 0
1236 1 -12.234248791548298 -56.238331446902635 -6.518284680900131 0 0 0
1154 1 -7.929413174631994 -56.238351786604355 -4.029986032223274 0 0 0
1160 1 -7.929413174637729 -56.23835178655612 -6.5182860323378335 0 0 0
1075 1 -3.624574006777986 -56.23837213255191 -4.0299869929673715 0 0 0
1076 1 -3.6245740067695063 -56.23837213246107 -6.518286992798238 0 0 0
1161 1 -5.7769938522691495 -56.23836270006864 -5.2741365962383355 0 0 0
1074 1 -1.4721540721441766 -56.23837895748234 -5.274137176971828 0 0 0
926 1 -16.546705418846482 -68.43765744283546 -1.54168498283222 0 0 0
933 1 -18.699120974573002 -68.4376584782845 -0.29753503785815755 0 0 0
936 1 -18.69912097454946 -68.43765847825826 -2.785835037788842 0 0 0
1175 1 -17.262905929448195 -66.40443621926735 -2.7858348753562243 0 0 0
1176 1 -17.26290592938627 -66.40443621925571 -0.2975348754625875 0 0 0
925 1 -14.39428959827228 -68.43765784474817 -2.785834956101609 0 0 0
928 1 -14.394289598362747 -68.43765784464232 -0.29753495614314296 0 0 0
1088 1 -12.958074367764349 -66.40443797154089 -0.2975348645835784 0 0 0
1090 1 -15.110490357368846 -66.40443624865968 -1.5416848475624658 0 0 0
1105 1 -12.95807436770228 -66.40443797148275 -2.7858348646076867 0 0 0
885 1 -10.089456759492808 -68.43766266403394 -0.29753500178752024 0 0 0
887 1 -12.241873400587282 -68.43765965750657 -1.541684963021946 0 0 0
894 1 -10.089456759451362 -68.43766266390583 -2.7858350017555296 0 0 0
1014 1 -10.805657867377446 -66.40444119227135 -1.5416849253691403 0 0 0
818 1 -7.937039672429913 -68.43766647949359 -1.541685065999352 0 0 0
961 1 -6.500823315387069 -66.40445032570979 -1.5416851357402621 0 0 0
1013 1 -8.65324083412189 -66.40444549581764 -2.7858350183712184 0 0 0
1016 1 -8.65324083415387 -66.4044454957556 -0.2975350184195838 0 0 0
731 1 -3.63220443524441 -68.4376745316308 -1.5416852369853773 0 0 0
817 1 -5.784622194090831 -68.43767061182032 -2.785835146750464 0 0 0
820 1 -5.784622194070366 -68.43767061180537 -0.29753514669963366 0 0 0
959 1 -4.348405430566573 -66.40445504769858 -0.29753526298664523 0 0 0
975 1 -4.3484054304909 -66.40445504764847 -2.785835262963439 0 0 0
729 1 -1.4797865363886773 -68.43767775594861 -0.29753532853096476 0 0 0
738 1 -1.4797865363251415 -68.43767775597236 -2.7858353284966006 0 0 0
944 1 -0.04356921845816934 -66.40446192755604 -2.785835488864225 0 0 0
945 1 -2.1959873373421073 -66.40445907534871 -1.5416853878566412 0 0 0
6480 1 -0.04356921836288462 -66.40446192751303 -0.29753548884239467 0 0 0
1179 1 -17.979106374299736 -64.37121481891693 -1.5416847269474148 0 0 0
1197 1 -16.54289180714924 -62.33799207320825 -1.5416844966305316 0 0 0
1247 1 -18.69530672868231 -62.33799326644711 -0.29753452109834233 0 0 0
1258 1 -18.6953067286077 -62.33799326632844 -2.7858345211913407 0 0 0
1107 1 -13.67427537385236 -64.37121585765838 -1.5416847335474495 0 0 0
1177 1 -15.82669109954613 -64.37121432996877 -0.2975346992280756 0 0 0
1195 1 -15.826691099482511 -64.37121432988268 -2.7858346992872267 0 0 0
1196 1 -14.390476408956188 -62.33799326134002 -2.785834558227235 0 0 0
1199 1 -14.390476408862362 -62.33799326123034 -0.2975345581997043 0 0 0
1106 1 -11.521859066000339 -64.37121924117804 -2.7858348262109516 0 0 0
1109 1 -11.521859065860546 -64.37121924105514 -0.29753482629993233 0 0 0
1110 1 -10.085643548133756 -62.338002047274095 -0.2975348992853814 0 0 0
1112 1 -12.238060351415973 -62.337996730011625 -1.5416846984055892 0 0 0
1129 1 -10.085643548040386 -62.33800204714077 -2.7858348993006192 0 0 0
1017 1 -7.217024582388227 -64.37122965575531 -0.2975351316644799 0 0 0
1019 1 -9.369442122247381 -64.37122405207046 -1.5416849629830147 0 0 0
1036 1 -7.2170245823362835 -64.37122965570819 -2.7858351316801557 0 0 0
1038 1 -7.93322601545841 -62.33800850537744 -1.5416851384274575 0 0 0
977 1 -5.064606568789373 -64.37123531021533 -1.5416853089650133 0 0 0
982 1 -3.6283893407642256 -62.338021356798045 -1.54168561066848 0 0 0
1037 1 -5.780807877196173 -62.33801523406365 -2.7858353847480912 0 0 0
1040 1 -5.780807877134507 -62.33801523397325 -0.2975353846923403 0 0 0
948 1 -0.7597698772815383 -64.37124400862947 -1.54168561081381 0 0 0
976 1 -2.912188263015753 -64.37124029494825 -2.785835476769936 0 0 0
979 1 -2.912188262920036 -64.37124029492 -0.2975354767144464 0 0 0
980 1 -1.4759706529761658 -62.338026119666004 -0.2975357904182327 0 0 0
993 1 -1.475970652926959 -62.33802611943526 -2.7858357902295867 0 0 0
1259 1 -17.259092455906956 -60.30476947452873 -2.7858342164442202 0 0 0
1260 1 -17.259092455791393 -60.30476947445798 -0.2975342165486252 0 0 0
1263 1 -17.975293010658444 -58.27154653944549 -1.541683826812028 0 0 0
1200 1 -12.954261728695961 -60.304773570632186 -0.2975345345446449 0 0 0
1202 1 -15.106677457928031 -60.304770134491356 -1.5416843212043727 0 0 0
1219 1 -12.954261728538913 -60.30477357044572 -2.7858345344983024 0 0 0
1221 1 -13.670463190703925 -58.27154966318229 -1.541684324160161 0 0 0
1261 1 -15.822878503084748 -58.27154642757237 -0.29753400203013974 0 0 0
1277 1 -15.822878502973511 -58.27154642746226 -2.7858340021502563 0 0 0
1131 1 -10.801845125712491 -60.304779367824715 -1.541684827544461 0 0 0
1220 1 -11.518046870464568 -58.271555884845874 -2.785834752323857 0 0 0
1223 1 -11.51804687031962 -58.27155588477159 -0.2975347523260085 0 0 0
1043 1 -6.497009390001641 -60.304794715176975 -1.5416855101028302 0 0 0
1130 1 -8.649427639794864 -60.30478675484051 -2.7858351662233622 0 0 0
1133 1 -8.649427639700402 -60.30478675474674 -0.29753516630194493 0 0 0
1134 1 -7.213211140355189 -58.271573618439696 -0.2975357148882419 0 0 0
1136 1 -9.36562948283938 -58.271564260877014 -1.5416852340175793 0 0 0
1151 1 -7.213211140289555 -58.271573618248055 -2.785835714878448 0 0 0
1041 1 -4.3445906047370375 -60.304802182211716 -0.29753581822697367 0 0 0
1060 1 -4.344590604663855 -60.304802182011706 -2.7858358181779836 0 0 0
1062 1 -5.060792091649996 -58.27158267416735 -1.5416861325407254 0 0 0
994 1 -2.1921715752271758 -60.30480822062757 -1.5416860556908312 0 0 0
997 1 -0.7559532577010009 -58.27159547402278 -1.5416865997292566 0 0 0
1061 1 -2.908372677915013 -58.271590251223195 -2.7858364399963556 0 0 0
1064 1 -2.9083726778114136 -58.27159025096942 -0.29753643996804247 0 0 0
6550 1 -0.039752601594612594 -60.30481214524909 -2.785836189896752 0 0 0
6551 1 -0.03975260157473807 -60.30481214518547 -0.29753618977618823 0 0 0
1279 1 -16.539079509433083 -56.23832210526888 -1.5416835741336226 0 0 0
1295 1 -18.691493428487075 -56.238323297521355 -0.2975332880292566 0 0 0
1300 1 -18.691493428471503 -56.238323297385044 -2.7858332882127295 0 0 0
1278 1 -14.386664729275351 -56.23832490744225 -2.785834057304603 0 0 0
1281 1 -14.386664729212207 -56.23832490732305 -0.2975340574018354 0 0 0
1224 1 -10.081831578270505 -56.2383408516302 -0.2975353662856249 0 0 0
1226 1 -12.234248791511586 -56.238331446941324 -1.5416846810194396 0 0 0
1237 1 -10.081831578119688 -56.23834085152175 -2.7858353664184756 0 0 0
1153 1 -7.929413174659522 -56.23835178654576 -1.541686032337578 0 0 0
1067 1 -3.624574006748425 -56.23837213258682 -1.5416869928068961 0 0 0
1152 1 -5.776993852369607 -56.23836270012763 -2.7858365962323623 0 0 0
1155 1 -5.77699385229864 -56.238362700018364 -0.2975365962245143 0 0 0
1065 1 -1.472154072133583 -56.238378957451275 -0.2975371769420571 0 0 0
1077 1 -1.4721540720617832 -56.23837895736492 -2.7858371769637773 0 0 0
917 1 -16.546705418881455 -68.43765744293204 3.434915017201368 0 0 0
918 1 -16.546705418857528 -68.43765744288693 0.9466150172150906 0 0 0
934 1 -18.699120974588528 -68.43765847829249 2.1907649622037635 0 0 0
1167 1 -17.262905929487214 -66.40443621928118 2.190765124637632 0 0 0
916 1 -14.394289598414352 -68.43765784476317 2.190765043909684 0 0 0
1084 1 -15.11049035732448 -66.4044362486758 3.434915152371731 0 0 0
1089 1 -15.110490357415832 -66.40443624861828 0.9466151523252015 0 0 0
1091 1 -12.958074367748281 -66.40443797146357 2.190765135400969 0 0 0
873 1 -12.241873400614825 -68.43765965751248 3.4349150368400716 0 0 0
886 1 -12.241873400604195 -68.43765965755469 0.9466150368134779 0 0 0
888 1 -10.089456759389083 -68.43766266398835 2.1907649982186297 0 0 0
1004 1 -10.805657867433936 -66.40444119222005 3.4349150746357995 0 0 0
1005 1 -10.805657867416446 -66.40444119219552 0.9466150745895935 0 0 0
808 1 -7.937039672440426 -68.43766647948081 3.434914933919545 0 0 0
809 1 -7.9370396723536265 -68.43766647950301 0.9466149340535854 0 0 0
955 1 -6.500823315359231 -66.4044503256885 3.434914864290819 0 0 0
960 1 -6.500823315378066 -66.40445032566286 0.9466148642240397 0 0 0
1003 1 -8.653240834131877 -66.40444549579743 2.190764981649986 0 0 0
717 1 -3.6322044352186924 -68.43767453158563 3.434914762942371 0 0 0
730 1 -3.6322044351748906 -68.43767453159641 0.9466147628457243 0 0 0
807 1 -5.784622194073695 -68.43767061180789 2.190764853274444 0 0 0
962 1 -4.348405430546912 -66.40445504760217 2.1907647370915067 0 0 0
732 1 -1.479786536426655 -68.43767775594911 2.190764671530719 0 0 0
938 1 -0.043569218408826625 -66.40446192752356 2.1907645111646747 0 0 0
939 1 -2.1959873374000956 -66.40445907538393 3.4349146120662883 0 0 0
940 1 -2.195987337396655 -66.40445907536792 0.9466146122116926 0 0 0
1171 1 -17.979106374266753 -64.37121481893688 3.4349152730722516 0 0 0
1178 1 -17.979106374319603 -64.37121481890463 0.9466152730105545 0 0 0
1182 1 -16.542891807103935 -62.3379920732836 3.434915503258784 0 0 0
1183 1 -16.54289180711735 -62.337992073344964 0.9466155033977514 0 0 0
1248 1 -18.69530672849728 -62.337993266352804 2.1907654788220863 0 0 0
1093 1 -13.674275373937125 -64.37121585766985 3.4349152663693165 0 0 0
1094 1 -13.67427537399474 -64.37121585763873 0.9466152664821728 0 0 0
1180 1 -15.826691099454006 -64.37121432987637 2.190765300714955 0 0 0
1181 1 -14.390476408938525 -62.33799326146016 2.190765441757541 0 0 0
1092 1 -11.521859065947032 -64.37121924116873 2.1907651737426432 0 0 0
1098 1 -12.238060351455724 -62.337996730051515 3.4349153015596645 0 0 0
1111 1 -12.23806035141496 -62.33799672999028 0.946615301364665 0 0 0
1113 1 -10.085643548134072 -62.338002047259046 2.190765100704356 0 0 0
1009 1 -9.36944212215086 -64.37122405202572 3.4349150369865473 0 0 0
1018 1 -9.369442122246213 -64.37122405203769 0.9466150368044655 0 0 0
1020 1 -7.217024582277496 -64.37122965561039 2.1907648683298784 0 0 0
1022 1 -7.933226015457038 -62.33800850538219 3.434914861550562 0 0 0
1023 1 -7.933226015402783 -62.338008505312864 0.9466148616018576 0 0 0
964 1 -5.06460656877206 -64.37123531023778 3.4349146909884105 0 0 0
965 1 -5.064606568813052 -64.37123531018915 0.94661469112145 0 0 0
969 1 -3.628389340771477 -62.338021356841594 3.4349143892594283 0 0 0
981 1 -3.6283893407411543 -62.33802135683658 0.9466143891067129 0 0 0
1021 1 -5.7808078771840785 -62.33801523407255 2.1907646152502886 0 0 0
943 1 -0.7597698773326325 -64.3712440086438 3.434914389230669 0 0 0
947 1 -0.7597698774261958 -64.37124400871474 0.9466143891088376 0 0 0
963 1 -2.912188262939001 -64.37124029496961 2.1907645231777275 0 0 0
983 1 -1.4759706529528889 -62.338026119457304 2.190764209724699 0 0 0
1249 1 -17.259092455898013 -60.30476947453237 2.1907657836605896 0 0 0
1253 1 -17.975293010659012 -58.27154653946226 3.43491617326829 0 0 0
1262 1 -17.97529301065326 -58.2715465393573 0.9466161731760722 0 0 0
1187 1 -15.106677457911406 -60.304770134402176 3.434915678782196 0 0 0
1201 1 -15.106677457865956 -60.304770134418504 0.9466156787297458 0 0 0
1203 1 -12.954261728536876 -60.30477357049979 2.190765465453215 0 0 0
1205 1 -13.670463190730787 -58.27154966314957 3.434915675846896 0 0 0
1206 1 -13.67046319079448 -58.27154966324777 0.9466156760209838 0 0 0
1264 1 -15.822878503017384 -58.27154642746648 2.1907659978976355 0 0 0
1115 1 -10.801845125623824 -60.304779367847026 3.4349151724452365 0 0 0
1116 1 -10.801845125727084 -60.304779367852454 0.9466151725319292 0 0 0
1204 1 -11.518046870434414 -58.271555884854585 2.1907652477141175 0 0 0
1027 1 -6.497009390024887 -60.304794715197 3.434914489937084 0 0 0
1042 1 -6.4970093900222885 -60.304794715154266 0.9466144898124137 0 0 0
1114 1 -8.649427639780363 -60.3047867548438 2.190764833816809 0 0 0
1120 1 -9.365629482795937 -58.271564260863315 3.4349147659313757 0 0 0
1135 1 -9.365629482763714 -58.271564260835675 0.9466147657826361 0 0 0
1137 1 -7.2132111402575205 -58.271573618218916 2.1907642851216713 0 0 0
1044 1 -4.344590604657066 -60.304802182056086 2.1907641818689148 0 0 0
1046 1 -5.060792091689536 -58.27158267413434 3.4349138672819675 0 0 0
1047 1 -5.060792091712739 -58.271582674042214 0.9466138674875877 0 0 0
984 1 -2.19217157516178 -60.30480822066003 3.4349139442354213 0 0 0
985 1 -2.192171575193449 -60.30480822058448 0.9466139444096905 0 0 0
987 1 -0.7559532576673244 -58.271595473995525 3.4349134003029618 0 0 0
996 1 -0.7559532577620423 -58.27159547408532 0.9466134001515966 0 0 0
1045 1 -2.908372677905123 -58.27159025113926 2.1907635600449735 0 0 0
6544 1 -0.039752601580149406 -60.30481214529309 2.19076381006976 0 0 0
1266 1 -16.539079509462475 -56.23832210529977 3.434916425920852 0 0 0
1267 1 -16.539079509409955 -56.238322105415826 0.9466164260078201 0 0 0
1296 1 -18.691493428418532 -56.23832329743417 2.190766711824907 0 0 0
1265 1 -14.386664729314077 -56.23832490738145 2.1907659427374426 0 0 0
1210 1 -12.234248791489295 -56.23833144691515 3.434915318989552 0 0 0
1225 1 -12.23424879148801 -56.23833144684541 0.946615318905467 0 0 0
1227 1 -10.081831578057646 -56.23834085153816 2.1907646335763356 0 0 0
1139 1 -7.929413174630597 -56.23835178656948 3.4349139675663305 0 0 0
1140 1 -7.929413174649867 -56.23835178658635 0.9466139678406775 0 0 0
1051 1 -3.6245740067695955 -56.23837213251141 3.4349130072002674 0 0 0
1066 1 -3.624574006795944 -56.23837213248384 0.94661300705274 0 0 0
1138 1 -5.776993852378284 -56.2383627002054 2.190763403785342 0 0 0
1068 1 -1.4721540720823365 -56.23837895734117 2.1907628231048206 0 0 0
907 1 -16.54670541883877 -68.437657442833 5.923215017238766 0 0 0
931 1 -18.69912097455643 -68.4376584782775 4.679064962247944 0 0 0
932 1 -18.699120974544375 -68.43765847825728 7.16736496208798 0 0 0
1166 1 -17.2629059294413 -66.40443621931576 7.167365124542446 0 0 0
1168 1 -17.262905929398197 -66.40443621920058 4.6790651246142625 0 0 0
906 1 -14.394289598375767 -68.43765784467963 7.167365043863134 0 0 0
919 1 -14.39428959824457 -68.43765784471887 4.679065043892434 0 0 0
1082 1 -12.958074367775657 -66.40443797156489 4.679065135408371 0 0 0
1083 1 -15.11049035734892 -66.40443624866847 5.923215152410099 0 0 0
1085 1 -12.958074367712038 -66.40443797150601 7.167365135417264 0 0 0
871 1 -10.08945675949744 -68.43766266395262 4.679064998234635 0 0 0
872 1 -12.24187340058042 -68.43765965752239 5.9232150369465675 0 0 0
874 1 -10.089456759451569 -68.43766266396415 7.167364998190513 0 0 0
1002 1 -10.805657867383566 -66.40444119226946 5.923215074725271 0 0 0
792 1 -7.937039672435106 -68.43766647947142 5.923214934077689 0 0 0
954 1 -6.50082331541528 -66.40445032574078 5.923214864184577 0 0 0
1001 1 -8.653240834215602 -66.404445495811 7.167364981583923 0 0 0
1006 1 -8.653240834091065 -66.40444549573299 4.679064981641737 0 0 0
716 1 -3.632204435248 -68.43767453166268 5.923214762945781 0 0 0
791 1 -5.784622194109131 -68.43767061188683 7.167364853222149 0 0 0
810 1 -5.784622194055901 -68.43767061177843 4.679064853275872 0 0 0
953 1 -4.348405430553416 -66.40445504771822 4.679064737032571 0 0 0
956 1 -4.348405430524063 -66.40445504766129 7.167364737032527 0 0 0
715 1 -1.479786536333051 -68.43767775602635 4.6790646714662305 0 0 0
718 1 -1.4797865363422185 -68.43767775590447 7.167364671452471 0 0 0
937 1 -2.1959873373215624 -66.40445907532079 5.923214612192196 0 0 0
941 1 -0.04356921839743784 -66.40446192750207 4.679064511197271 0 0 0
6475 1 -0.043569218388673454 -66.40446192755279 7.1673645110776585 0 0 0
1170 1 -17.979106374265847 -64.37121481886895 5.923215273010674 0 0 0
1174 1 -16.54289180717548 -62.33799207328733 5.923215503507852 0 0 0
1244 1 -18.695306728627088 -62.33799326640269 4.679065478902611 0 0 0
1245 1 -18.695306728628314 -62.33799326638685 7.167365478815238 0 0 0
1087 1 -13.674275373877617 -64.37121585772344 5.923215266558331 0 0 0
1169 1 -15.826691099522618 -64.37121432998741 4.679065300767552 0 0 0
1172 1 -15.826691099496541 -64.37121432992171 7.167365300686301 0 0 0
1173 1 -14.390476408932857 -62.33799326132902 7.167365441844962 0 0 0
1184 1 -14.390476408846498 -62.33799326129083 4.679065441711581 0 0 0
1086 1 -11.521859065924975 -64.37121924113038 7.1673651737385455 0 0 0
1095 1 -11.521859065973393 -64.37121924111524 4.679065173780605 0 0 0
1096 1 -10.085643548117528 -62.338002047255564 4.679065100715685 0 0 0
1097 1 -12.238060351395507 -62.3379967299895 5.92321530150488 0 0 0
1099 1 -10.085643548077435 -62.338002047158234 7.167365100674237 0 0 0
1007 1 -7.217024582419439 -64.37122965581185 4.679064868320797 0 0 0
1008 1 -9.369442122263731 -64.37122405206031 5.923215036934024 0 0 0
1010 1 -7.217024582318872 -64.37122965567914 7.167364868313519 0 0 0
1012 1 -7.933226015475479 -62.33800850538434 5.923214861735837 0 0 0
958 1 -5.064606568744736 -64.37123531019093 5.923214691152905 0 0 0
968 1 -3.628389340790141 -62.33802135683825 5.923214389195188 0 0 0
1011 1 -5.780807877208641 -62.338015234067974 7.167364615223131 0 0 0
1024 1 -5.780807877139563 -62.33801523398117 4.679064615276814 0 0 0
942 1 -0.7597698773129304 -64.37124400865385 5.923214389126986 0 0 0
957 1 -2.912188262959367 -64.37124029501041 7.167364523220312 0 0 0
966 1 -2.9121882629449427 -64.37124029488007 4.6790645232811094 0 0 0
967 1 -1.4759706529792709 -62.33802611949681 4.679064209697363 0 0 0
970 1 -1.4759706529323364 -62.33802611957063 7.167364209627168 0 0 0
1246 1 -17.259092455872864 -60.304769474571216 7.1673657835210784 0 0 0
1250 1 -17.259092455848513 -60.30476947444015 4.679065783431783 0 0 0
1252 1 -17.975293010582693 -58.27154653935827 5.9232161730675035 0 0 0
1185 1 -12.954261728576695 -60.30477357057782 4.679065465572151 0 0 0
1186 1 -15.106677457880576 -60.30477013443855 5.923215678665182 0 0 0
1188 1 -12.954261728628229 -60.304773570514975 7.167365465378302 0 0 0
1190 1 -13.67046319075585 -58.27154966325968 5.923215675991497 0 0 0
1251 1 -15.822878503078012 -58.27154642755675 4.6790659979638765 0 0 0
1254 1 -15.822878503001508 -58.27154642747942 7.167365997818444 0 0 0
1101 1 -10.80184512572353 -60.304779367840155 5.923215172619522 0 0 0
1189 1 -11.518046870417873 -58.27155588487882 7.167365247727287 0 0 0
1207 1 -11.518046870335766 -58.2715558847256 4.679065247606005 0 0 0
1026 1 -6.497009389980682 -60.3047947151982 5.923214489743613 0 0 0
1100 1 -8.649427639778336 -60.30478675484901 7.167364833714827 0 0 0
1117 1 -8.649427639695503 -60.30478675473091 4.679064833779446 0 0 0
1118 1 -7.213211140406445 -58.271573618399074 4.679064285118647 0 0 0
1119 1 -9.365629482806211 -58.2715642608237 5.923214765801875 0 0 0
1121 1 -7.213211140246828 -58.27157361829957 7.167364285076258 0 0 0
1025 1 -4.344590604713388 -60.30480218213544 4.679064181772708 0 0 0
1028 1 -4.3445906046535825 -60.304802182091656 7.167364181770197 0 0 0
1030 1 -5.060792091674036 -58.27158267416609 5.923213867603548 0 0 0
971 1 -2.1921715751968405 -60.30480822056557 5.923213944440237 0 0 0
986 1 -0.7559532577655551 -58.271595474094475 5.9232134001389545 0 0 0
1029 1 -2.9083726779317725 -58.27159025108333 7.167363559992207 0 0 0
1048 1 -2.908372677857513 -58.271590251064005 4.6790635600452335 0 0 0
6543 1 -0.03975260166004702 -60.304812145264314 7.167363810120223 0 0 0
6545 1 -0.039752601531772076 -60.30481214514407 4.679063810166681 0 0 0
1256 1 -16.539079509501576 -56.238322105363984 5.923216426012394 0 0 0
1292 1 -18.691493428524584 -56.23832329749283 4.679066711950708 0 0 0
1293 1 -18.691493428397774 -56.23832329742074 7.167366711786108 0 0 0
1255 1 -14.386664729294266 -56.238324907451975 7.167365942671977 0 0 0
1268 1 -14.386664729170457 -56.23832490728536 4.6790659425984 0 0 0
1208 1 -10.081831578230506 -56.23834085166408 4.679064633630167 0 0 0
1209 1 -12.23424879144099 -56.23833144687513 5.9232153188318355 0 0 0
1211 1 -10.081831578184941 -56.23834085148075 7.167364633663224 0 0 0
1123 1 -7.929413174694377 -56.238351786555675 5.9232139678656 0 0 0
1050 1 -3.6245740067912746 -56.2383721325891 5.923213007052149 0 0 0
1122 1 -5.776993852402819 -56.238362700165304 7.167363403754806 0 0 0
1141 1 -5.776993852274059 -56.23836269997979 4.679063403779133 0 0 0
1049 1 -1.4721540721514803 -56.23837895746926 4.6790628229800335 0 0 0
1052 1 -1.472154072067181 -56.23837895733307 7.167362823134979 0 0 0
1303 1 -17.255280438742215 -54.205097145494406 -5.2741330067479275 0 0 0
1505 1 -17.971481230108544 -52.17187155377275 -4.0299822614296055 0 0 0
1506 1 -17.97148123025973 -52.171871553918635 -6.518282261356987 0 0 0
1288 1 -12.95045089612122 -54.20510588192925 -5.274134626346706 0 0 0
1289 1 -15.102866320448625 -54.205099200995214 -4.029983727623691 0 0 0
1290 1 -15.102866320502317 -54.205099201120085 -6.518283727444167 0 0 0
1426 1 -13.666653181366742 -52.17187900323198 -4.02998461629911 0 0 0
1442 1 -13.666653181329464 -52.17187900310994 -6.518284616520449 0 0 0
1504 1 -15.819067931301827 -52.17187244340464 -5.274133324802875 0 0 0
1240 1 -10.798033956354642 -54.20511632420792 -4.029985594379133 0 0 0
1242 1 -10.798033956290682 -54.20511632409486 -6.518285594544787 0 0 0
1443 1 -11.514236647122475 -52.171890432540295 -5.274135979495916 0 0 0
1163 1 -6.493195945695272 -54.20514210350543 -4.029987276108216 0 0 0
1164 1 -6.493195945695737 -54.20514210355253 -6.518287275938608 0 0 0
1243 1 -8.645615544064167 -54.20512901599487 -5.274136514254566 0 0 0
1366 1 -7.20939843841788 -52.17192067304243 -5.274138271514727 0 0 0
1367 1 -9.361818304086563 -52.171905059477446 -4.029987250082401 0 0 0
1368 1 -9.361818304145613 -52.17190505949929 -6.518287249886752 0 0 0
1162 1 -4.340775618705603 -54.205153764704605 -5.274137787769239 0 0 0
1323 1 -5.056977577590683 -52.17193501260687 -4.029988920956576 0 0 0
1333 1 -5.056977577597073 -52.17193501268928 -6.518288921220977 0 0 0
1079 1 -2.188355085519624 -54.20516255604902 -4.0299879882167895 0 0 0
1080 1 -2.1883550856230247 -54.20516255606622 -6.5182879883990426 0 0 0
1081 1 -0.035934836318602476 -54.20516759895174 -5.274137854507927 0 0 0
1308 1 -0.7521353719781796 -52.171953118027965 -4.029988851121877 0 0 0
1309 1 -0.7521353719708321 -52.171953118011956 -6.5182888509642485 0 0 0
1334 1 -2.9045563543371804 -52.171946215927576 -5.2741391223864555 0 0 0
1510 1 -16.535269515194607 -50.13864455198156 -4.029982850816597 0 0 0
1526 1 -16.535269515063284 -50.13864455191677 -6.5182828509218025 0 0 0
1569 1 -18.687681811045064 -50.13864537514375 -5.2741312880702615 0 0 0
1585 1 -17.251471004352048 -48.10541546940077 -5.274132312231337 0 0 0
1527 1 -14.382855639274192 -50.13865060281748 -5.274134702485682 0 0 0
1528 1 -12.94664310347134 -48.105433370399865 -5.2741376271424025 0 0 0
1529 1 -15.099058250045408 -48.105420466690354 -4.0299849532373235 0 0 0
1530 1 -15.099058250167026 -48.10542046681815 -6.518284953164957 0 0 0
1444 1 -10.07802152172923 -50.138679610849984 -5.274138356547052 0 0 0
1445 1 -12.230439685589443 -50.13866289208345 -4.029986614305669 0 0 0
1446 1 -12.230439685602775 -50.13866289212633 -6.518286614133634 0 0 0
1450 1 -10.794225272425402 -48.10545229388309 -4.029990008127928 0 0 0
1464 1 -10.79422527235878 -48.1054522937995 -6.518290008291745 0 0 0
1372 1 -7.925601414935555 -50.13869814948221 -4.029989716987711 0 0 0
1387 1 -7.925601414862904 -50.13869814945804 -6.518289717165821 0 0 0
1390 1 -6.489382891982228 -48.105495585770896 -4.029992803611317 0 0 0
1391 1 -6.4893828920603 -48.105495585864745 -6.518292803454706 0 0 0
1465 1 -8.641804978711164 -48.10547419340964 -5.274141806449015 0 0 0
1336 1 -3.6207579432795827 -50.138729858409995 -4.0299906980231786 0 0 0
1337 1 -3.6207579432598047 -50.138729858397376 -6.518290697803542 0 0 0
1388 1 -5.77317996548081 -50.138715697095215 -5.274140528978415 0 0 0
1389 1 -4.336959940201611 -48.105513376344945 -5.274142883217283 0 0 0
1335 1 -1.4683360975280477 -50.13873907900116 -5.274140207799347 0 0 0
1340 1 -2.184537069726724 -48.10552548507468 -4.029992042518067 0 0 0
1343 1 -2.184537069743063 -48.1055254850336 -6.518292042749079 0 0 0
6895 1 -0.03211502776401657 -48.10553107725952 -5.27414038343695 0 0 0
1587 1 -17.967672300394103 -46.072185186962095 -4.029981726720745 0 0 0
1588 1 -17.967672300562782 -46.072185187039594 -6.518281726666325 0 0 0
1534 1 -13.662846921589779 -46.07220148327539 -4.029989217538538 0 0 0
1544 1 -13.66284692145909 -46.07220148317933 -6.518289217647666 0 0 0
1586 1 -15.815260966310433 -46.072188379692555 -5.27413548948304 0 0 0
1545 1 -11.51042964082195 -46.07222265131725 -5.274142458370883 0 0 0
1466 1 -7.205586479510915 -46.07227437110861 -5.2741460097760084 0 0 0
1467 1 -9.358009250475085 -46.07224837737203 -4.029994817029344 0 0 0
1468 1 -9.358009250585658 -46.07224837746735 -6.51829481681383 0 0 0
1395 1 -5.0531624514200555 -46.07229662548324 -4.029995899213702 0 0 0
1403 1 -5.053162451484981 -46.072296625498936 -6.51829589935056 0 0 0
1344 1 -0.7483151658625122 -46.072320321324064 -4.029992003949177 0 0 0
1345 1 -0.7483151659223182 -46.07232032129269 -6.518292003723814 0 0 0
1404 1 -2.900738358224073 -46.07231233553352 -5.2741445064732355 0 0 0
1592 1 -16.531463715300582 -44.038954143372855 -4.029986499135817 0 0 0
1598 1 -16.531463715176535 -44.03895414324662 -6.518286499089421 0 0 0
1611 1 -18.683873273392635 -44.03895377149928 -5.274131157373031 0 0 0
1615 1 -17.247666388287588 -42.00571760444159 -5.274138277104663 0 0 0
1599 1 -14.379051149350925 -44.03896679776006 -5.274141682345339 0 0 0
1600 1 -12.942840612047881 -42.0057540280785 -5.27415138961633 0 0 0
1601 1 -15.095255782634702 -42.005728844061586 -4.029995464527591 0 0 0
1602 1 -15.095255782670113 -42.00572884418387 -6.518295464395311 0 0 0
1546 1 -10.074214380824246 -44.03902015324037 -5.274149142269788 0 0 0
1547 1 -12.226634719278943 -44.038990121390526 -4.0299960754119635 0 0 0
1548 1 -12.22663471935688 -44.038990121415985 -6.518296075198195 0 0 0
1552 1 -10.790420554562548 -42.00578881913193 -4.0300053343358035 0 0 0
1554 1 -10.790420554454618 -42.00578881908285 -6.518305334483936 0 0 0
1472 1 -7.921790896827479 -44.03905164194705 -4.030000518120393 0 0 0
1478 1 -7.921790896704821 -44.03905164192178 -6.518300518220764 0 0 0
1481 1 -6.485569613151079 -42.00586142763271 -4.030005723457329 0 0 0
1482 1 -6.485569613207887 -42.005861427603136 -6.5183057233144 0 0 0
1555 1 -8.637996360900424 -42.00582684490636 -5.27415683280754 0 0 0
1406 1 -3.6169400446293105 -44.039099626604866 -4.029997798858626 0 0 0
1407 1 -3.6169400446087403 -44.03909962658853 -6.518297798703205 0 0 0
1479 1 -5.7693656108760845 -44.03907940259579 -5.274150046444598 0 0 0
1480 1 -4.333142250296707 -42.0058873481814 -5.274152162015586 0 0 0
1405 1 -1.4645154642731628 -44.039110612680595 -5.274144051010136 0 0 0
1410 1 -2.1807159663007365 -42.00590210790199 -4.02999659265035 0 0 0
1411 1 -2.1807159662402986 -42.00590210782723 -6.518296592810156 0 0 0
6917 1 -0.028291738253642947 -42.00590603100032 -5.274139687424089 0 0 0
1301 1 -17.25528043883168 -54.20509714548284 -2.7858330065615395 0 0 0
1302 1 -17.255280438724437 -54.20509714545686 -0.297533006769426 0 0 0
1492 1 -17.971481230251428 -52.17187155386911 -1.5416822613262104 0 0 0
1282 1 -12.950450896120381 -54.205105882002634 -0.2975346263995863 0 0 0
1284 1 -15.102866320465443 -54.205099201115885 -1.5416837274189852 0 0 0
1291 1 -12.950450896027833 -54.20510588178855 -2.7858346265265594 0 0 0
1425 1 -13.666653181226279 -52.17187900322497 -1.5416846165896454 0 0 0
1490 1 -15.819067931313857 -52.17187244334176 -0.29753332479689376 0 0 0
1507 1 -15.819067931293015 -52.17187244323381 -2.785833324904907 0 0 0
1239 1 -10.798033956272885 -54.20511632410682 -1.5416855945378498 0 0 0
1424 1 -11.514236647310492 -52.17189043274062 -2.7858359794544745 0 0 0
1427 1 -11.514236647137894 -52.17189043258998 -0.29753597949078414 0 0 0
1158 1 -6.493195945714995 -54.20514210348906 -1.5416872758941522 0 0 0
1238 1 -8.645615544200108 -54.20512901616379 -2.78583651422916 0 0 0
1241 1 -8.645615544085498 -54.20512901600308 -0.29753651426979827 0 0 0
1352 1 -7.209398438476891 -52.17192067304847 -0.2975382715025934 0 0 0
1354 1 -9.361818304150685 -52.17190505955863 -1.5416872499148053 0 0 0
1369 1 -7.20939843838662 -52.171920672844145 -2.7858382715552508 0 0 0
1156 1 -4.3407756187651385 -54.20515376467896 -0.2975377878496123 0 0 0
1165 1 -4.340775618531932 -54.20515376448412 -2.785837787751828 0 0 0
1322 1 -5.056977577535735 -52.17193501263933 -1.5416889211609166 0 0 0
1078 1 -2.1883550855843663 -54.205162556127654 -1.5416879884786185 0 0 0
1307 1 -0.7521353719272482 -52.171953117959994 -1.541688851038515 0 0 0
1321 1 -2.90455635440149 -52.17194621611726 -2.7858391224173604 0 0 0
1324 1 -2.9045563542826476 -52.17194621595657 -0.2975391224867981 0 0 0
6580 1 -0.03593483635949489 -54.205167599076134 -2.7858378546215743 0 0 0
6581 1 -0.03593483632388049 -54.20516759890703 -0.2975378544479521 0 0 0
1509 1 -16.535269515101454 -50.13864455187477 -1.541682850916273 0 0 0
1559 1 -18.68768181108392 -50.138645375139255 -0.29753128804629997 0 0 0
1570 1 -18.687681810973885 -50.13864537505284 -2.7858312882088168 0 0 0
1571 1 -17.25147100443899 -48.10541546946613 -2.7858323120873183 0 0 0
1572 1 -17.251471004360393 -48.105415469357844 -0.29753231222563603 0 0 0
1508 1 -14.38285563939576 -50.138650602834026 -2.7858347023345935 0 0 0
1511 1 -14.382855639288048 -50.138650602810586 -0.29753470250116787 0 0 0
1512 1 -12.946643103455958 -48.105433370374584 -0.2975376272185298 0 0 0
1514 1 -15.099058250124308 -48.10542046676229 -1.541684953136668 0 0 0
1531 1 -12.946643103381424 -48.10543337025175 -2.785837627328183 0 0 0
1428 1 -10.078021521749772 -50.13867961086969 -0.2975383565218615 0 0 0
1430 1 -12.230439685601398 -50.13866289219623 -1.5416866141114487 0 0 0
1447 1 -10.07802152164039 -50.13867961073584 -2.78583835656621 0 0 0
1449 1 -10.7942252723172 -48.10545229384098 -1.5416900082795764 0 0 0
1371 1 -7.925601414820345 -50.13869814948379 -1.541689717113929 0 0 0
1376 1 -6.4893828919667005 -48.10549558586007 -1.5416928034773434 0 0 0
1448 1 -8.641804978813814 -48.105474193538164 -2.7858418063421233 0 0 0
1451 1 -8.641804978668846 -48.10547419339393 -0.29754180643751915 0 0 0
1327 1 -3.620757943235457 -50.13872985837109 -1.5416906978330576 0 0 0
1370 1 -5.773179965635096 -50.138715697153124 -2.785840528880354 0 0 0
1373 1 -5.773179965495641 -50.138715696971914 -0.2975405289244405 0 0 0
1374 1 -4.3369599401497725 -48.10551337632294 -0.29754288323119465 0 0 0
1392 1 -4.336959940080665 -48.1055133761359 -2.785842883232186 0 0 0
1325 1 -1.468336097547134 -50.13873907903066 -0.29754020775868234 0 0 0
1338 1 -1.468336097423105 -50.13873907888488 -2.7858402077637736 0 0 0
1339 1 -2.1845370697337776 -48.10552548507516 -1.5416920427138046 0 0 0
6883 1 -0.0321150277938625 -48.10553107738813 -2.7858403834945906 0 0 0
6884 1 -0.032115027784029075 -48.105531077172174 -0.29754038339812855 0 0 0
1575 1 -17.96767230048164 -46.07218518702348 -1.5416817266548462 0 0 0
1533 1 -13.662846921528203 -46.07220148312117 -1.541689217724411 0 0 0
1573 1 -15.815260966307557 -46.07218837968032 -0.29753548948452335 0 0 0
1589 1 -15.815260966295686 -46.0721883795728 -2.7858354896566153 0 0 0
1532 1 -11.510429640931005 -46.07222265145244 -2.7858424583054506 0 0 0
1535 1 -11.510429640826887 -46.07222265135512 -0.2975424584212454 0 0 0
1452 1 -7.20558647945721 -46.07227437111699 -0.2975460097180979 0 0 0
1454 1 -9.358009250583446 -46.07224837751727 -1.5416948169021878 0 0 0
1469 1 -7.205586479371269 -46.07227437097865 -2.7858460098002142 0 0 0
1394 1 -5.0531624514527085 -46.072296625451436 -1.541695899357354 0 0 0
1342 1 -0.7483151658858146 -46.07232032134838 -1.5416920038288084 0 0 0
1393 1 -2.9007383584151842 -46.07231233565845 -2.785844506543321 0 0 0
1396 1 -2.900738358259813 -46.07231233560009 -0.2975445064979717 0 0 0
1591 1 -16.531463715239102 -44.03895414326441 -1.541686499159723 0 0 0
1607 1 -18.683873273378186 -44.03895377157698 -0.2975311573004009 0 0 0
1612 1 -18.683873273329354 -44.03895377152862 -2.7858311575166512 0 0 0
1613 1 -17.2476663882941 -42.005717604573896 -2.7858382770052397 0 0 0
1614 1 -17.247666388247605 -42.00571760447851 -0.29753827709555275 0 0 0
1590 1 -14.379051149427543 -44.03896679781639 -2.785841682220427 0 0 0
1593 1 -14.3790511493076 -44.03896679770961 -0.29754168233624817 0 0 0
1594 1 -12.942840612058685 -42.00575402810299 -0.29755138955286664 0 0 0
1596 1 -15.095255782652217 -42.00572884421417 -1.541695464446259 0 0 0
1603 1 -12.942840611992724 -42.00575402796072 -2.7858513897114534 0 0 0
1536 1 -10.07421438080537 -44.03902015327581 -0.2975491422255351 0 0 0
1538 1 -12.226634719397055 -44.03899012145206 -1.5416960752561433 0 0 0
1549 1 -10.074214380741692 -44.03902015313681 -2.7858491423719753 0 0 0
1551 1 -10.790420554525559 -42.005788819090526 -1.541705334564171 0 0 0
1471 1 -7.921790896747478 -44.03905164196174 -1.541700518180672 0 0 0
1476 1 -6.485569613170159 -42.005861427658004 -1.5417057233092222 0 0 0
1550 1 -8.637996360958038 -42.0058268449889 -2.78585683278599 0 0 0
1553 1 -8.637996360860194 -42.00582684488834 -0.2975568327991715 0 0 0
1399 1 -3.6169400446500495 -44.03909962665483 -1.5416977987498528 0 0 0
1470 1 -5.769365611056378 -44.039079402638656 -2.7858500463751388 0 0 0
1473 1 -5.769365610903143 -44.03907940251051 -0.2975500464414058 0 0 0
1474 1 -4.333142250247422 -42.00588734810508 -0.29755216191862416 0 0 0
1483 1 -4.333142250212689 -42.00588734797431 -2.7858521620529366 0 0 0
1397 1 -1.4645154642610918 -44.03911061259726 -0.2975440511026139 0 0 0
1408 1 -1.4645154641382634 -44.03911061241937 -2.7858440510369396 0 0 0
1409 1 -2.1807159663655016 -42.00590210787173 -1.5416965927574717 0 0 0
6915 1 -0.02829173833376942 -42.005906031121526 -2.785839687404267 0 0 0
6916 1 -0.0282917381856175 -42.00590603095796 -0.2975396873623555 0 0 0
1297 1 -17.25528043881867 -54.20509714557403 2.1907669934581584 0 0 0
1486 1 -17.971481230190413 -52.17187155388701 3.434917738674721 0 0 0
1491 1 -17.971481230150406 -52.17187155378725 0.9466177385326182 0 0 0
1271 1 -15.102866320521088 -54.20509920105484 3.4349162725222633 0 0 0
1283 1 -15.102866320440798 -54.205099200988634 0.9466162723828653 0 0 0
1285 1 -12.95045089602055 -54.205105881773676 2.190765373582003 0 0 0
1415 1 -13.666653181266865 -52.171879003095995 3.4349153835269846 0 0 0
1416 1 -13.66665318140952 -52.17187900321109 0.9466153836879068 0 0 0
1493 1 -15.81906793120344 -52.17187244326881 2.190766675052431 0 0 0
1229 1 -10.79803395628633 -54.20511632413266 3.4349144054166234 0 0 0
1230 1 -10.798033956353532 -54.205116324151746 0.9466144056115094 0 0 0
1414 1 -11.514236647199956 -52.171890432669294 2.190764020665993 0 0 0
1144 1 -6.493195945715009 -54.20514210351066 3.4349127240907094 0 0 0
1157 1 -6.493195945666424 -54.20514210353978 0.9466127238733109 0 0 0
1228 1 -8.645615544169653 -54.20512901614767 2.1907634857682474 0 0 0
1348 1 -9.361818304102508 -52.17190505951943 3.4349127500846657 0 0 0
1353 1 -9.361818304114657 -52.171905059448704 0.9466127499044538 0 0 0
1355 1 -7.209398438303682 -52.171920672887616 2.1907617284535066 0 0 0
1159 1 -4.340775618574618 -54.20515376453716 2.1907622122729835 0 0 0
1313 1 -5.056977577571644 -52.171935012604365 3.4349110788094426 0 0 0
1314 1 -5.05697757759175 -52.17193501268174 0.9466110789419875 0 0 0
1069 1 -2.1883550855363993 -54.20516255607682 3.43491201159073 0 0 0
1070 1 -2.1883550855873777 -54.20516255601995 0.9466120117493378 0 0 0
1305 1 -0.7521353719225652 -52.171953117994875 3.434911149006021 0 0 0
1306 1 -0.7521353720214979 -52.17195311805213 0.9466111488528959 0 0 0
1312 1 -2.9045563544344626 -52.17194621608174 2.1907608775826506 0 0 0
6579 1 -0.035934836399703844 -54.2051675990579 2.190762145421316 0 0 0
1495 1 -16.535269515139504 -50.13864455183755 3.4349171490339634 0 0 0
1496 1 -16.535269515152983 -50.13864455203237 0.9466171492095167 0 0 0
1560 1 -18.687681811008172 -50.13864537503289 2.190768711780346 0 0 0
1561 1 -17.2514710044606 -48.10541546947399 2.19076768793105 0 0 0
1494 1 -14.382855639375688 -50.1386506029393 2.190765297691946 0 0 0
1500 1 -15.099058250176789 -48.10542046679324 3.4349150468756293 0 0 0
1513 1 -15.099058250090126 -48.10542046671485 0.9466150467066266 0 0 0
1515 1 -12.946643103398007 -48.10543337029302 2.1907623727490155 0 0 0
1420 1 -12.230439685658554 -50.13866289218957 3.434913385871405 0 0 0
1429 1 -12.230439685529811 -50.13866289203837 0.9466133857254982 0 0 0
1431 1 -10.07802152160082 -50.13867961066947 2.1907616433936865 0 0 0
1433 1 -10.794225272385033 -48.10545229378978 3.4349099916936474 0 0 0
1434 1 -10.79422527241571 -48.105452293854896 0.946609991921594 0 0 0
1357 1 -7.925601414898627 -50.13869814942825 3.4349102828070857 0 0 0
1358 1 -7.925601414885258 -50.13869814950764 0.9466102830456965 0 0 0
1362 1 -6.489382892014183 -48.10549558580003 3.4349071965399243 0 0 0
1375 1 -6.4893828920218395 -48.10549558583903 0.9466071963230835 0 0 0
1432 1 -8.641804978811725 -48.10547419356723 2.19075819361611 0 0 0
1318 1 -3.620757943285626 -50.13872985839399 3.434909302155984 0 0 0
1326 1 -3.6207579432693664 -50.13872985838608 0.9466093019895266 0 0 0
1356 1 -5.7731799655981915 -50.13871569724284 2.1907594710867135 0 0 0
1377 1 -4.336959940104242 -48.105513376193585 2.1907571167568447 0 0 0
1328 1 -1.4683360974259658 -50.138739078848104 2.1907597922865105 0 0 0
1329 1 -2.1845370697556104 -48.10552548508359 3.434907957276099 0 0 0
1330 1 -2.184537069744816 -48.105525485023506 0.9466079574457158 0 0 0
6877 1 -0.03211502787392542 -48.10553107739575 2.1907596165344345 0 0 0
1565 1 -17.967672300475176 -46.07218518708337 3.4349182733608257 0 0 0
1574 1 -17.96767230048847 -46.07218518690004 0.9466182732502102 0 0 0
1517 1 -13.662846921504528 -46.072201483176684 3.434910782324393 0 0 0
1518 1 -13.662846921540092 -46.07220148327309 0.9466107824659926 0 0 0
1576 1 -15.815260966243507 -46.07218837960033 2.1907645103879907 0 0 0
1516 1 -11.510429640905814 -46.07222265141646 2.1907575417496554 0 0 0
1438 1 -9.358009250513359 -46.072248377431265 3.434905183125492 0 0 0
1453 1 -9.358009250523722 -46.072248377394956 0.9466051829916938 0 0 0
1455 1 -7.205586479388754 -46.0722743709684 2.190753990151425 0 0 0
1379 1 -5.053162451402489 -46.0722966254649 3.434904100594303 0 0 0
1380 1 -5.053162451500462 -46.07229662551952 0.9466041008098237 0 0 0
1332 1 -0.7483151658550643 -46.07232032132636 3.4349079961993794 0 0 0
1341 1 -0.7483151659526192 -46.07232032129818 0.946607996073011 0 0 0
1378 1 -2.9007383583270254 -46.07231233566286 2.1907554935263076 0 0 0
1578 1 -16.531463715201006 -44.03895414329645 3.4349135007258744 0 0 0
1579 1 -16.531463715248258 -44.038954143365196 0.9466135009908633 0 0 0
1608 1 -18.683873273355097 -44.03895377146823 2.190768842534277 0 0 0
1609 1 -17.24766638830644 -42.005717604507254 2.190761723055784 0 0 0
1577 1 -14.379051149394309 -44.03896679785878 2.190758317790259 0 0 0
1583 1 -15.095255782696206 -42.005728844174676 3.4349045355433865 0 0 0
1595 1 -15.095255782586493 -42.0057288441074 0.9466045355675766 0 0 0
1597 1 -12.942840611952455 -42.00575402798412 2.190748610286016 0 0 0
1522 1 -12.226634719309986 -44.03899012146412 3.4349039247192095 0 0 0
1537 1 -12.226634719291182 -44.03899012133487 0.9466039246648907 0 0 0
1539 1 -10.07421438073713 -44.03902015311357 2.1907508576287222 0 0 0
1541 1 -10.790420554500471 -42.00578881908421 3.4348946655097703 0 0 0
1542 1 -10.790420554494673 -42.005788819178555 0.9465946656141501 0 0 0
1457 1 -7.921790896748892 -44.03905164189598 3.434899481717774 0 0 0
1458 1 -7.921790896752308 -44.03905164196338 0.9465994819414352 0 0 0
1462 1 -6.485569613149252 -42.00586142767809 3.434894276713368 0 0 0
1475 1 -6.485569613178482 -42.00586142756429 0.9465942765449041 0 0 0
1540 1 -8.637996360969824 -42.005826845012685 2.1907431672935687 0 0 0
1384 1 -3.616940044634638 -44.03909962662992 3.434902201303467 0 0 0
1398 1 -3.616940044602219 -44.039099626565786 0.9466022010969523 0 0 0
1456 1 -5.769365610964299 -44.03907940274188 2.1907499535984694 0 0 0
1477 1 -4.3331422501830685 -42.00588734805222 2.1907478379562235 0 0 0
1400 1 -1.4645154641830802 -44.03911061255273 2.1907559489626056 0 0 0
1401 1 -2.1807159662443247 -42.00590210790661 3.4349034072029827 0 0 0
1402 1 -2.180715966243642 -42.005902107841216 0.9466034073153609 0 0 0
6913 1 -0.028291738307989325 -42.00590603112424 2.190760312607812 0 0 0
1294 1 -17.2552804387898 -54.20509714551988 7.167366993362223 0 0 0
1298 1 -17.25528043873353 -54.20509714535532 4.679066993268855 0 0 0
1485 1 -17.97148123014988 -52.17187155372969 5.9232177385615215 0 0 0
1269 1 -12.950450896106146 -54.205105881923366 4.679065373590867 0 0 0
1270 1 -15.102866320368639 -54.20509920097621 5.923216272459641 0 0 0
1272 1 -12.950450895995658 -54.20510588186274 7.167365373468774 0 0 0
1413 1 -13.666653181264381 -52.17187900331481 5.923215383592932 0 0 0
1484 1 -15.819067931347325 -52.171872443303165 4.679066675258926 0 0 0
1487 1 -15.819067931218976 -52.17187244323241 7.167366675043888 0 0 0
1213 1 -10.798033956297978 -54.20511632416882 5.923214405662914 0 0 0
1412 1 -11.51423664719893 -52.1718904327376 7.167364020590943 0 0 0
1417 1 -11.514236647176341 -52.1718904325801 4.679064020465803 0 0 0
1143 1 -6.493195945739056 -54.20514210345143 5.923212723917686 0 0 0
1212 1 -8.645615544207194 -54.205129016140646 7.167363485790683 0 0 0
1231 1 -8.645615544110052 -54.20512901601027 4.6790634857167195 0 0 0
1346 1 -7.209398438468033 -52.17192067296757 4.679061728474038 0 0 0
1347 1 -9.361818304079689 -52.171905059504205 5.92321274992315 0 0 0
1349 1 -7.209398438377731 -52.171920672874265 7.167361728433777 0 0 0
1142 1 -4.3407756186534625 -54.20515376464796 4.679062212227759 0 0 0
1145 1 -4.340775618663325 -54.205153764529925 7.167362212162446 0 0 0
1311 1 -5.056977577538285 -52.171935012648646 5.923211079080133 0 0 0
1053 1 -0.035934836427033 -54.205167599028854 7.167362145498748 0 0 0
1054 1 -2.188355085562024 -54.20516255608277 5.923212011714947 0 0 0
1071 1 -0.035934836247944246 -54.20516759894996 4.679062145439365 0 0 0
1304 1 -0.7521353719486141 -52.171953118034466 5.92321114880019 0 0 0
1310 1 -2.9045563543836987 -52.171946216140405 7.167360877486767 0 0 0
1315 1 -2.904556354316613 -52.17194621595242 4.679060877607985 0 0 0
1489 1 -16.535269515221884 -50.138644551998226 5.923217149209914 0 0 0
1556 1 -18.687681811074405 -50.13864537513891 4.679068711946375 0 0 0
1557 1 -18.687681811050812 -50.13864537507219 7.167368711770009 0 0 0
1558 1 -17.25147100444272 -48.105415469464866 7.1673676879419475 0 0 0
1562 1 -17.251471004405953 -48.10541546937099 4.679067687733159 0 0 0
1488 1 -14.382855639394505 -50.13865060293544 7.16736529760277 0 0 0
1497 1 -14.382855639330234 -50.13865060267839 4.679065297516188 0 0 0
1498 1 -12.946643103488348 -48.105433370369944 4.679062372796892 0 0 0
1499 1 -15.099058250066621 -48.10542046665944 5.92321504675912 0 0 0
1501 1 -12.946643103368196 -48.10543337025635 7.167362372627551 0 0 0
1418 1 -10.078021521745432 -50.13867961086053 4.679061643496265 0 0 0
1419 1 -12.230439685547028 -50.138662892101266 5.9232133857131215 0 0 0
1421 1 -10.078021521622306 -50.13867961071298 7.167361643373812 0 0 0
1423 1 -10.794225272380416 -48.10545229391388 5.9232099919062815 0 0 0
1351 1 -7.9256014148677325 -50.138698149518206 5.923210283083338 0 0 0
1361 1 -6.489382891954051 -48.10549558581181 5.923207196370489 0 0 0
1422 1 -8.641804978780046 -48.10547419353753 7.167358193631056 0 0 0
1435 1 -8.641804978685599 -48.105474193363875 4.679058193592889 0 0 0
1317 1 -3.6207579432603842 -50.13872985836042 5.92320930197165 0 0 0
1350 1 -5.773179965625579 -50.13871569711596 7.167359471087714 0 0 0
1359 1 -5.773179965527549 -50.13871569697469 4.67905947110066 0 0 0
1360 1 -4.336959940195479 -48.105513376262266 4.679057116775562 0 0 0
1363 1 -4.3369599400657455 -48.105513376192356 7.167357116759608 0 0 0
1316 1 -1.4683360975377924 -50.1387390790511 4.679059792174999 0 0 0
1319 1 -1.4683360974549002 -50.13873907890829 7.167359792243198 0 0 0
1320 1 -2.184537069765975 -48.10552548506605 5.9232079574717655 0 0 0
6876 1 -0.032115027892689905 -48.105531077332984 7.16735961652527 0 0 0
6878 1 -0.032115027724318394 -48.105531077261666 4.6790596165447695 0 0 0
1564 1 -17.967672300385633 -46.072185186888056 5.9232182732857055 0 0 0
1503 1 -13.662846921570457 -46.07220148322749 5.923210782451527 0 0 0
1563 1 -15.815260966342933 -46.07218837970477 4.679064510489677 0 0 0
1566 1 -15.815260966223255 -46.072188379570214 7.167364510394435 0 0 0
1502 1 -11.510429640896929 -46.07222265147159 7.167357541684017 0 0 0
1519 1 -11.510429640824178 -46.07222265131558 4.679057541613592 0 0 0
1436 1 -7.205586479466693 -46.07227437113323 4.6790539902459845 0 0 0
1437 1 -9.358009250509538 -46.07224837744948 5.923205182947362 0 0 0
1439 1 -7.205586479344085 -46.07227437097154 7.167353990212876 0 0 0
1365 1 -5.053162451462884 -46.07229662548347 5.923204100833035 0 0 0
1331 1 -0.7483151659066887 -46.07232032140102 5.923207996027354 0 0 0
1364 1 -2.900738358360946 -46.072312335737436 7.167355493520702 0 0 0
1381 1 -2.9007383583146353 -46.072312335527805 4.679055493428076 0 0 0
1568 1 -16.531463715306728 -44.03895414337552 5.923213500971008 0 0 0
1604 1 -18.683873273381728 -44.0389537715784 4.679068842617123 0 0 0
1605 1 -18.683873273336697 -44.03895377154247 7.1673688425318565 0 0 0
1606 1 -17.2476663882831 -42.00571760453717 7.16736172299875 0 0 0
1610 1 -17.247666388301536 -42.00571760453944 4.67906172287629 0 0 0
1567 1 -14.379051149382262 -44.03896679780235 7.167358317781066 0 0 0
1580 1 -14.379051149352758 -44.03896679773986 4.679058317693713 0 0 0
1581 1 -12.942840612054084 -42.00575402803988 4.6790486103770395 0 0 0
1582 1 -15.095255782590645 -42.00572884413464 5.923204535478367 0 0 0
1584 1 -12.942840611983538 -42.00575402801422 7.167348610332993 0 0 0
1520 1 -10.074214380770979 -44.03902015324671 4.679050857758377 0 0 0
1521 1 -12.226634719329898 -44.03899012135268 5.9232039246559225 0 0 0
1523 1 -10.074214380730462 -44.03902015314971 7.167350857707542 0 0 0
1525 1 -10.79042055457341 -42.00578881915229 5.923194665603818 0 0 0
1441 1 -7.921790896765195 -44.03905164203072 5.923199481987667 0 0 0
1461 1 -6.485569613101759 -42.00586142762795 5.923194276538208 0 0 0
1524 1 -8.637996360919654 -42.00582684500896 7.167343167237213 0 0 0
1543 1 -8.637996360886936 -42.00582684489959 4.6790431671550134 0 0 0
1383 1 -3.6169400446160886 -44.039099626637096 5.923202201109924 0 0 0
1440 1 -5.769365610986696 -44.03907940265638 7.167349953601141 0 0 0
1459 1 -5.769365610943681 -44.03907940249961 4.679049953593451 0 0 0
1460 1 -4.333142250251955 -42.00588734810188 4.679047837970002 0 0 0
1463 1 -4.333142250134031 -42.005887347972795 7.167347838056717 0 0 0
1382 1 -1.464515464200545 -44.039110612598535 4.679055948966264 0 0 0
1385 1 -1.4645154641454203 -44.039110612488585 7.167355948930466 0 0 0
1386 1 -2.180715966335945 -42.005902107901434 5.92320340738936 0 0 0
6912 1 -0.028291738254488046 -42.0059060310681 7.167360312602185 0 0 0
6914 1 -0.02829173823998587 -42.005906031015115 4.679060312595196 0 0 0
1835 1 -17.96386880706786 -39.972478694702446 -4.029991292160104 0 0 0
1836 1 -17.963868807085905 -39.972478694787526 -6.518291292095602 0 0 0
1840 1 -16.527666040566004 -37.93924110623405 -4.030009934426166 0 0 0
1856 1 -16.527666040544773 -37.93924110610226 -6.518309934578082 0 0 0
1911 1 -18.680070715613663 -37.93923748332463 -5.274146259614037 0 0 0
1744 1 -13.659047423673755 -39.9725135660919 -4.030009168212375 0 0 0
1760 1 -13.659047423652124 -39.972513566046366 -6.518309168314801 0 0 0
1834 1 -15.811460779005658 -39.97248711690506 -5.274151222429971 0 0 0
1857 1 -14.375255256712151 -37.93926778422913 -5.274170517181508 0 0 0
1761 1 -11.506628000910919 -39.972553484151085 -5.2741641694571415 0 0 0
1762 1 -10.070411665822744 -37.93936783087025 -5.274177869634361 0 0 0
1763 1 -12.222836989235782 -37.93931301896013 -4.030026729233953 0 0 0
1764 1 -12.222836989297836 -37.93931301906534 -6.518326729094263 0 0 0
1678 1 -7.2017747188921755 -39.97264229229015 -5.274163445506302 0 0 0
1679 1 -9.354203159428979 -39.97259924148057 -4.030015640469137 0 0 0
1680 1 -9.354203159503918 -39.97259924154968 -6.518315640289625 0 0 0
1684 1 -7.917981299398469 -37.939421403942035 -4.030023882328259 0 0 0
1699 1 -7.917981299436611 -37.93942140391743 -6.518323882391477 0 0 0
1635 1 -5.049345145253678 -39.972675476782015 -4.030007890611261 0 0 0
1645 1 -5.049345145188837 -39.972675476754986 -6.51830789076536 0 0 0
1648 1 -3.613117867240414 -37.939489709064446 -4.0300032753700785 0 0 0
1649 1 -3.6131178673302857 -37.93948970910609 -6.518303275291194 0 0 0
1700 1 -5.765548982124784 -37.939463949900244 -5.274165329330061 0 0 0
1620 1 -0.7444908523236438 -39.97270121846216 -4.029989767345274 0 0 0
1621 1 -0.7444908523989135 -39.97270121837026 -6.51828976719663 0 0 0
1646 1 -2.896916736688117 -39.97269503350173 -5.27414967007205 0 0 0
1647 1 -1.4606899277419012 -37.93949861185882 -5.27413915069575 0 0 0
1929 1 -17.24387137581765 -35.905990335677814 -5.274173034256807 0 0 0
1858 1 -12.93904784084968 -35.90606601156921 -5.274194516701259 0 0 0
1859 1 -15.091464180420733 -35.9060155762019 -4.030037009142454 0 0 0
1860 1 -15.091464180366689 -35.9060155761648 -6.518337009123079 0 0 0
1768 1 -10.786622374010378 -35.9061312662457 -4.0300447647613975 0 0 0
1784 1 -10.786622373985285 -35.906131266285904 -6.518344764793153 0 0 0
1702 1 -6.481754154338718 -35.90625262416486 -4.030024863663537 0 0 0
1703 1 -6.481754154303175 -35.90625262420678 -6.518324863570781 0 0 0
1785 1 -8.634189888324846 -35.906197885304344 -5.274187891045828 0 0 0
1701 1 -4.3293195165891305 -35.9062865920098 -5.27415730790027 0 0 0
1652 1 -2.1768889474059385 -35.90629880787678 -4.029987274981208 0 0 0
1655 1 -2.176888947353814 -35.90629880782539 -6.518287275010741 0 0 0
7269 1 -0.024462940633769217 -35.90629495189466 -5.274117034874902 0 0 0
1931 1 -17.96007642587103 -33.87273443238923 -4.030042638298583 0 0 0
1932 1 -17.96007642588696 -33.87273443237504 -6.518342638350705 0 0 0
1936 1 -16.523885143639678 -31.83948664931865 -4.030095375626563 0 0 0
1946 1 -16.52388514362615 -31.839486649290848 -6.518395375648769 0 0 0
1969 1 -18.67628054160288 -31.839473214735218 -5.274221877817471 0 0 0
1864 1 -13.655260889714532 -33.87281070848565 -4.03006960590603 0 0 0
1878 1 -13.65526088980123 -33.87281070853093 -6.518369606031694 0 0 0
1930 1 -15.8076741959549 -33.87275567333211 -5.274210892319764 0 0 0
1947 1 -14.371476450261563 -31.839544975873736 -5.274254835671378 0 0 0
1879 1 -11.50283590701359 -33.87288774569111 -5.274217977326786 0 0 0
1880 1 -10.066616410066382 -31.839737033587138 -5.274231032336921 0 0 0
1881 1 -12.21905299930343 -31.83963489188016 -4.03009963577858 0 0 0
1882 1 -12.219052999377604 -31.8396348918449 -6.518399635818861 0 0 0
1786 1 -7.197961294790415 -33.87304117551729 -5.2741868874879865 0 0 0
1787 1 -9.350401242112342 -33.872970421355305 -4.030056526741353 0 0 0
1788 1 -9.350401242049989 -33.87297042138853 -6.518356526692013 0 0 0
1792 1 -7.914171383612512 -31.83982892160665 -4.030051720141506 0 0 0
1802 1 -7.914171383633537 -31.83982892155009 -6.518351720106995 0 0 0
1707 1 -5.0455219908945255 -33.87308630722965 -4.030011497219404 0 0 0
1717 1 -5.045521990860374 -33.87308630722713 -6.518311497250628 0 0 0
1720 1 -3.6092869743848732 -31.839911823383044 -4.029975775989228 0 0 0
1721 1 -3.609286974365012 -31.83991182331763 -6.518275775988564 0 0 0
1803 1 -5.761725847281297 -31.839889665947933 -5.274165289794915 0 0 0
1656 1 -0.7406600812506401 -33.873098223293994 -4.029955280817721 0 0 0
1657 1 -0.7406600812635775 -33.87309822326615 -6.518255280796874 0 0 0
1718 1 -2.893087929125088 -33.87310273117912 -5.2741332599148665 0 0 0
1719 1 -1.4568568706299185 -31.8399053546671 -5.274087334148612 0 0 0
1977 1 -17.24009654279905 -29.806206890286024 -5.274295018352247 0 0 0
1979 1 -17.956307308594706 -27.772914549187853 -4.03021625114318 0 0 0
1980 1 -17.95630730861572 -27.77291454916026 -6.518516251100772 0 0 0
1948 1 -12.935274409416866 -29.806369658970386 -5.274292409979562 0 0 0
1949 1 -15.087694663395181 -29.80626625136013 -4.030154028784971 0 0 0
1950 1 -15.087694663410177 -29.806266251260528 -6.518454028911866 0 0 0
1954 1 -13.65150065073574 -27.773088311952407 -4.030199485809158 0 0 0
1956 1 -13.65150065077848 -27.773088312008195 -6.518499485724224 0 0 0
1978 1 -15.80391526965658 -27.77297148292366 -5.274372231968943 0 0 0
1886 1 -10.782836763683045 -29.806494773221413 -4.030112775073536 0 0 0
1892 1 -10.782836763697949 -29.806494773270167 -6.518412775094233 0 0 0
1957 1 -11.499063930746836 -27.7732393110902 -5.27430303862504 0 0 0
1805 1 -6.477932079105036 -29.806697598804984 -4.030017684549143 0 0 0
1806 1 -6.477932079051107 -29.806697598765492 -6.518317684682159 0 0 0
1893 1 -8.630385927217878 -29.80661447582376 -5.27421946574867 0 0 0
1894 1 -7.1941423983672745 -27.773510893777274 -5.274167013954452 0 0 0
1895 1 -9.346607106513044 -27.7733951781255 -4.030089775427467 0 0 0
1896 1 -9.346607106498833 -27.77339517816269 -6.518389775587351 0 0 0
1804 1 -4.325486362730824 -29.80672831763534 -5.274112865897884 0 0 0
1810 1 -5.0416867241256265 -27.773555600154086 -4.0299417622192415 0 0 0
1812 1 -5.041686724181271 -27.773555600239177 -6.51824176218728 0 0 0
1724 1 -2.173053337996448 -29.806717862822598 -4.029910407138124 0 0 0
1727 1 -2.173053337994786 -29.806717862678024 -6.518210407164927 0 0 0
1728 1 -0.7368251530472175 -27.773501921038147 -4.029810545790545 0 0 0
1729 1 -0.7368251530199711 -27.773501921060557 -6.518110545795105 0 0 0
1813 1 -2.8892496158991476 -27.77353842557968 -5.2740207159134505 0 0 0
7305 1 -0.020628357823694533 -29.806693666503058 -5.274015582046022 0 0 0
1822 1 -17.96386880713488 -39.972478694814 -1.5416912921023513 0 0 0
1839 1 -16.52766604050007 -37.93924110614537 -1.5417099344412832 0 0 0
1901 1 -18.68007071566655 -37.93923748332203 -0.29754625964475356 0 0 0
1912 1 -18.680070715677125 -37.93923748332549 -2.7858462596069744 0 0 0
1743 1 -13.65904742365783 -39.97251356606504 -1.5417091683052964 0 0 0
1820 1 -15.811460778991886 -39.97248711688836 -0.2975512224675272 0 0 0
1837 1 -15.811460779071483 -39.97248711684368 -2.7858512225492595 0 0 0
1838 1 -14.37525525678451 -37.939267784290614 -2.785870517088336 0 0 0
1841 1 -14.37525525672062 -37.93926778426211 -0.2975705170887752 0 0 0
1742 1 -11.506628000977253 -39.97255348425114 -2.7858641694407633 0 0 0
1745 1 -11.506628000914763 -39.97255348422559 -0.29756416945572983 0 0 0
1746 1 -10.070411665780135 -37.939367830854884 -0.29757786949815074 0 0 0
1748 1 -12.222836989320813 -37.939313019065516 -1.541726729139448 0 0 0
1765 1 -10.070411665779913 -37.93936783081135 -2.785877869682946 0 0 0
1664 1 -7.201774718792866 -39.972642292272404 -0.2975634455070821 0 0 0
1666 1 -9.354203159421436 -39.97259924158876 -1.5417156402866865 0 0 0
1681 1 -7.20177471879376 -39.972642292187395 -2.785863445542528 0 0 0
1683 1 -7.917981299379975 -37.93942140392825 -1.5417238823793642 0 0 0
1634 1 -5.049345145197913 -39.972675476708126 -1.5417078907272592 0 0 0
1639 1 -3.6131178672840285 -37.93948970910118 -1.541703275270679 0 0 0
1682 1 -5.765548982176362 -37.9394639499355 -2.785865329278667 0 0 0
1685 1 -5.765548982138112 -37.939463949853824 -0.2975653293077939 0 0 0
1619 1 -0.7444908523363203 -39.972701218403905 -1.5416897672261336 0 0 0
1633 1 -2.8969167368476505 -39.97269503362946 -2.7858496701104376 0 0 0
1636 1 -2.89691673671948 -39.9726950335087 -0.2975496701382367 0 0 0
1637 1 -1.4606899276927452 -37.93949861189109 -0.29753915072285153 0 0 0
1650 1 -1.4606899276704501 -37.939498611768165 -2.7858391507701667 0 0 0
1913 1 -17.243871375849707 -35.905990335661556 -2.7858730342682994 0 0 0
1914 1 -17.24387137585902 -35.90599033563785 -0.2975730342818449 0 0 0
1842 1 -12.93904784084059 -35.9060660115742 -0.29759451666727055 0 0 0
1844 1 -15.091464180393768 -35.90601557621146 -1.54173700908455 0 0 0
1861 1 -12.939047840914913 -35.90606601156962 -2.7858945167907985 0 0 0
1767 1 -10.786622373930872 -35.906131266190876 -1.5417447647809905 0 0 0
1688 1 -6.481754154307379 -35.90625262418594 -1.5417248636387795 0 0 0
1766 1 -8.63418988839511 -35.906197885277955 -2.7858878910217615 0 0 0
1769 1 -8.63418988836229 -35.90619788533042 -0.2975878910524382 0 0 0
1686 1 -4.3293195166403455 -35.90628659206753 -0.29755730786551304 0 0 0
1704 1 -4.329319516649616 -35.90628659193469 -2.7858573079733184 0 0 0
1651 1 -2.1768889473340116 -35.90629880789262 -1.5416872750436934 0 0 0
7255 1 -0.0244629406118064 -35.9062949519962 -2.7858170348374807 0 0 0
7256 1 -0.024462940659164864 -35.906294951954145 -0.29751703485389963 0 0 0
1917 1 -17.960076425874625 -33.87273443242505 -1.541742638298687 0 0 0
1935 1 -16.523885143590892 -31.839486649318076 -1.5417953755719502 0 0 0
1961 1 -18.676280541571824 -31.83947321471393 -0.2976218777710571 0 0 0
1970 1 -18.676280541509193 -31.839473214768297 -2.78592187777776 0 0 0
1863 1 -13.65526088972764 -33.872810708429995 -1.5417696059924804 0 0 0
1915 1 -15.80767419590309 -33.8727556733099 -0.2976108922306281 0 0 0
1933 1 -15.807674195926337 -33.872755673311666 -2.785910892252852 0 0 0
1934 1 -14.371476450267673 -31.839544975891876 -2.7859548356644095 0 0 0
1937 1 -14.371476450174505 -31.839544975867867 -0.2976548357797295 0 0 0
1862 1 -11.502835907039294 -33.87288774569362 -2.7859179772555485 0 0 0
1865 1 -11.50283590702172 -33.87288774567915 -0.2976179772866341 0 0 0
1866 1 -10.066616410037128 -31.839737033682695 -0.2976310323577284 0 0 0
1868 1 -12.219052999325369 -31.839634891941714 -1.5417996357862334 0 0 0
1883 1 -10.066616410103311 -31.83973703364182 -2.785931032348559 0 0 0
1770 1 -7.19796129475487 -33.873041175582436 -0.2975868874759075 0 0 0
1772 1 -9.350401242059606 -33.872970421416625 -1.5417565267596427 0 0 0
1789 1 -7.197961294799123 -33.8730411754498 -2.785886887501835 0 0 0
1791 1 -7.914171383657019 -31.8398289215812 -1.5417517201083821 0 0 0
1706 1 -5.045521990876919 -33.873086307176784 -1.5417114972443224 0 0 0
1711 1 -3.6092869743642426 -31.83991182339398 -1.5416757759296276 0 0 0
1790 1 -5.761725847286831 -31.83988966590699 -2.785865289875093 0 0 0
1793 1 -5.7617258472334365 -31.83988966589724 -0.29756528975139185 0 0 0
1654 1 -0.740660081223853 -33.873098223274546 -1.541655280753306 0 0 0
1705 1 -2.8930879291757443 -33.8731027311914 -2.785833259870429 0 0 0
1708 1 -2.8930879291681 -33.8731027311584 -0.2975332599062377 0 0 0
1709 1 -1.4568568706371234 -31.83990535464103 -0.297487334080337 0 0 0
1722 1 -1.4568568706286316 -31.839905354692824 -2.7857873341805486 0 0 0
1971 1 -17.24009654272059 -29.806206890220604 -2.7859950184422817 0 0 0
1972 1 -17.240096542788972 -29.80620689032597 -0.2976950183043615 0 0 0
1975 1 -17.95630730864501 -27.772914549139614 -1.5419162511487485 0 0 0
1938 1 -12.935274409399595 -29.80636965895667 -0.2976924099839409 0 0 0
1940 1 -15.08769466333523 -29.806266251295565 -1.5418540289768052 0 0 0
1951 1 -12.935274409446473 -29.806369659002193 -2.7859924099742153 0 0 0
1953 1 -13.651500650772665 -27.773088311962088 -1.541899485677038 0 0 0
1973 1 -15.803915269634349 -27.772971482951903 -0.29777223194963953 0 0 0
1981 1 -15.803915269703026 -27.77297148295587 -2.7860722319391336 0 0 0
1885 1 -10.782836763747701 -29.806494773260653 -1.5418127750668944 0 0 0
1952 1 -11.499063930663056 -27.773239310956267 -2.786003038681229 0 0 0
1955 1 -11.49906393077161 -27.77323931102206 -0.29770303869744724 0 0 0
1796 1 -6.477932079056364 -29.80669759880234 -1.541717684651962 0 0 0
1884 1 -8.630385927156524 -29.806614475776712 -2.7859194658446973 0 0 0
1887 1 -8.630385927228835 -29.806614475774012 -0.29761946573211445 0 0 0
1888 1 -7.194142398393567 -27.77351089380176 -0.2975670138536147 0 0 0
1890 1 -9.346607106534917 -27.773395178115642 -1.5417897755337324 0 0 0
1897 1 -7.194142398394836 -27.773510893875006 -2.7858670139280948 0 0 0
1794 1 -4.32548636280236 -29.80672831760766 -0.29751286587188613 0 0 0
1807 1 -4.325486362764005 -29.806728317634327 -2.785812865898773 0 0 0
1809 1 -5.041686724151042 -27.77355560010093 -1.5416417622386773 0 0 0
1723 1 -2.1730533379405688 -29.806717862730466 -1.5416104071455374 0 0 0
1726 1 -0.736825152976731 -27.773501921003984 -1.541510545877416 0 0 0
1808 1 -2.8892496158843963 -27.77353842555126 -2.7857207159055792 0 0 0
1811 1 -2.889249615848385 -27.773538425539773 -0.2974207159160343 0 0 0
7301 1 -0.02062835772366962 -29.806693666595436 -2.785715581922565 0 0 0
7302 1 -0.02062835782424442 -29.806693666488627 -0.29741558195780643 0 0 0
1816 1 -17.963868807126662 -39.97247869477034 3.4349087078897234 0 0 0
1821 1 -17.96386880703378 -39.9724786947225 0.9466087079131941 0 0 0
1825 1 -16.52766604054521 -37.93924110618299 3.4348900655623886 0 0 0
1826 1 -16.52766604059625 -37.93924110612921 0.9465900654907802 0 0 0
1902 1 -18.680070715608725 -37.93923748330416 2.190753740356637 0 0 0
1733 1 -13.659047423613703 -39.97251356601886 3.434890831695104 0 0 0
1734 1 -13.659047423697496 -39.97251356609344 0.9465908317611378 0 0 0
1823 1 -15.811460778965545 -39.97248711687321 2.1907487774917525 0 0 0
1824 1 -14.375255256727131 -37.93926778423409 2.190729482903753 0 0 0
1732 1 -11.50662800094655 -39.97255348425973 2.1907358306096394 0 0 0
1738 1 -12.222836989264852 -37.93931301901061 3.434873270820852 0 0 0
1747 1 -12.222836989246069 -37.939313019016744 0.9465732708367612 0 0 0
1749 1 -10.07041166579233 -37.93936783079609 2.1907221303216047 0 0 0
1660 1 -9.354203159445387 -39.97259924152872 3.434884359657454 0 0 0
1665 1 -9.354203159471734 -39.972599241484886 0.9465843596226591 0 0 0
1667 1 -7.2017747188073535 -39.972642292205435 2.190736554456202 0 0 0
1669 1 -7.91798129938846 -37.93942140390819 3.4348761175825935 0 0 0
1670 1 -7.9179812994564704 -37.93942140394114 0.946576117693598 0 0 0
1625 1 -5.049345145201094 -39.97267547675447 3.4348921092518205 0 0 0
1626 1 -5.049345145220462 -39.9726754767896 0.946592109344094 0 0 0
1630 1 -3.6131178672286026 -37.93948970910743 3.4348967247073197 0 0 0
1638 1 -3.6131178673201307 -37.939489709085585 0.9465967245972964 0 0 0
1668 1 -5.765548982162969 -37.93946394997069 2.1907346707559547 0 0 0
1617 1 -0.7444908523495646 -39.97270121844915 3.4349102327897447 0 0 0
1618 1 -0.7444908523840176 -39.97270121837387 0.9466102326702485 0 0 0
1624 1 -2.896916736762755 -39.97269503361504 2.1907503299307183 0 0 0
1640 1 -1.4606899276954695 -37.93949861177026 2.190760849296602 0 0 0
1903 1 -17.243871375825552 -35.9059903356695 2.190726965809567 0 0 0
1830 1 -15.091464180429593 -35.90601557622663 3.4348629908997266 0 0 0
1843 1 -15.091464180357487 -35.90601557611449 0.9465629908770018 0 0 0
1845 1 -12.939047840831142 -35.90606601152309 2.190705483260394 0 0 0
1751 1 -10.786622373989736 -35.906131266198074 3.434855235212042 0 0 0
1752 1 -10.786622374014646 -35.90613126630768 0.9465552352570603 0 0 0
1674 1 -6.481754154362475 -35.90625262419813 3.4348751364194388 0 0 0
1687 1 -6.48175415427701 -35.90625262417471 0.94657513639066 0 0 0
1750 1 -8.634189888361238 -35.90619788535207 2.1907121090179658 0 0 0
1689 1 -4.3293195165518785 -35.90628659194854 2.190742692070695 0 0 0
1641 1 -2.1768889474149997 -35.906298807857034 3.434912724928124 0 0 0
1642 1 -2.1768889473631434 -35.90629880785125 0.9466127250636546 0 0 0
7249 1 -0.024462940699254594 -35.90629495194227 2.1907829651616906 0 0 0
1907 1 -17.96007642585849 -33.87273443238359 3.434857361699517 0 0 0
1916 1 -17.960076425881347 -33.87273443238321 0.9465573617021825 0 0 0
1920 1 -16.523885143625858 -31.839486649354612 3.434804624406801 0 0 0
1921 1 -16.523885143610432 -31.83948664929384 0.9465046243548911 0 0 0
1962 1 -18.676280541620013 -31.839473214764833 2.190678122240036 0 0 0
1847 1 -13.655260889704808 -33.87281070847521 3.4348303940918976 0 0 0
1848 1 -13.655260889807447 -33.8728107085112 0.9465303939530885 0 0 0
1918 1 -15.807674195946186 -33.87275567334337 2.190689107676119 0 0 0
1919 1 -14.37147645024223 -31.839544975867792 2.1906451643103058 0 0 0
1846 1 -11.502835906994127 -33.87288774569376 2.1906820226761936 0 0 0
1852 1 -12.219052999303488 -31.839634891890753 3.434800364206138 0 0 0
1867 1 -12.21905299937032 -31.839634891855177 0.9465003641885477 0 0 0
1869 1 -10.066616410078423 -31.839737033624832 2.1906689676965923 0 0 0
1756 1 -9.350401242100322 -33.87297042136581 3.434843473285564 0 0 0
1771 1 -9.350401242040546 -33.87297042139094 0.9465434732856421 0 0 0
1773 1 -7.197961294788635 -33.873041175523106 2.190713112521972 0 0 0
1775 1 -7.914171383600838 -31.83982892163071 3.434848279879563 0 0 0
1776 1 -7.914171383641575 -31.839828921560947 0.9465482799223608 0 0 0
1691 1 -5.045521990911014 -33.87308630719955 3.434888502735126 0 0 0
1692 1 -5.045521990890795 -33.87308630724628 0.9465885027392429 0 0 0
1696 1 -3.609286974384763 -31.839911823357994 3.434924224026096 0 0 0
1710 1 -3.609286974376863 -31.83991182331685 0.9466242239995108 0 0 0
1774 1 -5.7617258472753266 -31.839889665957124 2.190734710214133 0 0 0
1644 1 -0.7406600812640363 -33.87309822330767 3.4349447192136084 0 0 0
1653 1 -0.7406600812402688 -33.87309822324759 0.946644719182768 0 0 0
1690 1 -2.893087929143565 -33.873102731198216 2.1907667401192947 0 0 0
1712 1 -1.45685687062936 -31.839905354652416 2.1908126658600358 0 0 0
1963 1 -17.24009654276971 -29.806206890252554 2.1906049815976383 0 0 0
1967 1 -17.956307308566778 -27.772914549158713 3.434683748811243 0 0 0
1974 1 -17.95630730863623 -27.772914549186325 0.946383748962117 0 0 0
1925 1 -15.087694663382184 -29.80626625134518 3.4347459711551327 0 0 0
1939 1 -15.087694663434803 -29.806266251298 0.9464459711077297 0 0 0
1941 1 -12.935274409465455 -29.806369659032246 2.1906075900648574 0 0 0
1943 1 -13.651500650756825 -27.773088311977176 3.4347005142894114 0 0 0
1944 1 -13.651500650773764 -27.77308831198402 0.9464005141751357 0 0 0
1976 1 -15.803915269706076 -27.77297148298453 2.1905277680689004 0 0 0
1871 1 -10.782836763688245 -29.806494773259796 3.434787225013417 0 0 0
1872 1 -10.782836763692567 -29.80649477325555 0.9464872248912507 0 0 0
1942 1 -11.499063930736375 -27.7732393110541 2.1905969613597356 0 0 0
1780 1 -6.477932079090984 -29.806697598830684 3.4348823153969676 0 0 0
1795 1 -6.477932079048462 -29.806697598792756 0.9465823153880855 0 0 0
1870 1 -8.630385927185527 -29.806614475798437 2.1906805342328175 0 0 0
1876 1 -9.34660710650686 -27.773395178131068 3.4348102245145875 0 0 0
1889 1 -9.346607106544967 -27.773395178173683 0.94651022448964 0 0 0
1891 1 -7.194142398410844 -27.773510893867982 2.1907329861110707 0 0 0
1797 1 -4.325486362753088 -29.806728317656823 2.1907871340805856 0 0 0
1799 1 -5.041686724133692 -27.773555600200854 3.434958237837825 0 0 0
1800 1 -5.041686724170226 -27.77355560020622 0.9466582377356485 0 0 0
1713 1 -2.1730533380047987 -29.806717862836614 3.434989592875188 0 0 0
1714 1 -2.1730533380013193 -29.80671786265582 0.9466895927833664 0 0 0
1716 1 -0.7368251530254595 -27.773501921072558 3.4350894541788093 0 0 0
1725 1 -0.7368251530045944 -27.77350192107237 0.9467894542535398 0 0 0
1798 1 -2.889249615869567 -27.773538425542167 2.1908792840713995 0 0 0
7297 1 -0.02062835782070987 -29.80669366651003 2.190884417963536 0 0 0
1815 1 -17.963868807083603 -39.972478694740886 5.923208707857558 0 0 0
1819 1 -16.527666040526107 -37.939241106195645 5.923190065538853 0 0 0
1898 1 -18.680070715683133 -37.93923748334167 4.679053740462553 0 0 0
1899 1 -18.680070715647062 -37.93923748329812 7.167353740298423 0 0 0
1731 1 -13.65904742370116 -39.97251356615839 5.9231908317652335 0 0 0
1814 1 -15.81146077908 -39.972487116895856 4.6790487775301335 0 0 0
1817 1 -15.811460778961425 -39.97248711685666 7.167348777410389 0 0 0
1818 1 -14.37525525674164 -37.9392677843065 7.167329482943961 0 0 0
1827 1 -14.375255256747982 -37.93926778426646 4.679029482853501 0 0 0
1730 1 -11.506628000970379 -39.972553484292625 7.16733583057722 0 0 0
1735 1 -11.506628000897171 -39.97255348419045 4.6790358304646436 0 0 0
1736 1 -10.070411665837911 -37.93936783086836 4.679022130370028 0 0 0
1737 1 -12.222836989298425 -37.93931301903816 5.92317327079647 0 0 0
1739 1 -10.070411665751198 -37.93936783079405 7.1673221304591745 0 0 0
1658 1 -7.2017747188354795 -39.972642292293465 4.679036554518728 0 0 0
1659 1 -9.354203159370819 -39.97259924153801 5.9231843596042495 0 0 0
1661 1 -7.201774718695961 -39.972642292193406 7.167336554403668 0 0 0
1663 1 -7.917981299411374 -37.93942140396578 5.923176117695684 0 0 0
1623 1 -5.049345145184285 -39.972675476739006 5.923192109387632 0 0 0
1629 1 -3.613117867232341 -37.93948970906343 5.923196724641024 0 0 0
1662 1 -5.765548982166527 -37.93946394994502 7.167334670684186 0 0 0
1671 1 -5.76554898209779 -37.93946394987098 4.679034670672948 0 0 0
1616 1 -0.7444908523481355 -39.97270121837728 5.923210232648421 0 0 0
1622 1 -2.8969167367997968 -39.97269503361046 7.167350329906812 0 0 0
1627 1 -2.8969167367614155 -39.972695033538585 4.679050329831904 0 0 0
1628 1 -1.4606899277327472 -37.939498611840975 4.679060849256129 0 0 0
1631 1 -1.4606899276434044 -37.93949861178546 7.167360849254305 0 0 0
1900 1 -17.243871375867563 -35.90599033565623 7.167326965724683 0 0 0
1904 1 -17.24387137585194 -35.90599033564694 4.679026965705192 0 0 0
1828 1 -12.939047840921614 -35.9060660115882 4.679005483244456 0 0 0
1829 1 -15.09146418037305 -35.9060155761886 5.9231629908685095 0 0 0
1831 1 -12.939047840808716 -35.90606601156249 7.167305483314226 0 0 0
1741 1 -10.786622373957263 -35.90613126622149 5.923155235242183 0 0 0
1673 1 -6.4817541542908 -35.90625262417029 5.923175136316186 0 0 0
1740 1 -8.634189888408882 -35.906197885374645 7.167312108970006 0 0 0
1753 1 -8.634189888346691 -35.90619788522731 4.679012108948648 0 0 0
1672 1 -4.329319516702262 -35.90628659197032 4.679042692036423 0 0 0
1675 1 -4.329319516611942 -35.90628659200633 7.167342692110536 0 0 0
1632 1 -2.1768889473777664 -35.9062988079025 5.923212725032434 0 0 0
7248 1 -0.02446294072101838 -35.90629495201576 7.167382965156647 0 0 0
7250 1 -0.024462940598233843 -35.90629495193913 4.679082965137885 0 0 0
1906 1 -17.960076425837556 -33.87273443243445 5.923157361707287 0 0 0
1910 1 -16.52388514355542 -31.83948664931422 5.923104624366185 0 0 0
1958 1 -18.676280541489973 -31.839473214757806 4.678978122190393 0 0 0
1959 1 -18.67628054157288 -31.839473214757017 7.167278122236031 0 0 0
1833 1 -13.65526088972485 -33.872810708444064 5.923130394026865 0 0 0
1905 1 -15.807674195886584 -33.872755673315176 4.678989107753377 0 0 0
1908 1 -15.807674195897874 -33.87275567331496 7.167289107754063 0 0 0
1909 1 -14.371476450167682 -31.83954497585542 7.167245164240089 0 0 0
1922 1 -14.371476450262046 -31.83954497590085 4.678945164353058 0 0 0
1832 1 -11.502835907002392 -33.87288774569465 7.1672820227169955 0 0 0
1849 1 -11.50283590703758 -33.872887745689 4.678982022731075 0 0 0
1850 1 -10.06661641009403 -31.839737033635856 4.678968967657399 0 0 0
1851 1 -12.219052999337968 -31.839634891944005 5.923100364243023 0 0 0
1853 1 -10.066616410059593 -31.839737033717675 7.167268967631625 0 0 0
1754 1 -7.197961294788346 -33.87304117546674 4.679013112522954 0 0 0
1755 1 -9.350401242043416 -33.87297042140409 5.923143473237247 0 0 0
1757 1 -7.197961294745421 -33.873041175566314 7.167313112505694 0 0 0
1759 1 -7.914171383647028 -31.83982892160027 5.9231482798539234 0 0 0
1677 1 -5.045521990901016 -33.8730863071876 5.92318850278588 0 0 0
1695 1 -3.6092869743539695 -31.83991182337283 5.923224224069865 0 0 0
1758 1 -5.761725847223677 -31.839889665901318 7.16733471026394 0 0 0
1777 1 -5.761725847275658 -31.8398896659178 4.679034710135878 0 0 0
1643 1 -0.7406600812078278 -33.873098223267185 5.923244719201231 0 0 0
1676 1 -2.8930879291846714 -33.87310273118242 7.167366740085847 0 0 0
1693 1 -2.8930879291865312 -33.87310273114453 4.679066740077511 0 0 0
1694 1 -1.4568568706321983 -31.83990535468895 4.679112665829501 0 0 0
1697 1 -1.4568568706161236 -31.83990535464283 7.16741266592073 0 0 0
1960 1 -17.24009654274518 -29.8062068902854 7.167204981650713 0 0 0
1964 1 -17.240096542729333 -29.80620689029786 4.6789049815985635 0 0 0
1966 1 -17.956307308629274 -27.772914549184947 5.9229837488893455 0 0 0
1923 1 -12.935274409430912 -29.806369658946945 4.678907590022091 0 0 0
1924 1 -15.08769466334695 -29.80626625130976 5.923045971101684 0 0 0
1926 1 -12.935274409430164 -29.806369658979857 7.167207590025592 0 0 0
1928 1 -13.651500650730982 -27.77308831191282 5.92300051427581 0 0 0
1965 1 -15.80391526963512 -27.772971482907508 4.678827768033224 0 0 0
1968 1 -15.803915269669869 -27.772971483000973 7.1671277680892285 0 0 0
1855 1 -10.78283676371879 -29.806494773247238 5.923087224885958 0 0 0
1927 1 -11.499063930695494 -27.773239310965298 7.167196961265416 0 0 0
1945 1 -11.499063930700952 -27.773239311016457 4.678896961365525 0 0 0
1779 1 -6.477932079054086 -29.80669759880739 5.923182315387615 0 0 0
1854 1 -8.630385927196187 -29.806614475767805 7.167280534248991 0 0 0
1873 1 -8.630385927161228 -29.80661447583992 4.678980534160244 0 0 0
1874 1 -7.194142398345097 -27.773510893828195 4.6790329860349855 0 0 0
1875 1 -9.34660710652952 -27.77339517814974 5.9231102245333656 0 0 0
1877 1 -7.194142398425485 -27.773510893834846 7.167332986135227 0 0 0
1778 1 -4.325486362754608 -29.806728317615587 4.6790871340858375 0 0 0
1781 1 -4.32548636281982 -29.80672831764082 7.167387134123785 0 0 0
1783 1 -5.0416867241001855 -27.773555600114417 5.923258237686196 0 0 0
1698 1 -2.1730533379443058 -29.806717862753374 5.923289592844222 0 0 0
1715 1 -0.736825152977939 -27.773501921027368 5.923389454169557 0 0 0
1782 1 -2.8892496158010745 -27.77353842552097 7.167479284073985 0 0 0
1801 1 -2.889249615890652 -27.77353842564925 4.679179284112324 0 0 0
7296 1 -0.020628357814563538 -29.806693666465527 7.16748441804996 0 0 0
7298 1 -0.020628357733027146 -29.806693666612603 4.679184418092969 0 0 0
2166 1 -16.520137205950583 -25.739656976151384 -4.030315894256029 0 0 0
2182 1 -16.520137205976493 -25.739656976147547 -6.518615894114617 0 0 0
2249 1 -18.6725152684096 -25.73960741013071 -5.274468063242211 0 0 0
2183 1 -14.36773145309739 -25.739786617979632 -5.274424312846602 0 0 0
2088 1 -10.062837851046327 -25.74016615013456 -5.274261430194838 0 0 0
2089 1 -12.215299467090219 -25.73996448105887 -4.030202593658549 0 0 0
2090 1 -12.215299467079564 -25.73996448111029 -6.518502593765083 0 0 0
2022 1 -7.910359560855804 -25.74032955616338 -4.030010695163044 0 0 0
2037 1 -7.910359560914925 -25.740329556171787 -6.518310695110031 0 0 0
1997 1 -3.6054458917813417 -25.74037189683644 -4.029813338423482 0 0 0
1998 1 -3.605445891821362 -25.74037189680148 -6.518113338482353 0 0 0
2038 1 -5.757889283793295 -25.740398579446705 -5.274058772749453 0 0 0
1996 1 -1.4530241057575413 -25.740312055781036 -5.273882556556941 0 0 0
2267 1 -17.236358008745402 -23.706317901357078 -5.274592788793839 0 0 0
2269 1 -17.952573169662422 -21.67294688767995 -4.030611290743519 0 0 0
2270 1 -17.952573169687298 -21.672946887711174 -6.518911290847983 0 0 0
2184 1 -12.931544028869117 -23.70666188887904 -5.274410801044047 0 0 0
2185 1 -15.083964677797224 -23.70646048939636 -4.030369892906 0 0 0
2186 1 -15.083964677758178 -23.70646048934197 -6.5186698930133815 0 0 0
2190 1 -13.64779566283811 -21.67332087658498 -4.030323933724256 0 0 0
2206 1 -13.64779566284861 -21.673320876541766 -6.5186239335903835 0 0 0
2268 1 -15.800194415907143 -21.673107521614412 -5.274637090865176 0 0 0
2094 1 -10.779081574775446 -23.70691889999525 -4.030131702559476 0 0 0
2110 1 -10.779081574772329 -23.706918900024043 -6.518431702472021 0 0 0
2207 1 -11.495341179024829 -21.67363944857513 -5.274295458206651 0 0 0
2040 1 -6.474096254733798 -23.707263818368258 -4.029859376735557 0 0 0
2041 1 -6.47409625479538 -23.70726381826387 -6.5181593768658255 0 0 0
2111 1 -8.626587721454921 -23.707151403210897 -5.274145034248047 0 0 0
2112 1 -7.190311486411186 -21.674158653785508 -5.273938957988695 0 0 0
2113 1 -9.342832446337706 -21.67396943346279 -4.029965342057129 0 0 0
2114 1 -9.34283244635506 -21.6739694333718 -6.518265342215536 0 0 0
2039 1 -4.321642127830406 -23.70722720140811 -5.27388226225243 0 0 0
2045 1 -5.037837117307735 -21.674120878731337 -4.029620961300307 0 0 0
2055 1 -5.0378371174095555 -21.67412087873115 -6.517920961086692 0 0 0
2001 1 -2.169227420369921 -23.70712391492546 -4.0296232720270755 0 0 0
2004 1 -2.1692274203775583 -23.70712391496268 -6.517923271916245 0 0 0
2005 1 -0.01680542228996093 -23.70708527826019 -5.273695601157756 0 0 0
2006 1 -0.7330272879769053 -21.67387326361715 -4.0293621894233915 0 0 0
2007 1 -0.733027287978566 -21.673873263649106 -6.517662189637989 0 0 0
2056 1 -2.8854379007430677 -21.673938044807194 -5.273621998267805 0 0 0
2274 1 -16.516407919110634 -19.639730385307463 -4.03062100796488 0 0 0
2288 1 -16.51640791917815 -19.639730385319062 -6.5189210077899595 0 0 0
2321 1 -18.668775754340206 -19.639530024958756 -5.274978171565195 0 0 0
2333 1 -17.23258013694412 -17.606343280148494 -5.274903508134724 0 0 0
2289 1 -14.364046570749467 -19.6399292248916 -5.274532139823207 0 0 0
2290 1 -12.92790073192963 -17.606887848918298 -5.274264090307921 0 0 0
2291 1 -15.080278166097692 -17.60647598170658 -4.030414170639055 0 0 0
2292 1 -15.080278166039129 -17.606475981629437 -6.518714170738756 0 0 0
2208 1 -10.059099763238521 -19.640767600808474 -5.2740669948280585 0 0 0
2209 1 -12.211616768325248 -19.64030626112055 -4.0301440106421635 0 0 0
2210 1 -12.211616768280933 -19.640306261125474 -6.518444010733889 0 0 0
2214 1 -10.77539285255391 -17.607516053428096 -4.029848897655625 0 0 0
2224 1 -10.775392852614088 -17.607516053330876 -6.518148897501077 0 0 0
2118 1 -7.906541705199825 -19.641087217840496 -4.029694958908242 0 0 0
2132 1 -7.9065417052659885 -19.6410872178006 -6.517994958726045 0 0 0
2135 1 -6.47019741041183 -17.608172940512052 -4.029291357983962 0 0 0
2136 1 -6.470197410430244 -17.608172940533866 -6.51759135816417 0 0 0
2225 1 -8.622799484642185 -17.608038556860063 -5.273732068396875 0 0 0
2058 1 -3.601657239560794 -19.64075774501328 -4.0292653165559065 0 0 0
2059 1 -3.6016572395734543 -19.640757744916964 -6.517565316724938 0 0 0
2133 1 -5.7540263720647085 -19.641083804681458 -5.273624069431628 0 0 0
2134 1 -4.31788148926135 -17.607595910301672 -5.273136525052096 0 0 0
2057 1 -1.449278184899919 -19.64063055658752 -5.273252300944523 0 0 0
2062 1 -2.1655792058926626 -17.60732011545227 -4.02873002723065 0 0 0
2065 1 -2.1655792058063783 -17.607320115421967 -6.517030027039966 0 0 0
7687 1 -0.013079513879738143 -17.607556282516306 -5.272754872268378 0 0 0
2335 1 -17.94866317920138 -15.572984883040093 -4.030838168359703 0 0 0
2336 1 -17.948663179188806 -15.572984883052708 -6.519138168425038 0 0 0
2340 1 -16.512476525467275 -13.539374254516167 -4.0302027540794825 0 0 0
2342 1 -16.512476525414492 -13.539374254478505 -6.518502753998921 0 0 0
2348 1 -18.664577893617185 -13.539755164617178 -5.274919532219436 0 0 0
2296 1 -13.644172737482522 -15.57334261244581 -4.030037989528945 0 0 0
2302 1 -13.644172737453577 -15.57334261236288 -6.518337989450151 0 0 0
2334 1 -15.796450518768685 -15.57295518248373 -5.274528828518316 0 0 0
2343 1 -14.360385003963938 -13.539604192320887 -5.274047363540153 0 0 0
2303 1 -11.491699802096475 -15.574168461378836 -5.273922731090969 0 0 0
2304 1 -10.055538953567401 -13.541655285756063 -5.273582476398303 0 0 0
2305 1 -12.207975540698687 -13.540693707585259 -4.029735653073619 0 0 0
2306 1 -12.207975540840927 -13.540693707614347 -6.518035653114439 0 0 0
2226 1 -7.186321586938809 -15.575492210344065 -5.273236347548329 0 0 0
2227 1 -9.339112761008908 -15.574956502483845 -4.029473409346468 0 0 0
2228 1 -9.33911276096941 -15.574956502498802 -6.5177734094016495 0 0 0
2232 1 -7.902350627343856 -13.543231364577634 -4.028904728261769 0 0 0
2234 1 -7.902350627224932 -13.543231364532186 -6.517204728130089 0 0 0
2140 1 -5.034086876338409 -15.574491183331956 -4.028614056212343 0 0 0
2146 1 -5.0340868764419735 -15.57449118338383 -6.516914056055674 0 0 0
2149 1 -3.5984908598925585 -13.540093382438796 -4.027371056633748 0 0 0
2150 1 -3.598490859947199 -13.540093382534167 -6.51567105687979 0 0 0
2235 1 -5.750195601604367 -13.541556922423355 -5.272265661805761 0 0 0
2066 1 -0.7294171438905818 -15.57436926848702 -4.027953143874058 0 0 0
2067 1 -0.7294171439230054 -15.574369268495182 -6.516253143955822 0 0 0
2147 1 -2.881965432245247 -15.57386591245658 -5.272336620890844 0 0 0
2148 1 -1.4458344851109477 -13.54120263899275 -5.271067871477211 0 0 0
2165 1 -16.52013720600066 -25.739656976166334 -1.5420158941617805 0 0 0
2239 1 -18.672515268415285 -25.739607410092123 -0.2978680632664191 0 0 0
2250 1 -18.67251526846862 -25.739607410227816 -2.7861680632749084 0 0 0
2164 1 -14.367731453059788 -25.739786617855998 -2.786124312902727 0 0 0
2167 1 -14.367731453060296 -25.73978661798562 -0.29782431280888605 0 0 0
2074 1 -10.062837851066961 -25.740166150153197 -0.29766143015940183 0 0 0
2076 1 -12.215299467039271 -25.739964481071496 -1.5419025938090554 0 0 0
2091 1 -10.062837851165307 -25.74016615015068 -2.785961430160138 0 0 0
2021 1 -7.910359560935259 -25.74032955630696 -1.5417106951557362 0 0 0
1989 1 -3.6054458917490946 -25.740371896801218 -1.5415133385393016 0 0 0
2020 1 -5.757889283715998 -25.740398579387392 -2.785758772807561 0 0 0
2023 1 -5.757889283793623 -25.740398579456915 -0.2974587727316693 0 0 0
1987 1 -1.4530241057091082 -25.740312055883898 -0.2972825565436567 0 0 0
1999 1 -1.4530241058462385 -25.740312055921297 -2.7855825565811814 0 0 0
2251 1 -17.236358008697056 -23.7063179013843 -2.786292788884155 0 0 0
2252 1 -17.236358008699224 -23.7063179014072 -0.29799278877409957 0 0 0
2255 1 -17.95257316965398 -21.672946887613424 -1.542311290809646 0 0 0
2168 1 -12.9315440288627 -23.70666188879693 -0.29781080101170104 0 0 0
2170 1 -15.083964677713642 -23.706460489394253 -1.542069892919236 0 0 0
2187 1 -12.93154402889895 -23.70666188894774 -2.786110801004239 0 0 0
2189 1 -13.647795662839124 -21.673320876522222 -1.5420239336014205 0 0 0
2253 1 -15.800194415915092 -21.673107521615368 -0.29803709085176716 0 0 0
2271 1 -15.800194416005972 -21.673107521722716 -2.78633709083287 0 0 0
2093 1 -10.779081574754482 -23.706918900063286 -1.5418317024934085 0 0 0
2188 1 -11.495341178998578 -21.673639448420897 -2.7859954582285744 0 0 0
2191 1 -11.495341179008793 -21.673639448530487 -0.2976954581334546 0 0 0
2026 1 -6.474096254717477 -23.70726381830923 -1.5415593768981388 0 0 0
2092 1 -8.626587721481295 -23.70715140306347 -2.785845034251221 0 0 0
2095 1 -8.626587721565596 -23.70715140313265 -0.2975450341931964 0 0 0
2096 1 -7.190311486400046 -21.674158653682213 -0.2973389579647927 0 0 0
2098 1 -9.3428324462867 -21.673969433447894 -1.5416653421972364 0 0 0
2115 1 -7.190311486491451 -21.674158653891883 -2.7856389579881897 0 0 0
2024 1 -4.321642127769811 -23.707227201370884 -0.2972822622550888 0 0 0
2042 1 -4.32164212785551 -23.707227201475277 -2.7855822622807267 0 0 0
2044 1 -5.037837117330896 -21.674120878768374 -1.5413209611420549 0 0 0
2000 1 -2.16922742035261 -23.70712391492292 -1.541323271934997 0 0 0
7620 1 -0.016805422225912234 -23.707085278162694 -2.7853956011967425 0 0 0
7621 1 -0.01680542231639479 -23.707085278300195 -0.2970956011586227 0 0 0
2003 1 -0.7330272880169942 -21.673873263614418 -1.541062189598349 0 0 0
2043 1 -2.88543790068109 -21.673938044671416 -2.7853219982816295 0 0 0
2046 1 -2.8854379007829265 -21.67393804479304 -0.2970219982634987 0 0 0
2273 1 -16.51640791918231 -19.63973038538861 -1.542321007805448 0 0 0
2311 1 -18.668775754377705 -19.639530024932192 -0.2983781715403094 0 0 0
2322 1 -18.66877575452431 -19.63953002496704 -2.78667817156599 0 0 0
2323 1 -17.23258013698816 -17.60634328008135 -2.7866035081336427 0 0 0
2324 1 -17.23258013703318 -17.60634328015853 -0.29830350811951745 0 0 0
2272 1 -14.364046570623902 -19.639929224726625 -2.7862321398450556 0 0 0
2275 1 -14.364046570807812 -19.63992922488439 -0.2979321397798227 0 0 0
2276 1 -12.927900731936193 -17.606887848890683 -0.29766409026914253 0 0 0
2278 1 -15.080278166050748 -17.60647598167628 -1.5421141707920805 0 0 0
2293 1 -12.92790073201555 -17.60688784897301 -2.7859640903069294 0 0 0
2192 1 -10.05909976315648 -19.640767600789133 -0.29746699481146116 0 0 0
2194 1 -12.211616768231027 -19.64030626114036 -1.5418440106826619 0 0 0
2211 1 -10.05909976331242 -19.64076760082182 -2.785766994747517 0 0 0
2213 1 -10.775392852549576 -17.607516053336884 -1.5415488975023324 0 0 0
2117 1 -7.9065417052338045 -19.64108721778932 -1.541394958698856 0 0 0
2122 1 -6.470197410399247 -17.60817294054907 -1.5409913582259538 0 0 0
2212 1 -8.622799484607176 -17.60803855676884 -2.785432068396032 0 0 0
2215 1 -8.622799484610649 -17.608038556893355 -0.29713206836320905 0 0 0
2049 1 -3.601657239496444 -19.64075774503281 -1.540965316792463 0 0 0
2116 1 -5.754026372007141 -19.641083804571064 -2.7853240694156858 0 0 0
2119 1 -5.754026372057224 -19.64108380468995 -0.2970240693786213 0 0 0
2120 1 -4.317881489222423 -17.607595910336205 -0.2965365250099299 0 0 0
2137 1 -4.317881489332026 -17.60759591041694 -2.7848365250815985 0 0 0
2047 1 -1.4492781849070118 -19.640630556598364 -0.2966523008676885 0 0 0
2060 1 -1.4492781850231866 -19.6406305567395 -2.7849523008924724 0 0 0
2061 1 -2.165579205894068 -17.607320115439116 -1.540430027146944 0 0 0
7679 1 -0.01307951378493705 -17.60755628237614 -2.7844548722481646 0 0 0
7680 1 -0.01307951386863996 -17.607556282517393 -0.29615487220525855 0 0 0
2327 1 -17.94866317918796 -15.572984883037682 -1.542538168419656 0 0 0
2339 1 -16.51247652535618 -13.539374254508132 -1.5419027539863226 0 0 0
2346 1 -18.66457789361349 -13.539755164596803 -0.29831953213196344 0 0 0
2349 1 -18.664577893651323 -13.53975516464135 -2.7866195321656577 0 0 0
2295 1 -13.6441727374973 -15.573342612415287 -1.541737989478331 0 0 0
2325 1 -15.796450518866413 -15.572955182474276 -0.29792882846314733 0 0 0
2337 1 -15.796450518841299 -15.572955182445654 -2.78622882849203 0 0 0
2338 1 -14.360385003838108 -13.539604192201342 -2.7857473635140946 0 0 0
2341 1 -14.360385003926805 -13.539604192291138 -0.2974473635311927 0 0 0
2294 1 -11.491699802079685 -15.574168461306007 -2.785622731080219 0 0 0
2297 1 -11.491699802158502 -15.5741684613325 -0.2973227311217714 0 0 0
2298 1 -10.055538953591357 -13.541655285778747 -0.2969824763254358 0 0 0
2300 1 -12.207975540795898 -13.54069370765424 -1.541435653137418 0 0 0
2307 1 -10.05553895368037 -13.541655285872352 -2.7852824764134874 0 0 0
2216 1 -7.186321586964873 -15.575492210243297 -0.2966363475625328 0 0 0
2218 1 -9.339112761016388 -15.574956502477317 -1.54117340952653 0 0 0
2229 1 -7.186321587061014 -15.575492210421038 -2.7849363475637423 0 0 0
2231 1 -7.90235062726584 -13.543231364513609 -1.5406047280892128 0 0 0
2139 1 -5.034086876327682 -15.574491183320061 -1.5403140560163018 0 0 0
2144 1 -3.5984908598678778 -13.540093382538368 -1.5390710568960675 0 0 0
2230 1 -5.750195601454175 -13.541556922274673 -2.7839656617092556 0 0 0
2233 1 -5.750195601596934 -13.541556922373791 -0.29566566176109293 0 0 0
2064 1 -0.7294171439050583 -15.57436926849891 -1.5396531440394412 0 0 0
2138 1 -2.881965432162564 -15.573865912286252 -2.784036620918214 0 0 0
2141 1 -2.8819654322204533 -15.573865912496528 -0.2957366208856194 0 0 0
2142 1 -1.4458344851452671 -13.541202639001964 -0.2944678713805412 0 0 0
2151 1 -1.4458344852982155 -13.541202639111876 -2.7827678715307402 0 0 0
2155 1 -16.520137205982742 -25.73965697617546 3.4345841058207096 0 0 0
2156 1 -16.520137205941143 -25.739656976109682 0.9462841057822756 0 0 0
2240 1 -18.67251526847389 -25.73960741017908 2.190431936838283 0 0 0
2154 1 -14.367731453053306 -25.73978661791868 2.1904756871184667 0 0 0
2070 1 -12.215299467076429 -25.739964481016596 3.434697406284415 0 0 0
2075 1 -12.21529946709881 -25.73996448113986 0.946397406332739 0 0 0
2077 1 -10.06283785110322 -25.740166150230085 2.190638569887592 0 0 0
2011 1 -7.910359560890962 -25.74032955621997 3.434889304925843 0 0 0
2012 1 -7.910359560898223 -25.7403295561749 0.9465893048007658 0 0 0
1984 1 -3.60544589177125 -25.740371896848846 3.43508666149678 0 0 0
1988 1 -3.6054458918260686 -25.74037189681238 0.9467866616386773 0 0 0
2010 1 -5.757889283736984 -25.740398579387676 2.190841227255329 0 0 0
1990 1 -1.453024105806285 -25.740312055882058 2.1910174434871057 0 0 0
2241 1 -17.23635800869628 -23.706317901296934 2.1903072111426662 0 0 0
2245 1 -17.952573169593965 -21.67294688764875 3.434288709163073 0 0 0
2254 1 -17.952573169679564 -21.672946887724628 0.9459887092697955 0 0 0
2160 1 -15.083964677770364 -23.706460489333885 3.4345301069929794 0 0 0
2169 1 -15.08396467777714 -23.70646048937653 0.9462301070800692 0 0 0
2171 1 -12.931544028931167 -23.70666188896385 2.1904891990129003 0 0 0
2173 1 -13.647795662850355 -21.67332087659864 3.4345760664072755 0 0 0
2174 1 -13.647795662833984 -21.673320876506104 0.946276066362444 0 0 0
2256 1 -15.800194415946134 -21.673107521685544 2.1902629091668784 0 0 0
2079 1 -10.779081574801369 -23.706918900053438 3.4347682975674365 0 0 0
2080 1 -10.779081574732693 -23.706918899988455 0.9464682974481223 0 0 0
2172 1 -11.495341178957068 -21.673639448459532 2.1906045418084283 0 0 0
2016 1 -6.474096254705941 -23.707263818387684 3.435040623148669 0 0 0
2025 1 -6.474096254811664 -23.707263818294578 0.94674062323794 0 0 0
2078 1 -8.626587721371292 -23.70715140310628 2.190754965738525 0 0 0
2084 1 -9.342832446302703 -21.673969433421256 3.434934657815324 0 0 0
2097 1 -9.34283244638761 -21.67396943339906 0.9466346579151749 0 0 0
2099 1 -7.190311486482059 -21.67415865389867 2.190961042050298 0 0 0
2027 1 -4.321642127880723 -23.707227201510754 2.1910177377846054 0 0 0
2029 1 -5.037837117308427 -21.67412087875391 3.43527903884377 0 0 0
2030 1 -5.037837117403973 -21.674120878724104 0.9469790387744236 0 0 0
1991 1 -2.1692274203773607 -23.707123914963635 3.4352767281133407 0 0 0
1992 1 -2.1692274203372746 -23.70712391496738 0.9469767280010819 0 0 0
7615 1 -0.016805422231096198 -23.707085278174084 2.191204398813104 0 0 0
1995 1 -0.7330272879782912 -21.673873263587065 3.4355378104175527 0 0 0
2002 1 -0.7330272880135204 -21.67387326365672 0.9472378105137887 0 0 0
2028 1 -2.8854379006643396 -21.67393804470195 2.191278001700006 0 0 0
2258 1 -16.51640791911733 -19.63973038533404 3.434278992148697 0 0 0
2259 1 -16.516407919130792 -19.639730385278764 0.9459789921278319 0 0 0
2312 1 -18.668775754372703 -19.639530025009748 2.189921828473962 0 0 0
2313 1 -17.232580136923 -17.606343280089376 2.189996491880839 0 0 0
2257 1 -14.36404657066625 -19.639929224771922 2.1903678601504737 0 0 0
2263 1 -15.080278166096324 -17.606475981668346 3.434485829260105 0 0 0
2277 1 -15.080278166075345 -17.60647598163641 0.9461858293787634 0 0 0
2279 1 -12.927900732014145 -17.606887849019735 2.1906359096784467 0 0 0
2178 1 -12.211616768317219 -19.640306261066865 3.4347559892639263 0 0 0
2193 1 -12.211616768286177 -19.640306261137464 0.9464559894347202 0 0 0
2195 1 -10.059099763328419 -19.640767600928935 2.1908330052046803 0 0 0
2197 1 -10.775392852547416 -17.607516053433496 3.4350511024744352 0 0 0
2198 1 -10.77539285261329 -17.607516053351873 0.9467511023504094 0 0 0
2101 1 -7.906541705197342 -19.641087217857976 3.4352050412774395 0 0 0
2102 1 -7.906541705263195 -19.641087217762603 0.9469050411512703 0 0 0
2106 1 -6.470197410420425 -17.60817294050424 3.4356086418423932 0 0 0
2121 1 -6.4701974104509565 -17.60817294054481 0.9473086420065568 0 0 0
2196 1 -8.622799484572935 -17.608038556749786 2.1911679316146992 0 0 0
2034 1 -3.601657239564351 -19.640757744990253 3.435634683301979 0 0 0
2048 1 -3.601657239592687 -19.6407577449437 0.9473346834311874 0 0 0
2100 1 -5.754026371970901 -19.641083804543115 2.1912759305585183 0 0 0
2123 1 -4.317881489368923 -17.60759591043559 2.1917634749358714 0 0 0
2050 1 -1.4492781850043235 -19.640630556704064 2.191647699065988 0 0 0
2051 1 -2.1655792058864707 -17.60732011543909 3.4361699729599313 0 0 0
2052 1 -2.165579205823015 -17.607320115448065 0.9478699727587095 0 0 0
7673 1 -0.013079513790678765 -17.607556282385655 2.192145127713406 0 0 0
2317 1 -17.948663179175448 -15.572984883051372 3.4340618316091254 0 0 0
2326 1 -17.948663179180368 -15.572984883058714 0.945761831638241 0 0 0
2330 1 -16.512476525409237 -13.539374254496078 3.4346972459921723 0 0 0
2331 1 -16.512476525433314 -13.539374254499085 0.9463972459429486 0 0 0
2347 1 -18.664577893645237 -13.539755164681157 2.189980467767716 0 0 0
2281 1 -13.644172737476561 -15.573342612457836 3.434862010577661 0 0 0
2282 1 -13.644172737483236 -15.57334261237789 0.946562010453045 0 0 0
2328 1 -15.796450518823123 -15.572955182557259 2.1903711715197676 0 0 0
2329 1 -14.360385003890585 -13.539604192275648 2.190852636474688 0 0 0
2280 1 -11.491699802023856 -15.574168461295754 2.1909772689033162 0 0 0
2286 1 -12.207975540710386 -13.540693707644067 3.435164346845124 0 0 0
2299 1 -12.207975540805874 -13.54069370759286 0.9468643470169048 0 0 0
2301 1 -10.055538953660205 -13.54165528585594 2.191317523572569 0 0 0
2202 1 -9.339112761008852 -15.574956502505103 3.4354265904784556 0 0 0
2217 1 -9.33911276095097 -15.574956502480674 0.9471265907276625 0 0 0
2219 1 -7.186321587030163 -15.575492210474088 2.1916636524268247 0 0 0
2221 1 -7.902350627299805 -13.5432313645046 3.435995271901434 0 0 0
2222 1 -7.902350627270533 -13.543231364581274 0.9476952717272382 0 0 0
2125 1 -5.0340868763229505 -15.574491183331485 3.4362859439898403 0 0 0
2126 1 -5.034086876444534 -15.574491183413068 0.9479859438061501 0 0 0
2130 1 -3.598490859926625 -13.540093382552667 3.4375289431730627 0 0 0
2143 1 -3.5984908598940826 -13.540093382464125 0.9492289433579306 0 0 0
2220 1 -5.750195601478146 -13.541556922288317 2.1926343382942126 0 0 0
2054 1 -0.7294171439146326 -15.574369268523077 3.4369468559599303 0 0 0
2063 1 -0.7294171438889486 -15.574369268485114 0.9486468562073357 0 0 0
2124 1 -2.88196543212222 -15.573865912303955 2.192563379128037 0 0 0
2145 1 -1.4458344852479144 -13.541202639179325 2.193832128430987 0 0 0
2153 1 -16.520137205974546 -25.739656976125616 5.922884105727327 0 0 0
2236 1 -18.672515268439277 -25.739607410147165 4.678731936683822 0 0 0
2237 1 -18.672515268453587 -25.739607410168627 7.167031936719429 0 0 0
2152 1 -14.367731453039 -25.73978661791737 7.167075687122632 0 0 0
2157 1 -14.367731453138871 -25.739786617915488 4.678775687144695 0 0 0
2068 1 -10.062837851120632 -25.740166150088157 4.678938569812386 0 0 0
2069 1 -12.215299467094649 -25.73996448110242 5.922997406262716 0 0 0
2071 1 -10.062837851134814 -25.740166150243073 7.1672385698429455 0 0 0
2009 1 -7.910359560947942 -25.74032955627369 5.923189304741583 0 0 0
1983 1 -3.6054458917540244 -25.740371896862325 5.923386661546552 0 0 0
2008 1 -5.757889283731787 -25.740398579387197 7.167441227221571 0 0 0
2013 1 -5.757889283775528 -25.740398579502504 4.679141227231259 0 0 0
1982 1 -1.4530241057942488 -25.740312055882487 4.679317443409357 0 0 0
1985 1 -1.4530241057821418 -25.740312055933646 7.167617443463442 0 0 0
2238 1 -17.23635800864549 -23.70631790135192 7.166907211160373 0 0 0
2242 1 -17.23635800873303 -23.706317901459094 4.678607211139108 0 0 0
2244 1 -17.95257316965121 -21.672946887678513 5.922588709252232 0 0 0
2158 1 -12.931544028861062 -23.706661888869103 4.678789198919381 0 0 0
2159 1 -15.083964677748217 -23.70646048939719 5.922830107148 0 0 0
2161 1 -12.931544028929302 -23.70666188889588 7.167089199025668 0 0 0
2163 1 -13.64779566281649 -21.673320876492568 5.92287606627243 0 0 0
2243 1 -15.80019441591843 -21.673107521636812 4.678562909142455 0 0 0
2246 1 -15.800194415994984 -21.673107521691502 7.166862909197939 0 0 0
2073 1 -10.779081574740374 -23.706918900049796 5.923068297365375 0 0 0
2162 1 -11.495341178915014 -21.673639448421877 7.167204541764166 0 0 0
2175 1 -11.495341179059439 -21.67363944853124 4.678904541826368 0 0 0
2015 1 -6.474096254736945 -23.707263818351446 5.923340623214328 0 0 0
2072 1 -8.626587721511093 -23.70715140303164 7.167354965743023 0 0 0
2081 1 -8.626587721552834 -23.707151403157155 4.67905496578683 0 0 0
2082 1 -7.1903114863950535 -21.67415865381079 4.679261041971329 0 0 0
2083 1 -9.34283244630226 -21.673969433474646 5.923234657936807 0 0 0
2085 1 -7.190311486476456 -21.67415865381772 7.167561042044762 0 0 0
2014 1 -4.321642127809296 -23.70722720139378 4.679317737696249 0 0 0
2017 1 -4.321642127836068 -23.70722720147069 7.167617737754726 0 0 0
2019 1 -5.037837117310978 -21.67412087875275 5.923579038705996 0 0 0
1986 1 -2.169227420335278 -23.707123914904706 5.923576727927488 0 0 0
1993 1 -0.016805422273121696 -23.70708527824318 4.679504398816237 0 0 0
7614 1 -0.016805422248382065 -23.707085278215835 7.167804398833402 0 0 0
1994 1 -0.7330272880253287 -21.6738732636503 5.923837810515409 0 0 0
2018 1 -2.8854379006905995 -21.673938044673676 7.167878001715882 0 0 0
2031 1 -2.8854379007726845 -21.673938044769084 4.6795780017369735 0 0 0
2248 1 -16.51640791914689 -19.639730385370534 5.922578992087149 0 0 0
2308 1 -18.66877575447005 -19.63953002490964 4.6782218284077866 0 0 0
2309 1 -18.668775754406806 -19.639530025017077 7.166521828494309 0 0 0
2310 1 -17.2325801369592 -17.60634328009415 7.166596491856526 0 0 0
2314 1 -17.232580137024936 -17.606343280144035 4.678296491895683 0 0 0
2247 1 -14.364046570758198 -19.63992922478085 7.166967860155298 0 0 0
2260 1 -14.3640465707037 -19.63992922481053 4.678667860173733 0 0 0
2261 1 -12.92790073194963 -17.606887848852878 4.678935909693976 0 0 0
2262 1 -15.080278166036292 -17.606475981692814 5.922785829306933 0 0 0
2264 1 -12.927900731994788 -17.606887848979397 7.167235909753105 0 0 0
2176 1 -10.059099763227804 -19.64076760072913 4.679133005218567 0 0 0
2177 1 -12.211616768283882 -19.64030626113498 5.923055989423982 0 0 0
2179 1 -10.059099763246639 -19.640767600884026 7.167433005213777 0 0 0
2181 1 -10.775392852551022 -17.607516053350796 5.923351102334741 0 0 0
2087 1 -7.906541705201457 -19.641087217774547 5.923505041115077 0 0 0
2105 1 -6.470197410424696 -17.60817294054396 5.923908641940158 0 0 0
2180 1 -8.622799484525807 -17.60803855677245 7.1677679316268526 0 0 0
2199 1 -8.62279948469153 -17.60803855688271 4.67946793161536 0 0 0
2033 1 -3.6016572394978215 -19.640757745024196 5.923934683353325 0 0 0
2086 1 -5.754026371961893 -19.641083804563845 7.167875930577433 0 0 0
2103 1 -5.754026372089202 -19.641083804722655 4.679575930596792 0 0 0
2104 1 -4.317881489238163 -17.607595910309662 4.680063474913659 0 0 0
2107 1 -4.317881489334579 -17.607595910466134 7.168363475003631 0 0 0
2032 1 -1.4492781849432852 -19.64063055660046 4.679947699102625 0 0 0
2035 1 -1.4492781849800207 -19.640630556730805 7.168247699121667 0 0 0
2036 1 -2.1655792058982666 -17.60732011543817 5.924469972670167 0 0 0
7672 1 -0.013079513767588839 -17.607556282350465 7.168745127799333 0 0 0
7674 1 -0.013079513889165584 -17.607556282486385 4.680445127754116 0 0 0
2316 1 -17.94866317916377 -15.572984883007368 5.922361831657269 0 0 0
2320 1 -16.512476525357602 -13.539374254538982 5.922997245949749 0 0 0
2344 1 -18.664577893609522 -13.53975516461735 4.678280467895905 0 0 0
2345 1 -18.66457789364715 -13.539755164623637 7.166580467806627 0 0 0
2266 1 -13.644172737472113 -15.573342612409492 5.923162010432027 0 0 0
2315 1 -15.796450518784585 -15.57295518237245 4.678671171533439 0 0 0
2318 1 -15.796450518890607 -15.57295518256225 7.1669711715363515 0 0 0
2319 1 -14.360385003883426 -13.539604192235501 7.167452636509487 0 0 0
2332 1 -14.360385003891523 -13.539604192277203 4.679152636431394 0 0 0
2265 1 -11.49169980205898 -15.574168461232558 7.167577268891693 0 0 0
2283 1 -11.491699802127128 -15.57416846144104 4.679277268902079 0 0 0
2284 1 -10.05553895360098 -13.541655285789739 4.679617523639263 0 0 0
2285 1 -12.207975540795495 -13.540693707650224 5.923464346955959 0 0 0
2287 1 -10.055538953678505 -13.541655285892022 7.167917523617105 0 0 0
2200 1 -7.186321586960985 -15.575492210249951 4.679963652447691 0 0 0
2201 1 -9.339112760979877 -15.574956502468037 5.923726590617656 0 0 0
2203 1 -7.186321587071735 -15.575492210355296 7.1682636524134615 0 0 0
2205 1 -7.902350627311274 -13.54323136454153 5.924295271747215 0 0 0
2109 1 -5.034086876343642 -15.574491183365351 5.9245859438139625 0 0 0
2129 1 -3.5984908598070096 -13.54009338250903 5.925828943326833 0 0 0
2204 1 -5.750195601472489 -13.541556922237039 7.1692343383203285 0 0 0
2223 1 -5.750195601542867 -13.541556922405027 4.6809343382313 0 0 0
2053 1 -0.7294171438954871 -15.57436926844165 5.925246856137827 0 0 0
2108 1 -2.8819654321167043 -15.573865912338796 7.169163379173156 0 0 0
2127 1 -2.8819654322642343 -15.573865912480203 4.680863379050385 0 0 0
2128 1 -1.445834485144548 -13.541202638955308 4.682132128560212 0 0 0
2131 1 -1.4458344852988094 -13.541202639159003 7.17043212854528 0 0 0
2582 1 -17.22820841716012 -11.505814717561453 -5.273919813852984 0 0 0
2506 1 -15.07642365795274 -11.505525954193901 -4.029684528664085 0 0 0
2507 1 -15.076423658025124 -11.505525954271233 -6.517984528660601 0 0 0
2505 1 -12.924035734595037 -11.50714146526281 -5.274024819459474 0 0 0
2427 1 -10.772269036261571 -11.507682563436383 -4.02960088786692 0 0 0
2443 1 -10.772269036203186 -11.50768256344782 -6.517900887719447 0 0 0
2444 1 -8.618186526683964 -11.511671478090767 -5.273016213519316 0 0 0
2385 1 -6.4660249215676515 -11.509134744543926 -4.027427170076009 0 0 0
2386 1 -6.4660249216774845 -11.509134744662756 -6.515727170208849 0 0 0
2384 1 -4.31524992044531 -11.505592728871296 -5.27025432524141 0 0 0
2358 1 -2.1622637824540627 -11.508169174379386 -4.0251993057870195 0 0 0
2361 1 -2.162263782406069 -11.508169174221063 -6.5134993055642285 0 0 0
7967 1 -0.010282836155803284 -11.507679026954193 -5.269701695835486 0 0 0
2584 1 -17.943211624712703 -9.472401367591543 -4.028945021164337 0 0 0
2585 1 -17.94321162479255 -9.472401367599963 -6.5172450211820045 0 0 0
2589 1 -16.507428482279295 -7.4338661398207755 -4.029106770236387 0 0 0
2603 1 -16.507428482165555 -7.433866139782949 -6.517406770341585 0 0 0
2636 1 -18.65741204068843 -7.440322929573883 -5.271948018823783 0 0 0
2511 1 -13.639194839705736 -9.473930104272368 -4.030551776335194 0 0 0
2527 1 -13.63919483961718 -9.473930104277803 -6.518851776327369 0 0 0
2583 1 -15.79224255006923 -9.470851855186305 -5.273568660618338 0 0 0
2604 1 -14.352167614283484 -7.443302836601042 -5.276850580634169 0 0 0
2528 1 -11.489594852577316 -9.471758928653438 -5.2743951396269 0 0 0
2529 1 -10.04992611395864 -7.452355690066119 -5.275107628757362 0 0 0
2530 1 -12.20731582803269 -7.430656169572658 -4.03173834937994 0 0 0
2531 1 -12.207315828118427 -7.430656169590154 -6.520038349286822 0 0 0
2445 1 -7.180987319778067 -9.478019929143828 -5.270524391084932 0 0 0
2446 1 -9.333996335520675 -9.481413507490881 -4.029275195213998 0 0 0
2447 1 -9.333996335644125 -9.48141350756995 -6.517575195365572 0 0 0
2451 1 -7.8949033683158 -7.451259769803761 -4.0243992146405905 0 0 0
2465 1 -7.894903368250408 -7.451259769538209 -6.512699214671703 0 0 0
2390 1 -5.032565350729547 -9.469443566800395 -4.024073695609429 0 0 0
2400 1 -5.032565350595558 -9.469443566687353 -6.512373695418826 0 0 0
2403 1 -3.5933686158372526 -7.4458502276023095 -4.0166309254960195 0 0 0
2404 1 -3.5933686160241094 -7.445850227904475 -6.504930925475981 0 0 0
2466 1 -5.750710058593216 -7.428501934251847 -5.264922834288493 0 0 0
2362 1 -0.72773992949982 -9.473003751125791 -4.023023846755412 0 0 0
2363 1 -0.727739929660783 -9.473003751425138 -6.511323847097567 0 0 0
2401 1 -2.878351445884824 -9.475757261824063 -5.26634687415445 0 0 0
2402 1 -1.445730727067141 -7.435535460001168 -5.263238415264129 0 0 0
2648 1 -17.226209757775337 -5.393365512503807 -5.272361135425537 0 0 0
2650 1 -17.951480820882203 -3.3293451497218736 -4.023357868625302 0 0 0
2651 1 -17.95148082092559 -3.329345149775143 -6.511657868574289 0 0 0
7736 1 -19.369759796472042 -5.411463923033192 -4.0277470319674205 1 0 0
7737 1 -19.369759796505452 -5.411463922914438 -6.516047031872384 1 0 0
2605 1 -12.925939540717703 -5.3805028932192105 -5.278208668668237 0 0 0
2606 1 -15.057000712453103 -5.418511154121008 -4.0388856694581055 0 0 0
2607 1 -15.057000712425728 -5.418511154177033 -6.52718566957725 0 0 0
2611 1 -13.628841220889464 -3.2966028659620417 -4.034460976574386 0 0 0
2617 1 -13.628841220813625 -3.2966028659708755 -6.522760976701356 0 0 0
2649 1 -15.758244291770128 -3.4221702603933206 -5.3015572820794725 0 0 0
2535 1 -10.76383535402088 -5.421971906816709 -4.03646927761624 0 0 0
2545 1 -10.763835353921545 -5.421971906667833 -6.524769277619774 0 0 0
2618 1 -11.476745543014664 -3.38957003721166 -5.298674348517958 0 0 0
2468 1 -6.476581793831012 -5.379561593435544 -4.015789112477867 0 0 0
2469 1 -6.476581794078156 -5.379561593585678 -6.504089112607103 0 0 0
2546 1 -8.605321003144379 -5.433111913271762 -5.2635985473603695 0 0 0
2547 1 -7.210187204358849 -3.290357848189225 -5.2525229644454745 0 0 0
2548 1 -9.301111324705136 -3.429893231486157 -4.002916002508383 0 0 0
2549 1 -9.301111324604538 -3.4298932318095234 -6.491216002045678 0 0 0
2467 1 -4.302136220937057 -5.420661338314344 -5.249573325698033 0 0 0
2473 1 -5.015863608536398 -3.4237873258252103 -3.9800765648519967 0 0 0
2479 1 -5.015863608376076 -3.423787325417211 -6.46837656517796 0 0 0
2407 1 -2.163966698841924 -5.393901797590601 -4.013937979402003 0 0 0
2410 1 -2.1639666985056984 -5.393901797010932 -6.502237978920055 0 0 0
2411 1 -0.7317764387681274 -3.3665534308800336 -3.9982769036028207 0 0 0
2412 1 -0.7317764397159991 -3.3665534314259475 -6.486576903284639 0 0 0
2480 1 -2.8656574711983143 -3.3310814396328894 -5.256165555367605 0 0 0
8020 1 -0.009688366609366993 -5.412133898877484 -5.259989377064628 0 0 0
2655 1 -16.46898373592274 -1.4651668543878815 -4.116273363153343 0 0 0
2657 1 -16.468983735867393 -1.4651668543676846 -6.604573363137471 0 0 0
2663 1 -18.604679372435097 -1.1676679345762684 -5.241190759100261 0 0 0
2658 1 -14.369872301448671 -1.2166388156136816 -5.219008443680241 0 0 0
2619 1 -9.972062624353486 -1.4842398802751746 -5.18594611990857 0 0 0
2620 1 -12.104793035952236 -1.3049500130866991 -4.10182488144851 0 0 0
2621 1 -12.104793035976746 -1.3049500130492993 -6.590124881435259 0 0 0
2553 1 -7.870448490854567 -1.076757800626707 -4.006970311481789 0 0 0
2555 1 -7.870448490556984 -1.0767578006347738 -6.495270311486332 0 0 0
2482 1 -3.61255812070695 -1.3106735552824653 -4.06801080076051 0 0 0
2483 1 -3.612558120872645 -1.3106735554786733 -6.556310801041096 0 0 0
2556 1 -5.7240577699403 -1.4431415790499766 -5.166008984435862 0 0 0
2481 1 -1.3646854254098677 -1.240949354154431 -5.199935852035302 0 0 0
2566 1 -17.228208417140458 -11.505814717488365 -2.785619813730019 0 0 0
2567 1 -17.228208417179292 -11.505814717529695 -0.2973198137712727 0 0 0
2493 1 -15.076423658015742 -11.505525954258989 -1.5413845287362564 0 0 0
2491 1 -12.924035734602096 -11.507141465229253 -0.29742481949067845 0 0 0
2508 1 -12.924035734622011 -11.50714146524855 -2.7857248195741744 0 0 0
2426 1 -10.77226903624378 -11.507682563438507 -1.541300887750442 0 0 0
2425 1 -8.618186526580029 -11.511671477944878 -2.784716213377234 0 0 0
2428 1 -8.618186526640333 -11.511671478053346 -0.29641621352490777 0 0 0
2372 1 -6.466024921667761 -11.509134744625374 -1.5391271701850968 0 0 0
2370 1 -4.315249920489071 -11.50559272890863 -0.29365432523474183 0 0 0
2387 1 -4.315249920596398 -11.505592729030235 -2.7819543253878116 0 0 0
2356 1 -0.010282836024843508 -11.507679026730548 -2.781401695567653 0 0 0
2357 1 -2.162263782323885 -11.508169174327866 -1.5368993056122084 0 0 0
7954 1 -0.010282836150067684 -11.50767902696257 -0.29310169576329603 0 0 0
2570 1 -17.943211624742474 -9.472401367630184 -1.540645021206458 0 0 0
2588 1 -16.507428482225716 -7.433866139757824 -1.5408067703078665 0 0 0
2626 1 -18.65741204065308 -7.440322929569632 -0.295348018827745 0 0 0
2637 1 -18.65741204060397 -7.440322929653956 -2.783648018927142 0 0 0
2510 1 -13.639194839600355 -9.473930104209584 -1.5422517763511812 0 0 0
2568 1 -15.792242550132425 -9.470851855238253 -0.2969686605764111 0 0 0
2586 1 -15.792242550170858 -9.47085185522689 -2.7852686606354577 0 0 0
2587 1 -14.35216761439647 -7.443302836519086 -2.78855058051026 0 0 0
2590 1 -14.352167614325781 -7.443302836604708 -0.30025058065302374 0 0 0
2509 1 -11.489594852576431 -9.471758928577167 -2.7860951394675677 0 0 0
2512 1 -11.489594852619442 -9.471758928628924 -0.29779513959166065 0 0 0
2513 1 -10.049926114017625 -7.452355690077222 -0.29850762877771553 0 0 0
2515 1 -12.207315828048092 -7.430656169577134 -1.5434383492862005 0 0 0
2532 1 -10.04992611394307 -7.452355690169509 -2.786807628894789 0 0 0
2429 1 -7.180987319890349 -9.478019929151733 -0.2939243910816373 0 0 0
2431 1 -9.333996335601732 -9.48141350757234 -1.5409751953317128 0 0 0
2448 1 -7.180987319948112 -9.478019929184827 -2.782224391350446 0 0 0
2450 1 -7.894903368262842 -7.451259769581696 -1.5360992146538257 0 0 0
2389 1 -5.032565350582025 -9.469443566673483 -1.5357736954192898 0 0 0
2394 1 -3.593368616038628 -7.445850227913351 -1.528330925444398 0 0 0
2449 1 -5.750710058602212 -7.428501934097642 -2.7766228341870303 0 0 0
2452 1 -5.750710058664505 -7.42850193428607 -0.28832283429734906 0 0 0
2360 1 -0.7277399295767889 -9.473003751437295 -1.534723847094212 0 0 0
2388 1 -2.8783514457310395 -9.475757261623086 -2.7780468739381106 0 0 0
2391 1 -2.878351445933333 -9.475757261898188 -0.28974687413047745 0 0 0
2392 1 -1.4457307271110642 -7.435535460062583 -0.286638415251203 0 0 0
2405 1 -1.4457307272304272 -7.435535460333442 -2.774938415713477 0 0 0
2638 1 -17.226209757689357 -5.393365512578832 -2.784061135385107 0 0 0
2639 1 -17.22620975774976 -5.39336551255909 -0.29576113537090937 0 0 0
2642 1 -17.951480820864663 -3.3293451497391713 -1.5350578685530543 0 0 0
7734 1 -19.36975979643132 -5.411463922955248 -1.539447031937328 1 0 0
2591 1 -12.925939540769384 -5.380502893269147 -0.30160866865989183 0 0 0
2593 1 -15.057000712484763 -5.4185111541537125 -1.55058566944966 0 0 0
2608 1 -12.925939540811253 -5.380502893243851 -2.7899086688059156 0 0 0
2610 1 -13.628841220829914 -3.2966028659529933 -1.5461609767162117 0 0 0
2640 1 -15.758244291711101 -3.422170260490673 -0.3249572820830708 0 0 0
2652 1 -15.758244291672252 -3.422170260442519 -2.8132572821667687 0 0 0
2534 1 -10.763835353837795 -5.4219719066556245 -1.5481692776016787 0 0 0
2609 1 -11.476745543169438 -3.3895700372794204 -2.8103743485363317 0 0 0
2612 1 -11.476745543050642 -3.389570037268117 -0.3220743485527155 0 0 0
2455 1 -6.47658179410975 -5.379561593673476 -1.5274891125995527 0 0 0
2533 1 -8.605321003064782 -5.4331119133861 -2.7752985468439215 0 0 0
2536 1 -8.60532100301944 -5.433111913231707 -0.28699854732431185 0 0 0
2537 1 -7.210187204283422 -3.2903578481524702 -0.27592296439053804 0 0 0
2539 1 -9.301111324518622 -3.4298932317629247 -1.514616002011934 0 0 0
2550 1 -7.210187204096927 -3.2903578480819307 -2.7642229643674563 0 0 0
2453 1 -4.30213622091813 -5.4206613382780455 -0.27297332572328364 0 0 0
2470 1 -4.302136221132708 -5.420661338228715 -2.761273326221546 0 0 0
2472 1 -5.0158636083287815 -3.4237873254052427 -1.491776565152987 0 0 0
2406 1 -2.1639666985144217 -5.393901797098803 -1.5256379789082801 0 0 0
2409 1 -0.7317764397392138 -3.366553431474157 -1.509976903328968 0 0 0
2471 1 -2.8656574713597904 -3.3310814394645245 -2.7678655545882638 0 0 0
2474 1 -2.8656574711919234 -3.3310814396682553 -0.27956555534446037 0 0 0
8012 1 -0.009688366068623194 -5.412133898722902 -2.7716893768323447 0 0 0
8013 1 -0.009688366580922507 -5.412133898909832 -0.2833893770882316 0 0 0
2654 1 -16.468983735922404 -1.4651668542986909 -1.6279733630556714 0 0 0
2661 1 -18.60467937250606 -1.1676679345232563 -0.2645907591724104 0 0 0
2664 1 -18.604679372508674 -1.167667934579467 -2.7528907591504237 0 0 0
2653 1 -14.3698723013564 -1.2166388156083165 -2.7307084436286715 0 0 0
2656 1 -14.369872301425541 -1.2166388155735859 -0.24240844370507986 0 0 0
2613 1 -9.972062624432258 -1.4842398802994181 -0.20934611995909325 0 0 0
2615 1 -12.104793035988898 -1.304950012997203 -1.6135248814313532 0 0 0
2622 1 -9.972062624374594 -1.4842398799695369 -2.697646120534512 0 0 0
2552 1 -7.870448490548889 -1.0767578006357608 -1.5186703114624778 0 0 0
2477 1 -3.6125581209092177 -1.3106735554891789 -1.579710801083383 0 0 0
2551 1 -5.724057769860625 -1.4431415792985762 -2.677708983879203 0 0 0
2554 1 -5.724057770013401 -1.4431415790645081 -0.18940898444445992 0 0 0
2475 1 -1.3646854255378458 -1.2409493541939873 -0.22333585210848236 0 0 0
2484 1 -1.3646854260218593 -1.240949353914082 -2.7116358522470296 0 0 0
2558 1 -17.228208417184625 -11.50581471753564 2.1909801862107545 0 0 0
2487 1 -15.076423657995093 -11.505525954246139 3.4352154712686764 0 0 0
2492 1 -15.07642365801487 -11.505525954210079 0.9469154713680935 0 0 0
2494 1 -12.924035734642032 -11.507141465323441 2.1908751804958713 0 0 0
2416 1 -10.77226903625078 -11.507682563374683 3.4352991122331424 0 0 0
2417 1 -10.772269036253704 -11.507682563491167 0.9469991122026248 0 0 0
2415 1 -8.618186526651202 -11.511671477969728 2.191883786582374 0 0 0
2366 1 -6.46602492165269 -11.509134744663573 3.4374728298523154 0 0 0
2371 1 -6.466024921618063 -11.50913474453747 0.9491728299551704 0 0 0
2373 1 -4.315249920542561 -11.505592729048939 2.1946456746386405 0 0 0
2351 1 -0.010282836050498437 -11.507679026699892 2.19519830438803 0 0 0
2352 1 -2.162263782365855 -11.508169174267746 3.4397006943969486 0 0 0
2353 1 -2.162263782497222 -11.508169174360813 0.9514006942639471 0 0 0
2562 1 -17.943211624785857 -9.472401367625833 3.4359549788131396 0 0 0
2569 1 -17.94321162476233 -9.472401367572166 0.9476549789019507 0 0 0
2573 1 -16.507428482249725 -7.433866139778083 3.4357932297731937 0 0 0
2574 1 -16.507428482185134 -7.433866139841258 0.9474932296940619 0 0 0
2627 1 -18.65741204065254 -7.440322929589551 2.1929519811249816 0 0 0
2496 1 -13.639194839636748 -9.473930104227826 3.4343482237376435 0 0 0
2497 1 -13.639194839702814 -9.473930104320512 0.9460482236161082 0 0 0
2571 1 -15.792242550113535 -9.47085185520262 2.1913313393538147 0 0 0
2572 1 -14.352167614280978 -7.4433028365671685 2.188049419458097 0 0 0
2495 1 -11.489594852561456 -9.471758928622354 2.1905048605004422 0 0 0
2501 1 -12.207315828069033 -7.430656169651434 3.433161650668922 0 0 0
2514 1 -12.207315828041033 -7.4306561694986595 0.9448616506914692 0 0 0
2516 1 -10.049926113913951 -7.452355690075885 2.189792371150734 0 0 0
2421 1 -9.33399633565099 -9.481413507556798 3.4356248046594886 0 0 0
2430 1 -9.333996335551355 -9.481413507487748 0.9473248047772793 0 0 0
2432 1 -7.180987319890644 -9.478019929191449 2.194375608687044 0 0 0
2434 1 -7.894903368270511 -7.451259769544559 3.4405007852953027 0 0 0
2435 1 -7.894903368307084 -7.4512597697558896 0.9522007853958525 0 0 0
2375 1 -5.03256535058551 -9.469443566643154 3.4408263046313765 0 0 0
2376 1 -5.032565350765142 -9.469443566855771 0.9525263044140195 0 0 0
2380 1 -3.593368616012315 -7.445850227932857 3.44826907447907 0 0 0
2393 1 -3.593368615837291 -7.445850227574934 0.9599690745711077 0 0 0
2433 1 -5.750710058589169 -7.428501934149216 2.1999771659099485 0 0 0
2355 1 -0.7277399296519196 -9.473003751369163 3.441876152850265 0 0 0
2359 1 -0.7277399295160119 -9.473003751165225 0.9535761533038899 0 0 0
2374 1 -2.8783514457085158 -9.47575726168176 2.1985531261092928 0 0 0
2395 1 -1.4457307271389002 -7.435535460313516 2.2016615842385545 0 0 0
2628 1 -17.22620975775072 -5.393365512520307 2.19253886467241 0 0 0
2632 1 -17.951480820963 -3.329345149765986 3.441542131455869 0 0 0
2641 1 -17.951480820843177 -3.3293451497285522 0.9532421313908029 0 0 0
7724 1 -19.36975979642899 -5.411463922962892 3.437152968060713 1 0 0
7733 1 -19.369759796561752 -5.4114639229878625 0.9488529681097322 1 0 0
2578 1 -15.057000712478185 -5.4185111541784 3.426014330525549 0 0 0
2592 1 -15.057000712385742 -5.418511154128193 0.9377143305005469 0 0 0
2594 1 -12.925939540696376 -5.380502893173307 2.1866913311979057 0 0 0
2596 1 -13.62884122085919 -3.2966028659354465 3.4304390233322537 0 0 0
2597 1 -13.628841220834724 -3.296602866022912 0.9421390233931488 0 0 0
2643 1 -15.758244291719894 -3.422170260446278 2.1633427178544147 0 0 0
2518 1 -10.763835353810547 -5.421971906739791 3.4284307223919703 0 0 0
2519 1 -10.763835354070135 -5.421971906729587 0.9401307223190699 0 0 0
2595 1 -11.476745543190754 -3.3895700372635624 2.1662256514565073 0 0 0
2439 1 -6.4765817941018495 -5.379561593602104 3.449110887373961 0 0 0
2454 1 -6.476581793775063 -5.3795615934167795 0.9608108875303325 0 0 0
2517 1 -8.6053210030606 -5.433111913392592 2.2013014531099504 0 0 0
2523 1 -9.301111324630545 -3.4298932318099133 3.4619839979620757 0 0 0
2538 1 -9.301111324681557 -3.429893231455776 0.9736839974821879 0 0 0
2540 1 -7.210187204121371 -3.2903578481421762 2.2123770355328594 0 0 0
2456 1 -4.302136221111105 -5.420661338267207 2.215326673784763 0 0 0
2458 1 -5.015863608379432 -3.42378732541745 3.4848234348285083 0 0 0
2459 1 -5.015863608513796 -3.4237873258345632 0.9965234351527439 0 0 0
2396 1 -2.163966698534419 -5.393901797090825 3.4509620211245635 0 0 0
2397 1 -2.1639666988020436 -5.39390179751177 0.9626620205785242 0 0 0
2399 1 -0.7317764397064774 -3.3665534314441743 3.466623096735245 0 0 0
2408 1 -0.7317764387699828 -3.36655343089445 0.9783230964225464 0 0 0
2457 1 -2.8656574713413576 -3.331081439428293 2.208734445365485 0 0 0
8006 1 -0.009688366035560439 -5.412133898709584 2.2049106231625983 0 0 0
2645 1 -16.468983735905656 -1.4651668543578173 3.348626636918269 0 0 0
2646 1 -16.468983735863326 -1.4651668544299778 0.8603266367806554 0 0 0
2662 1 -18.604679372457984 -1.1676679345314878 2.2237092408542063 0 0 0
2644 1 -14.369872301381417 -1.216638815639367 2.245891556368279 0 0 0
2601 1 -12.10479303604719 -1.3049500130831382 3.363075118532578 0 0 0
2614 1 -12.104793035853897 -1.3049500130616327 0.874775118605695 0 0 0
2616 1 -9.97206262433829 -1.4842398799412437 2.2789538794933786 0 0 0
2542 1 -7.870448490520447 -1.0767578006128133 3.4579296885282487 0 0 0
2543 1 -7.87044849088857 -1.0767578006016831 0.9696296884745234 0 0 0
2463 1 -3.612558120896118 -1.31067355550985 3.3968891989641916 0 0 0
2476 1 -3.612558120743878 -1.3106735552485804 0.9085891992561523 0 0 0
2541 1 -5.724057769849371 -1.4431415793135827 2.298891016120685 0 0 0
2478 1 -1.3646854259600667 -1.2409493539569787 2.264964147777755 0 0 0
2557 1 -17.22820841716045 -11.50581471748902 7.167580186220223 0 0 0
2559 1 -17.2282084171639 -11.505814717532635 4.679280186232076 0 0 0
2486 1 -15.076423657992937 -11.505525954223476 5.923515471277782 0 0 0
2485 1 -12.924035734614943 -11.507141465212321 4.679175180468598 0 0 0
2488 1 -12.924035734637213 -11.50714146528935 7.16747518044959 0 0 0
2414 1 -10.772269036299575 -11.507682563522335 5.923599112147267 0 0 0
2413 1 -8.618186526586907 -11.511671477918286 7.16848378653928 0 0 0
2418 1 -8.6181865266676 -11.511671478043027 4.680183786542499 0 0 0
2365 1 -6.466024921605818 -11.509134744500251 5.92577282989507 0 0 0
2364 1 -4.315249920500145 -11.505592728894271 4.6829456747638085 0 0 0
2367 1 -4.315249920592887 -11.505592729089754 7.1712456746138065 0 0 0
2350 1 -2.162263782448368 -11.508169174479503 5.928000694201703 0 0 0
7948 1 -0.010282836024428766 -11.507679026724068 7.171798304411854 0 0 0
7949 1 -0.010282836162658316 -11.507679026983897 4.683498304243312 0 0 0
2561 1 -17.943211624735145 -9.472401367593385 5.924254978822904 0 0 0
2565 1 -16.507428482273653 -7.433866139816229 5.924093229708435 0 0 0
2623 1 -18.657412040650872 -7.440322929611929 4.681251981148505 0 0 0
2624 1 -18.657412040626824 -7.440322929574375 7.169551981102159 0 0 0
2490 1 -13.639194839627386 -9.473930104286152 5.922648223612389 0 0 0
2560 1 -15.792242550133293 -9.470851855217806 4.679631339445828 0 0 0
2563 1 -15.79224255014438 -9.470851855262467 7.167931339337906 0 0 0
2564 1 -14.35216761435491 -7.4433028365970335 7.164649419397953 0 0 0
2575 1 -14.352167614368259 -7.443302836553581 4.676349419426108 0 0 0
2489 1 -11.489594852549912 -9.471758928606548 7.167104860507872 0 0 0
2498 1 -11.489594852621915 -9.47175892858831 4.678804860416675 0 0 0
2499 1 -10.049926113989784 -7.452355690114564 4.678092371181099 0 0 0
2500 1 -12.207315828005058 -7.430656169478065 5.921461650662006 0 0 0
2502 1 -10.049926113987539 -7.452355690072965 7.166392371125806 0 0 0
2419 1 -7.18098731987134 -9.47801992910087 4.682675608881587 0 0 0
2420 1 -9.333996335527807 -9.481413507444644 5.923924804769055 0 0 0
2422 1 -7.180987319991632 -9.478019929209381 7.170975608684713 0 0 0
2424 1 -7.894903368338985 -7.451259769790328 5.928800785415452 0 0 0
2369 1 -5.032565350736692 -9.469443566849291 5.92912630434078 0 0 0
2379 1 -3.5933686158272726 -7.445850227606707 5.936569074577461 0 0 0
2423 1 -5.750710058669938 -7.428501934182198 7.1765771658646225 0 0 0
2436 1 -5.750710058602366 -7.428501934190394 4.68827716563104 0 0 0
2354 1 -0.7277399294859138 -9.473003751201613 5.930176153281569 0 0 0
2368 1 -2.8783514457564996 -9.475757261766809 7.175153126098186 0 0 0
2377 1 -2.8783514459394888 -9.475757261802089 4.686853125759699 0 0 0
2378 1 -1.4457307271674542 -7.435535460027565 4.689961584751667 0 0 0
2381 1 -1.4457307271895827 -7.435535460380687 7.178261584291828 0 0 0
2625 1 -17.226209757723012 -5.393365512547271 7.169138864666523 0 0 0
2629 1 -17.226209757732747 -5.393365512574478 4.680838864556523 0 0 0
2631 1 -17.95148082082094 -3.329345149694246 5.929842131385947 0 0 0
7723 1 -19.369759796498876 -5.411463923012467 5.925452968033813 1 0 0
2576 1 -12.92593954076414 -5.380502893288084 4.674991331274669 0 0 0
2577 1 -15.0570007124401 -5.418511154115915 5.914314330563523 0 0 0
2579 1 -12.925939540762226 -5.380502893215042 7.163291331231432 0 0 0
2581 1 -13.62884122080947 -3.296602866012902 5.918739023353633 0 0 0
2630 1 -15.758244291699306 -3.4221702604295414 4.651642717928643 0 0 0
2633 1 -15.758244291659098 -3.422170260505172 7.139942717822733 0 0 0
2504 1 -10.763835353993798 -5.4219719067371805 5.9167307223465295 0 0 0
2580 1 -11.47674554320446 -3.389570037318041 7.142825651412891 0 0 0
2598 1 -11.47674554297962 -3.389570037215317 4.6545256514756534 0 0 0
2438 1 -6.476581793813254 -5.379561593479145 5.9374108875231375 0 0 0
2503 1 -8.605321002957988 -5.433111913381922 7.177901453134612 0 0 0
2520 1 -8.60532100312268 -5.433111913204292 4.689601452696435 0 0 0
2521 1 -7.210187204324567 -3.2903578481282647 4.700677035622307 0 0 0
2522 1 -9.301111324619152 -3.4298932314266626 5.950283997502648 0 0 0
2524 1 -7.210187204067558 -3.2903578481185884 7.188977035572821 0 0 0
2437 1 -4.302136220926534 -5.420661338300809 4.703626674284457 0 0 0
2440 1 -4.302136221100833 -5.420661338236902 7.191926673757185 0 0 0
2442 1 -5.015863608438605 -3.4237873258291827 5.973123435131137 0 0 0
2382 1 -0.009688366000989192 -5.412133898709617 7.181510623172784 0 0 0
2383 1 -2.1639666987986774 -5.393901797599151 5.939262020581172 0 0 0
2398 1 -0.731776438776315 -3.366553430928739 5.9549230963399165 0 0 0
2441 1 -2.865657471326178 -3.331081439459657 7.185334445349759 0 0 0
2460 1 -2.8656574712027774 -3.331081439658291 4.697034444715392 0 0 0
8007 1 -0.009688366624945809 -5.412133898899523 4.693210622938841 0 0 0
2635 1 -16.46898373594605 -1.4651668543866274 5.836926636859342 0 0 0
2659 1 -18.604679372452797 -1.1676679345659513 4.7120092408794525 0 0 0
2660 1 -18.604679372531315 -1.1676679345125682 7.200309240809805 0 0 0
2634 1 -14.369872301396223 -1.2166388155631374 7.222491556298558 0 0 0
2647 1 -14.369872301403111 -1.2166388156620587 4.7341915563125045 0 0 0
2599 1 -9.97206262436804 -1.4842398802964845 4.767253880071281 0 0 0
2600 1 -12.10479303586571 -1.3049500129836946 5.851375118569575 0 0 0
2602 1 -9.972062624405394 -1.484239879957608 7.255553879415384 0 0 0
2526 1 -7.870448490866423 -1.0767578006649121 5.946229688513554 0 0 0
2544 1 -5.724057769962177 -1.4431415790453965 4.78719101556608 0 0 0
2525 1 -5.724057769914223 -1.4431415793123903 7.275491016092524 0 0 0
2462 1 -3.6125581207399096 -1.3106735552580038 5.8851891991931025 0 0 0
2464 1 -1.3646854260347119 -1.240949353993707 7.241564147710575 0 0 0
2461 1 -1.3646854255035648 -1.2409493540828347 4.753264147909645 0 0 0
8040 1 -16.689798112224693 0.590181177393735 -5.63466555814253 1 0 0
8050 1 -16.678251946499206 3.084960792001223 -5.889980784405992 1 0 0
8068 1 -18.4351007594409 1.8132540321323363 -7.056348015274906 1 0 1
8085 1 -18.43510075948474 1.8132540320666748 -4.568048015305028 1 0 0
2921 1 -13.144839974020297 0.6656119549288796 -5.9181530806699385 0 0 0
2940 1 -13.188086388465067 3.13770657096301 -5.930026593161393 0 0 0
2966 1 -14.91528194818212 1.817830882975963 -7.1128074662372685 0 0 1
2975 1 -14.915281948122376 1.8178308830003413 -4.624507466322323 0 0 0
2855 1 -9.789403441294905 0.5790298360501512 -6.1822177642656335 0 0 0
2902 1 -11.442214548477843 1.89305181537557 -7.232933808401029 0 0 1
2919 1 -11.442214548579736 1.893051815448151 -4.744633808795923 0 0 0
2836 1 -7.905567850976794 1.6484496226427188 -7.309226084249403 0 0 1
2853 1 -7.905567850910406 1.6484496226170675 -4.820926084196719 0 0 0
2874 1 -9.617406694644126 3.0497004619287886 -5.972854282620781 0 0 0
2770 1 -4.317283166880012 1.858725299199887 -7.227115787368242 0 0 1
2787 1 -4.317283166914452 1.8587252992419545 -4.738815787327543 0 0 0
2789 1 -6.028707103730298 0.6014177345015829 -6.178733611812842 0 0 0
2808 1 -6.15363538720722 3.0384702299442914 -5.964267080555554 0 0 0
2704 1 -0.8535443685990424 1.864230208934478 -7.102823172295562 0 0 1
2721 1 -0.8535443690079751 1.8642302091318164 -4.614523171598871 0 0 0
2723 1 -2.5662903211488968 0.6630140035886295 -5.911809372430909 0 0 0
2742 1 -2.590456181274908 3.1407759171842593 -5.923711928826576 0 0 0
8052 1 -16.685136924627255 5.585752840290203 -5.918812268367063 1 0 0
8069 1 -18.42899259842637 4.327157841290012 -7.152327574613848 1 0 1
8082 1 -18.44264127089536 6.823662960338674 -7.166708955813365 1 0 1
8107 1 -18.42899259842192 4.327157841217594 -4.664027574620594 1 0 0
8108 1 -18.442641270826314 6.823662960393643 -4.678408955945136 1 0 0
2944 1 -13.160737024575115 5.588356008551714 -5.929118569353946 0 0 0
2967 1 -14.939266071409321 4.337365754623072 -7.161570786674205 0 0 1
2973 1 -14.922363809943915 6.825172454373181 -7.169837583303981 0 0 1
2985 1 -14.93926607132719 4.33736575469574 -4.673270786554733 0 0 0
2986 1 -14.922363809949488 6.825172454439834 -4.681537583373768 0 0 0
2903 1 -11.387143711711776 4.3311549426654254 -7.184778365939625 0 0 1
2916 1 -11.38897601785473 6.812604118773437 -7.176377436551042 0 0 1
2941 1 -11.387143711764491 4.331154942639735 -4.6964783659928795 0 0 0
2942 1 -11.388976017876846 6.812604118787163 -4.6880774367166635 0 0 0
2837 1 -7.882336949491222 4.26716639151602 -7.20102640567146 0 0 1
2850 1 -7.879848807883759 6.793563299598604 -7.179693548100676 0 0 1
2875 1 -7.8823369494533875 4.267166391468447 -4.71272640555622 0 0 0
2876 1 -7.879848807884834 6.793563299600966 -4.691393548121836 0 0 0
2878 1 -9.625388135342922 5.554343217299023 -5.940514889264138 0 0 0
2771 1 -4.385478679798551 4.318255189131761 -7.181097213435709 0 0 1
2784 1 -4.370773684366556 6.803892652893573 -7.17501120971802 0 0 1
2809 1 -4.385478679771293 4.318255188990513 -4.692797213585931 0 0 0
2810 1 -4.370773684291567 6.803892652998789 -4.68671120971754 0 0 0
2812 1 -6.137936726451901 5.549812924028896 -5.939617076835154 0 0 0
2705 1 -0.8129431338573421 4.332721016366052 -7.157767933905862 0 0 1
2718 1 -0.8287655567324658 6.810514812328208 -7.1673565614335795 0 0 1
2743 1 -0.8129431340758642 4.33272101629897 -4.669467933929087 0 0 0
2744 1 -0.8287655567918928 6.810514812373866 -4.679056561352552 0 0 0
2746 1 -2.600890549025875 5.579363144647032 -5.926317216520218 0 0 0
8059 1 -16.682341071959073 8.06957312382033 -5.925548158589511 1 0 0
8061 1 -16.680726680922493 10.553062665773764 -5.926854822221364 1 0 0
8083 1 -18.444229772322956 9.310235429563908 -7.170211391386144 1 0 1
8123 1 -18.44422977234515 9.310235429529541 -4.681911391426451 1 0 0
2956 1 -13.154245206370517 8.064055772670438 -5.928535752211967 0 0 0
2960 1 -13.154722684436152 10.549209955262114 -5.927798065534486 0 0 0
2974 1 -14.917647078071242 9.308853441118654 -7.1713798427717945 0 0 1
2992 1 -14.917647078046976 9.308853441121828 -4.683079842712922 0 0 0
2917 1 -11.392409227378495 9.30148389583728 -7.173156508425893 0 0 1
2957 1 -11.392409227292903 9.30148389587936 -4.684856508441605 0 0 0
2851 1 -7.877183314664421 9.294213488827022 -7.1738397840402905 0 0 1
2890 1 -9.632337696015362 8.051155505264326 -5.931444658537622 0 0 0
2891 1 -7.877183314704148 9.294213488851994 -4.685539784162754 0 0 0
2894 1 -9.634193885175582 10.543568273084023 -5.928531920805027 0 0 0
2785 1 -4.360975081923939 9.293369292551306 -7.172398458493116 0 0 1
2824 1 -6.124401361514476 8.047188034118074 -5.930899538447513 0 0 0
2825 1 -4.360975081904039 9.293369292541422 -4.68409845860837 0 0 0
2828 1 -6.117874339454355 10.539739409746065 -5.9282485763641795 0 0 0
2719 1 -0.8343717522607951 9.295212560624925 -7.170078338099789 0 0 1
2758 1 -2.599659633915674 8.05226068452405 -5.927086658348876 0 0 0
2759 1 -0.8343717522059527 9.295212560530754 -4.681778338212057 0 0 0
2762 1 -2.597085322433959 10.538853901549286 -5.927030498475343 0 0 0
8064 1 -16.680402449738924 13.038483869731175 -5.926979181911679 1 0 0
8104 1 -18.443283176918047 11.795779357980477 -7.170897931267293 1 0 1
8124 1 -18.443283176963984 11.795779358013714 -4.682597931496579 1 0 0
2964 1 -13.156096070611893 13.036399873828895 -5.927323451868051 0 0 0
2984 1 -14.91761027069779 11.794268516801237 -7.171391680189507 0 0 1
2993 1 -14.917610270719324 11.794268516755462 -4.683091680273545 0 0 0
2938 1 -11.394374435188334 11.790634145718725 -7.171920179733536 0 0 1
2958 1 -11.394374435126478 11.790634145695932 -4.68362017985282 0 0 0
2872 1 -7.875331603281631 11.786671469134035 -7.172036208002445 0 0 1
2892 1 -7.875331603336856 11.7866714691182 -4.683736208046915 0 0 0
2898 1 -9.634660460427703 13.03347814372331 -5.927520596984869 0 0 0
2806 1 -4.356502479163418 11.783908433123864 -7.1715300140310445 0 0 1
2826 1 -4.356502479183992 11.783908433090245 -4.683230014086582 0 0 0
2832 1 -6.115175163120082 13.030397331773663 -5.927375898485185 0 0 0
2740 1 -0.8347158853051574 11.783586848419397 -7.170724127928576 0 0 1
2760 1 -0.8347158853579995 11.78358684844702 -4.682424127929295 0 0 0
2766 1 -2.595049169557955 13.028461438201248 -5.926932095915179 0 0 0
8033 1 -16.689798112289242 0.5901811774780045 -0.6580655581298063 1 0 0
8039 1 -16.68979811225448 0.5901811774342894 -3.146365558124983 1 0 0
8041 1 -16.678251946491006 3.08496079194407 -0.9133807844249672 1 0 0
8042 1 -16.678251946504936 3.0849607920077564 -3.4016807844393693 1 0 0
8088 1 -18.43510075951195 1.8132540320393618 -2.079748015269196 1 0 0
2907 1 -13.144839974015083 0.6656119549380543 -0.9415530806166214 0 0 0
2920 1 -13.14483997402897 0.665611954871267 -3.429853080609003 0 0 0
2924 1 -13.188086388413302 3.1377065709624143 -0.9534265931602267 0 0 0
2925 1 -13.188086388511309 3.137706571037614 -3.4417265932142547 0 0 0
2976 1 -14.915281948181295 1.8178308830295198 -2.136207466265113 0 0 0
2841 1 -9.789403441326174 0.5790298360607792 -1.2056177643000485 0 0 0
2854 1 -9.789403441170291 0.5790298357087033 -3.6939177640295724 0 0 0
2922 1 -11.442214548361061 1.8930518154084857 -2.2563338084178515 0 0 0
2856 1 -7.905567851008651 1.6484496226153817 -2.332626084193192 0 0 0
2858 1 -9.617406694679236 3.049700461876284 -0.9962542826738984 0 0 0
2859 1 -9.617406694662956 3.049700462010869 -3.484554282540624 0 0 0
2775 1 -6.0287071036673066 0.6014177344467724 -1.2021336117485235 0 0 0
2788 1 -6.028707103673527 0.6014177347214906 -3.69043361186327 0 0 0
2790 1 -4.317283166899328 1.8587252991923058 -2.250515787296586 0 0 0
2792 1 -6.153635387247882 3.038470229932283 -0.9876670806720925 0 0 0
2793 1 -6.1536353872179586 3.038470229888266 -3.4759670806882474 0 0 0
2709 1 -2.5662903210330317 0.6630140036027279 -0.935209372413122 0 0 0
2722 1 -2.566290320985942 0.6630140035509046 -3.423509372443501 0 0 0
2724 1 -0.8535443685933782 1.8642302089652143 -2.126223172304312 0 0 0
2726 1 -2.590456181209718 3.1407759171458505 -0.947111928883182 0 0 0
2727 1 -2.590456180960151 3.1407759170331007 -3.4354119291167473 0 0 0
8044 1 -16.685136924720904 5.585752840293001 -0.9422122683851264 1 0 0
8051 1 -16.685136924707596 5.585752840270404 -3.430512268291118 1 0 0
8089 1 -18.428992598429502 4.327157841260965 -2.175727574653615 1 0 0
8111 1 -18.4426412707949 6.823662960312411 -2.1901089558270814 1 0 0
2929 1 -13.160737024563796 5.588356008582177 -0.952518569466627 0 0 0
2943 1 -13.160737024598642 5.588356008507054 -3.4408185693734974 0 0 0
2977 1 -14.939266071393062 4.337365754746917 -2.184970786644266 0 0 0
2987 1 -14.922363809896469 6.825172454405588 -2.193237583278963 0 0 0
2923 1 -11.387143711704045 4.331154942695612 -2.208178365952291 0 0 0
2945 1 -11.388976017917983 6.812604118739997 -2.199777436545483 0 0 0
2857 1 -7.882336949474416 4.267166391601041 -2.2244264055895377 0 0 0
2863 1 -9.625388135366384 5.554343217313523 -0.9639148892665746 0 0 0
2877 1 -9.625388135356298 5.554343217246293 -3.4522148892485416 0 0 0
2879 1 -7.879848807867088 6.793563299533178 -2.203093548128511 0 0 0
2791 1 -4.385478679823189 4.318255189116236 -2.204497213374584 0 0 0
2797 1 -6.137936726472369 5.54981292399919 -0.9630170768463968 0 0 0
2811 1 -6.1379367265105875 5.5498129239799585 -3.451317076768965 0 0 0
2813 1 -4.370773684337919 6.8038926529472885 -2.198411209657708 0 0 0
2725 1 -0.8129431339144192 4.332721016396169 -2.181167933808625 0 0 0
2731 1 -2.6008905490797574 5.5793631447129135 -0.9497172165513744 0 0 0
2745 1 -2.6008905489888767 5.579363144740698 -3.438017216574337 0 0 0
2747 1 -0.8287655567507458 6.810514812317577 -2.190756561410859 0 0 0
8053 1 -16.68234107198616 8.069573123885077 -0.9489481586170675 1 0 0
8054 1 -16.682341071998827 8.069573123889558 -3.4372481584859025 1 0 0
8056 1 -16.68072668091295 10.553062665760725 -0.9502548221906566 1 0 0
8060 1 -16.68072668097316 10.553062665731462 -3.438554822173454 1 0 0
8112 1 -18.444229772334904 9.310235429488884 -2.1936113914517312 1 0 0
2947 1 -13.154245206373913 8.064055772689427 -0.9519357523020295 0 0 0
2948 1 -13.154245206439388 8.064055772725983 -3.4402357522351332 0 0 0
2952 1 -13.154722684419783 10.549209955240974 -0.9511980654662168 0 0 0
2959 1 -13.154722684369759 10.54920995521716 -3.439498065432662 0 0 0
2988 1 -14.917647078063766 9.308853441092259 -2.194779842753535 0 0 0
2946 1 -11.392409227366903 9.30148389585028 -2.1965565084750605 0 0 0
2880 1 -7.877183314636159 9.294213488820487 -2.197239784108367 0 0 0
2881 1 -9.63233769603 8.051155505233522 -0.9548446586371968 0 0 0
2882 1 -9.632337695995929 8.05115550530275 -3.4431446585638303 0 0 0
2886 1 -9.634193885212483 10.543568273117865 -0.9519319208899868 0 0 0
2893 1 -9.634193885177027 10.54356827308777 -3.4402319208203256 0 0 0
2814 1 -4.36097508192148 9.293369292533109 -2.195798458553585 0 0 0
2815 1 -6.124401361480641 8.04718803419515 -0.9542995384258114 0 0 0
2816 1 -6.12440136148451 8.047188034182312 -3.4425995384835004 0 0 0
2820 1 -6.117874339400919 10.539739409778688 -0.9516485764159589 0 0 0
2827 1 -6.117874339433104 10.539739409821054 -3.4399485763180073 0 0 0
2748 1 -0.8343717522497215 9.29521256059831 -2.1934783380944176 0 0 0
2749 1 -2.599659633900672 8.05226068451857 -0.9504866582943892 0 0 0
2750 1 -2.599659633876434 8.052260684437538 -3.438786658353735 0 0 0
2754 1 -2.597085322409003 10.538853901602232 -0.9504304985243957 0 0 0
2761 1 -2.5970853223547277 10.538853901595585 -3.4387304984569234 0 0 0
8062 1 -16.680402449822573 13.038483869702818 -0.9503791819063391 1 0 0
8063 1 -16.68040244981491 13.03848386980144 -3.4386791818220352 1 0 0
8127 1 -18.443283176954196 11.795779357987941 -2.1942979314786255 1 0 0
2962 1 -13.156096070613941 13.03639987388375 -0.9507234518397297 0 0 0
2963 1 -13.15609607059358 13.036399873903656 -3.4390234518031497 0 0 0
2994 1 -14.91761027068007 11.794268516799303 -2.1947916801854754 0 0 0
2961 1 -11.394374435052331 11.79063414570292 -2.1953201797940185 0 0 0
2895 1 -7.875331603304885 11.786671469167935 -2.1954362081224903 0 0 0
2896 1 -9.634660460458296 13.033478143687832 -0.9509205969995511 0 0 0
2897 1 -9.634660460455207 13.0334781436364 -3.4392205970501575 0 0 0
2829 1 -4.356502479180543 11.783908433140198 -2.194930014123471 0 0 0
2830 1 -6.1151751630592015 13.030397331794964 -0.9507758985489693 0 0 0
2831 1 -6.115175163071945 13.030397331812889 -3.4390758984739787 0 0 0
2763 1 -0.834715885356709 11.783586848429833 -2.1941241279659742 0 0 0
2764 1 -2.595049169560369 13.028461438237612 -0.9503320959226129 0 0 0
2765 1 -2.595049169510413 13.028461438152943 -3.4386320958673866 0 0 0
8032 1 -16.689798112220345 0.5901811774144012 1.830234441903301 1 0 0
8035 1 -16.678251946475623 3.0849607920466 1.5749192155927516 1 0 0
8071 1 -18.435100759486897 1.8132540321382382 0.40855198465049386 1 0 0
8074 1 -18.435100759484392 1.8132540320730473 2.8968519847563616 1 0 0
2906 1 -13.14483997406386 0.6656119548451711 1.546746919338496 0 0 0
2911 1 -13.188086388561048 3.137706571090794 1.5348734067422491 0 0 0
2968 1 -14.91528194815345 1.8178308830034553 0.35209253374631405 0 0 0
2969 1 -14.91528194814376 1.8178308829998049 2.8403925337053653 0 0 0
2840 1 -9.789403441180998 0.5790298356651835 1.2826822359280563 0 0 0
2905 1 -11.442214548597962 1.8930518154248113 0.2319661912498663 0 0 0
2908 1 -11.442214548411359 1.8930518153899087 2.720266191556363 0 0 0
2839 1 -7.905567850864366 1.6484496226178005 0.15567391577144005 0 0 0
2842 1 -7.905567850966674 1.6484496226101155 2.6439739157874653 0 0 0
2845 1 -9.617406694539861 3.0497004621036257 1.492045717447084 0 0 0
2773 1 -4.317283166885551 1.858725299229197 0.23778421262983201 0 0 0
2774 1 -6.028707103667799 0.6014177347455831 1.2861663881029302 0 0 0
2776 1 -4.317283166923689 1.8587252991848193 2.726084212683671 0 0 0
2779 1 -6.153635387248762 3.038470229843455 1.5006329194269283 0 0 0
2707 1 -0.853544369039815 1.8642302091109526 0.3620768283724442 0 0 0
2708 1 -2.5662903210555874 0.6630140035147714 1.5530906274890153 0 0 0
2710 1 -0.8535443685716478 1.8642302089340195 2.850376827742871 0 0 0
2713 1 -2.590456181125945 3.1407759170493406 1.541188070883238 0 0 0
8043 1 -16.685136924627663 5.585752840205774 1.5460877316788901 1 0 0
8075 1 -18.428992598407113 4.32715784121111 2.8008724253581008 1 0 0
8092 1 -18.428992598438548 4.327157841269301 0.31257242543386554 1 0 0
8093 1 -18.442641270899607 6.8236629603490435 0.2981910440557105 1 0 0
8096 1 -18.442641270807975 6.823662960368138 2.786491044140222 1 0 0
2928 1 -13.160737024617399 5.588356008446589 1.5357814306605406 0 0 0
2970 1 -14.939266071395753 4.33736575471441 2.7916292132912797 0 0 0
2978 1 -14.939266071378599 4.3373657546036855 0.3033292135075869 0 0 0
2979 1 -14.92236380994539 6.825172454387733 0.29506241663905447 0 0 0
2980 1 -14.922363809977654 6.825172454431736 2.783362416657744 0 0 0
2909 1 -11.387143711711012 4.331154942660282 2.7684216339732832 0 0 0
2926 1 -11.387143711769903 4.331154942633938 0.28012163406280105 0 0 0
2927 1 -11.388976017888 6.812604118783465 0.28852256333343096 0 0 0
2930 1 -11.388976017873034 6.812604118759686 2.7768225633701564 0 0 0
2843 1 -7.882336949482533 4.267166391499322 2.752173594325987 0 0 0
2860 1 -7.882336949476683 4.267166391514918 0.263873594419326 0 0 0
2861 1 -7.8798488079007365 6.793563299634578 0.2852064518819471 0 0 0
2862 1 -9.625388135331496 5.554343217235867 1.5243851107230166 0 0 0
2864 1 -7.8798488079028655 6.793563299598504 2.7735064518166035 0 0 0
2777 1 -4.385478679854679 4.318255189050987 2.7721027865875536 0 0 0
2794 1 -4.385478679711161 4.318255189052559 0.28380278639510104 0 0 0
2795 1 -4.370773684329564 6.803892652926859 0.2898887903048681 0 0 0
2796 1 -6.1379367265173 5.549812924080672 1.525282923235787 0 0 0
2798 1 -4.370773684301412 6.803892652953851 2.778188790243787 0 0 0
2711 1 -0.8129431339439448 4.332721016358751 2.7954320661484275 0 0 0
2728 1 -0.8129431340195078 4.332721016305735 0.30713206602206194 0 0 0
2729 1 -0.8287655567832292 6.81051481237372 0.2975434386907612 0 0 0
2730 1 -2.6008905489804626 5.579363144740769 1.53858278344921 0 0 0
2732 1 -0.8287655567500192 6.810514812320918 2.7858434385059976 0 0 0
8046 1 -16.682341071951832 8.069573123886927 1.5393518413604808 1 0 0
8055 1 -16.68072668092147 10.553062665711641 1.5380451777719983 1 0 0
8097 1 -18.444229772319897 9.310235429519285 2.7829886084921207 1 0 0
8115 1 -18.444229772353413 9.310235429557192 0.2946886086534646 1 0 0
2933 1 -13.154245206365493 8.064055772738225 1.5363642477081734 0 0 0
2951 1 -13.154722684417246 10.54920995522214 1.5371019344573642 0 0 0
2981 1 -14.91764707805081 9.30885344112194 2.7818201571801815 0 0 0
2989 1 -14.917647078039359 9.30885344111326 0.2935201572615433 0 0 0
2931 1 -11.392409227294658 9.301483895908364 2.780043491506732 0 0 0
2949 1 -11.392409227361975 9.301483895813641 0.2917434915366678 0 0 0
2865 1 -7.877183314686705 9.294213488874627 2.7793602157990316 0 0 0
2867 1 -9.632337696019853 8.05115550531048 1.5334553414115617 0 0 0
2883 1 -7.877183314639545 9.294213488812439 0.2910602159479064 0 0 0
2885 1 -9.634193885160633 10.543568273049704 1.5363680791958998 0 0 0
2799 1 -4.360975081904866 9.293369292563781 2.780801541442207 0 0 0
2801 1 -6.124401361507368 8.047188034091672 1.5340004615071041 0 0 0
2817 1 -4.360975081898185 9.29336929253277 0.2925015414070064 0 0 0
2819 1 -6.117874339436668 10.539739409779326 1.5366514236454192 0 0 0
2733 1 -0.8343717522058275 9.29521256054023 2.7831216618396377 0 0 0
2735 1 -2.5996596338956355 8.052260684442789 1.5378133415863362 0 0 0
2751 1 -0.834371752274312 9.2952125605821 0.29482166185454595 0 0 0
2753 1 -2.5970853224272763 10.538853901609631 1.537869501510021 0 0 0
8058 1 -16.680402449753764 13.038483869757076 1.5379208180529689 1 0 0
8116 1 -18.443283176956168 11.795779357984662 0.29400206867832124 1 0 0
8119 1 -18.443283176959696 11.7957793580036 2.7823020685302637 1 0 0
2955 1 -13.156096070592318 13.036399873845358 1.5375765481137127 0 0 0
2990 1 -14.917610270666357 11.794268516806419 0.2935083197463403 0 0 0
2991 1 -14.917610270742138 11.79426851674675 2.7818083197383703 0 0 0
2950 1 -11.394374435170889 11.790634145723448 0.2929798202214064 0 0 0
2953 1 -11.394374435096653 11.790634145669653 2.781279820152651 0 0 0
2884 1 -7.875331603281438 11.786671469151813 0.2928637919972148 0 0 0
2887 1 -7.875331603315368 11.786671469102236 2.7811637919307874 0 0 0
2889 1 -9.634660460433384 13.033478143724421 1.5373794029815593 0 0 0
2818 1 -4.356502479157324 11.783908433155382 0.29336998596791675 0 0 0
2821 1 -4.356502479180162 11.783908433053336 2.7816699858640312 0 0 0
2823 1 -6.115175163128031 13.03039733175209 1.5375241014970142 0 0 0
2752 1 -0.8347158853027032 11.783586848429248 0.29417587213376073 0 0 0
2755 1 -0.8347158853665568 11.783586848414684 2.7824758720018172 0 0 0
2757 1 -2.595049169563788 13.02846143815164 1.5379679040539764 0 0 0
8029 1 -16.689798112258604 0.5901811774665815 6.806834441876103 1 0 0
8030 1 -16.68979811224813 0.5901811774312902 4.318534441842768 1 0 0
8031 1 -16.67825194646857 3.0849607919866298 6.551519215584787 1 0 0
8034 1 -16.678251946564135 3.084960791940898 4.063219215543134 1 0 0
8065 1 -18.435100759527117 1.8132540320236417 5.385151984651778 1 0 0
2900 1 -13.14483997407445 0.6656119548597282 6.523346919368567 0 0 0
2901 1 -13.14483997397517 0.6656119549454891 4.035046919392467 0 0 0
2904 1 -13.188086388525294 3.1377065711049905 6.511473406701387 0 0 0
2910 1 -13.188086388412403 3.1377065709111904 4.023173406894349 0 0 0
2965 1 -14.915281948161452 1.8178308830404153 5.328692533736375 0 0 0
2834 1 -9.789403441243772 0.5790298356882543 6.259282235915419 0 0 0
2835 1 -9.789403441260847 0.5790298361034205 3.770982235780858 0 0 0
2899 1 -11.442214548522433 1.8930518154832874 5.208566191223497 0 0 0
2833 1 -7.905567850943522 1.6484496226288932 5.1322739158067625 0 0 0
2838 1 -9.617406694590535 3.049700462039394 6.468645717387528 0 0 0
2844 1 -9.61740669473745 3.0497004618525083 3.980345717372129 0 0 0
2767 1 -4.31728316689059 1.8587252992179224 5.214384212697468 0 0 0
2768 1 -6.0287071036865445 0.6014177347525386 6.262766388138443 0 0 0
2769 1 -6.028707103685897 0.6014177344437986 3.7744663882377454 0 0 0
2772 1 -6.1536353872818506 3.0384702298551316 6.477232919309121 0 0 0
2778 1 -6.153635387179023 3.038470229989456 3.988932919351338 0 0 0
2701 1 -0.8535443690575109 1.8642302091400118 5.338676828375243 0 0 0
2702 1 -2.5662903209138497 0.6630140035302763 6.529690627579153 0 0 0
2703 1 -2.5662903211100088 0.6630140036452228 4.0413906275823335 0 0 0
2706 1 -2.590456181071369 3.1407759170526437 6.51778807081222 0 0 0
2712 1 -2.5904561811374567 3.140775917164959 4.029488071192187 0 0 0
8036 1 -16.685136924671465 5.585752840216087 6.522687731674572 1 0 0
8037 1 -16.68513692473509 5.585752840341825 4.0343877316890415 1 0 0
8078 1 -18.428992598423964 4.327157841263265 5.289172425412304 1 0 0
8079 1 -18.442641270807673 6.823662960323028 5.274791044109186 1 0 0
2914 1 -13.160737024575987 5.5883560084757065 6.51238143049712 0 0 0
2915 1 -13.160737024584037 5.588356008599458 4.024081430643787 0 0 0
2971 1 -14.939266071374965 4.337365754687069 5.279929213504399 0 0 0
2972 1 -14.922363809882373 6.825172454413801 5.271662416638872 0 0 0
2912 1 -11.387143711745438 4.331154942651926 5.256721634079633 0 0 0
2913 1 -11.388976017919582 6.812604118759369 5.265122563388445 0 0 0
2846 1 -7.882336949472443 4.267166391594993 5.240473594504035 0 0 0
2847 1 -7.8798488078887985 6.793563299559033 5.261806451913486 0 0 0
2848 1 -9.625388135329496 5.5543432172288725 6.500985110806122 0 0 0
2849 1 -9.625388135398683 5.554343217327131 4.012685110709837 0 0 0
2780 1 -4.385478679746285 4.318255189052382 5.260402786468099 0 0 0
2781 1 -4.370773684294161 6.803892652985521 5.266488790366627 0 0 0
2782 1 -6.137936726529964 5.549812924038239 6.5018829231922615 0 0 0
2783 1 -6.137936726458218 5.549812923945206 4.0135829231574 0 0 0
2714 1 -0.812943134038646 4.332721016307298 5.283732066112889 0 0 0
2715 1 -0.8287655568088924 6.81051481234733 5.27414343874869 0 0 0
2716 1 -2.600890549031494 5.579363144809724 6.515182783399799 0 0 0
2717 1 -2.600890549022735 5.579363144618888 4.026882783442275 0 0 0
8038 1 -16.682341071972157 8.069573123933813 6.515951841403605 1 0 0
8045 1 -16.682341072008594 8.069573123817603 4.027651841480698 1 0 0
8047 1 -16.68072668089427 10.553062665702962 6.514645177814254 1 0 0
8048 1 -16.680726680984492 10.553062665769376 4.026345177793742 1 0 0
8100 1 -18.44422977232508 9.31023542947902 5.2712886086130695 1 0 0
2918 1 -13.15424520639925 8.064055772743545 6.512964247714118 0 0 0
2932 1 -13.154245206414647 8.064055772665343 4.024664247788753 0 0 0
2936 1 -13.154722684458712 10.549209955200551 6.513701934562027 0 0 0
2937 1 -13.154722684374976 10.549209955259762 4.025401934546413 0 0 0
2982 1 -14.917647078063045 9.30885344107001 5.270120157338832 0 0 0
2934 1 -11.392409227383617 9.301483895836903 5.26834349158133 0 0 0
2852 1 -9.632337696013739 8.051155505277823 6.51005534139414 0 0 0
2866 1 -9.632337696030032 8.05115550528126 4.021755341423858 0 0 0
2868 1 -7.877183314659261 9.294213488801697 5.26766021589165 0 0 0
2870 1 -9.63419388522019 10.543568273101203 6.512968079152074 0 0 0
2871 1 -9.634193885169399 10.54356827312549 4.024668079163523 0 0 0
2786 1 -6.124401361522581 8.047188034159998 6.510600461582418 0 0 0
2800 1 -6.1244013614670205 8.047188034197431 4.022300461514038 0 0 0
2802 1 -4.360975081925187 9.293369292492772 5.269101541415115 0 0 0
2804 1 -6.117874339425065 10.539739409760081 6.513251423656726 0 0 0
2805 1 -6.117874339407476 10.539739409777848 4.024951423663011 0 0 0
2720 1 -2.5996596338750835 8.052260684450498 6.51441334166193 0 0 0
2734 1 -2.599659633927182 8.052260684510763 4.026113341711835 0 0 0
2736 1 -0.8343717522624503 9.29521256057577 5.271421661856984 0 0 0
2738 1 -2.597085322415346 10.538853901667922 6.514469501504209 0 0 0
2739 1 -2.5970853223705035 10.538853901533006 4.0261695015330075 0 0 0
8049 1 -16.68040244982946 13.038483869749816 6.514520818116618 1 0 0
8057 1 -16.68040244982677 13.038483869772842 4.026220818171688 1 0 0
8101 1 -18.443283176946974 11.79577935799488 5.270602068476586 1 0 0
2939 1 -13.156096070628108 13.036399873893664 6.514176548151692 0 0 0
2954 1 -13.156096070568593 13.036399873865879 4.025876548221898 0 0 0
2983 1 -14.917610270707355 11.79426851682323 5.27010831975531 0 0 0
2935 1 -11.394374435038015 11.790634145712382 5.269579820195142 0 0 0
2869 1 -7.87533160330052 11.786671469181643 5.269463791907628 0 0 0
2873 1 -9.634660460451013 13.03347814370521 6.513979402995538 0 0 0
2888 1 -9.634660460444222 13.033478143630996 4.025679402963797 0 0 0
2803 1 -4.35650247917533 11.783908433141042 5.269969985920565 0 0 0
2807 1 -6.115175163061423 13.030397331723348 6.514124101425428 0 0 0
2822 1 -6.115175163064204 13.030397331812534 4.025824101539727 0 0 0
2737 1 -0.8347158853742105 11.783586848457329 5.270775872092063 0 0 0
2741 1 -2.5950491695578775 13.028461438179598 6.514567904052171 0 0 0
2756 1 -2.5950491695467757 13.02846143822262 4.026267904150614 0 0 0
8436 1 -16.68063246112567 15.525184676403946 -5.926919622801637 1 0 0
8455 1 -18.44276507237365 14.282044123902795 -7.170992219915954 1 0 1
8461 1 -18.442734398771712 16.768990516063354 -7.17098102440477 1 0 1
8480 1 -18.44276507236542 14.282044123963294 -4.682692219887782 1 0 0
8481 1 -18.442734398771865 16.768990516101088 -4.6826810244624015 1 0 0
3251 1 -13.157110155677815 15.524059652883588 -5.927061101569275 0 0 0
3289 1 -14.918361944192384 14.281038458217616 -7.171218363985852 0 0 1
3293 1 -14.919035461105581 16.768432858284417 -7.171089267879819 0 0 1
3304 1 -14.91836194418157 14.281038458227748 -4.682918363911399 0 0 0
3305 1 -14.919035461096211 16.76843285825548 -4.682789267980239 0 0 0
3223 1 -11.395481692494373 14.279146499946702 -7.171396823710778 0 0 1
3229 1 -11.396223676020002 16.767350166633307 -7.171158176111497 0 0 1
3248 1 -11.395481692487243 14.279146499896166 -4.683096823722958 0 0 0
3249 1 -11.396223676027084 16.7673501666467 -4.682858176087476 0 0 0
3157 1 -7.874591075312551 14.27664038837347 -7.171404284490936 0 0 1
3163 1 -7.874532385531034 16.76572858737936 -7.171150062541899 0 0 1
3182 1 -7.874591075374845 14.276640388340045 -4.6831042845278485 0 0 0
3183 1 -7.874532385538882 16.765728587446876 -4.68285006262529 0 0 0
3185 1 -9.635029740836732 15.522339809831664 -5.927120062569945 0 0 0
3091 1 -4.354527086908092 14.274174938140156 -7.171198521439405 0 0 1
3097 1 -4.3537171742855545 16.763920335021595 -7.171058099306229 0 0 1
3116 1 -4.3545270868854065 14.27417493813421 -4.682898521501389 0 0 0
3117 1 -4.353717174271307 16.76392033507602 -4.682758099331719 0 0 0
3119 1 -6.114209271699004 15.520144318995778 -5.927046774079214 0 0 0
3025 1 -0.8338416266705694 14.273130787520792 -7.1708816272232845 0 0 1
3031 1 -0.8330704781740097 16.762833259088357 -7.170919903982111 0 0 1
3050 1 -0.8338416266342897 14.273130787462653 -4.682581627327434 0 0 0
3051 1 -0.8330704781617287 16.7628332591009 -4.682619904035899 0 0 0
3053 1 -2.593801838508328 15.518373192442734 -5.926863426485599 0 0 0
8445 1 -16.680994610637768 18.012514514932654 -5.926860656117369 1 0 0
8447 1 -16.681333479226833 20.50018444735437 -5.926824175177062 1 0 0
8462 1 -18.442876630082733 19.256402291538937 -7.170961500448063 1 0 1
8502 1 -18.442876630044303 19.256402291495007 -4.6826615005489876 1 0 0
3269 1 -13.157818635792939 18.01189517448158 -5.926924178302284 0 0 0
3273 1 -13.15836217831961 20.499855120798422 -5.92685426183951 0 0 0
3294 1 -14.919567748848 19.256131550222882 -7.17101454672135 0 0 1
3315 1 -14.91956774884681 19.256131550271988 -4.682714546832326 0 0 0
3230 1 -11.396809603670338 19.255491962425964 -7.1710442245210455 0 0 1
3270 1 -11.396809603654882 19.255491962413373 -4.682744224538109 0 0 0
3164 1 -7.874783642231675 19.254461481471626 -7.17103735665074 0 0 1
3203 1 -9.63546738529597 18.01082961957642 -5.9269443261672246 0 0 0
3204 1 -7.874783642205418 19.2544614814111 -4.68273735666547 0 0 0
3207 1 -9.635929818033048 20.49920558661332 -5.926862139741646 0 0 0
3098 1 -4.353497629651839 19.2532426742475 -7.170993863032962 0 0 1
3137 1 -6.11401382412986 18.00936405611979 -5.92690737674856 0 0 0
3138 1 -4.353497629659478 19.25324267415276 -4.682693863135048 0 0 0
3141 1 -6.114158524389626 20.49827576709268 -5.926843549912268 0 0 0
3032 1 -0.8326194508037222 19.25237091969394 -7.1709294901037195 0 0 1
3071 1 -2.593184650143629 18.00802313082046 -5.926824699278561 0 0 0
3072 1 -0.8326194507551101 19.252370919739054 -4.6826294901398375 0 0 0
3075 1 -2.5929740739552654 20.497359585197994 -5.926804279261558 0 0 0
8452 1 -16.681610922994626 22.98807848042175 -5.92680423298827 1 0 0
8477 1 -18.44303563308223 21.744128385316706 -7.170948398475461 1 0 1
8478 1 -18.443165293831957 24.232076917153982 -7.170941037989338 1 0 1
8503 1 -18.44303563309935 21.744128385346748 -4.682648398470863 1 0 0
8516 1 -18.44316529386694 24.23207691718965 -4.682641037950565 1 0 0
3283 1 -13.15880437801044 22.987926469919476 -5.926818902221592 0 0 0
3302 1 -14.919991141036713 21.74402383119481 -7.1709747055024975 0 0 1
3303 1 -14.920329402793442 24.23206575950972 -7.170954158981985 0 0 1
3316 1 -14.919991140975327 21.744023831136996 -4.682674705513086 0 0 0
3322 1 -14.920329402772586 24.23206575947592 -4.682654159013542 0 0 0
3245 1 -11.397309753981686 21.74366390886415 -7.170988431881855 0 0 1
3246 1 -11.39774084631345 24.231891870125732 -7.170960767647435 0 0 1
3271 1 -11.397309753935088 21.743663908868722 -4.682688431829138 0 0 0
3284 1 -11.397740846376783 24.231891870101983 -4.682660767656022 0 0 0
3179 1 -7.875148195935138 21.74304031844213 -7.170984321785751 0 0 1
3180 1 -7.875531283926942 24.231549544470344 -7.170958545347866 0 0 1
3205 1 -7.875148195930331 21.74304031848065 -4.6826843216222915 0 0 0
3217 1 -9.636374875166997 22.987559970971116 -5.9268223215475 0 0 0
3218 1 -7.875531283994379 24.23154954444369 -4.68265854539987 0 0 0
3113 1 -4.353569827287247 21.74227232591347 -7.17096312416086 0 0 1
3114 1 -4.353766351653703 24.231104815240364 -7.170948059228508 0 0 1
3139 1 -4.353569827271816 21.74227232591131 -4.682663124137419 0 0 0
3151 1 -6.114438080358786 22.98700864708797 -5.926812980295519 0 0 0
3152 1 -4.353766351703409 24.231104815323587 -4.682648059293177 0 0 0
3047 1 -0.8324197163396005 21.74166411844259 -7.17093201673177 0 0 1
3048 1 -0.8323675187788283 24.230722436655544 -7.170932741208455 0 0 1
3073 1 -0.8324197163291901 21.74166411850114 -4.68263201666812 0 0 0
3085 1 -2.592985232204211 22.9864344574455 -5.926793806880957 0 0 0
3086 1 -0.8323675188037921 24.230722436685785 -4.682632741216153 0 0 0
8454 1 -16.681826960992165 25.476139047926175 -5.926793835645805 1 0 0
8500 1 -18.44325884859309 26.720189777418273 -7.17093715172846 1 0 1
8517 1 -18.44325884860598 26.720189777379336 -4.682637151691839 1 0 0
8836 1 -16.681989873716812 27.964328209826437 -5.9267885255850175 1 0 0
3287 1 -13.15916742224226 25.476097643196876 -5.92680109155209 0 0 0
3314 1 -14.920597070435036 26.72022921889143 -7.1709437169348496 0 0 1
3323 1 -14.920597070430995 26.720229218936502 -4.6826437169124 0 0 0
3589 1 -13.15946051123086 27.96435387904879 -5.926792140137062 0 0 0
3268 1 -11.398104409196009 26.720177964904288 -7.1709469632278955 0 0 1
3285 1 -11.398104409168916 26.720177964993095 -4.682646963143697 0 0 0
3202 1 -7.8758858988778995 26.72002597253929 -7.170945811635623 0 0 1
3219 1 -7.875885898919766 26.72002597255399 -4.682645811530785 0 0 0
3221 1 -9.636776349665103 25.475924565335195 -5.926802679507417 0 0 0
3523 1 -9.63711960440077 27.964308530282267 -5.926792906642141 0 0 0
3136 1 -4.35399528082202 26.719801929025515 -7.170940587507255 0 0 1
3153 1 -4.353995280857552 26.719801929079818 -4.682640587409128 0 0 0
3155 1 -6.114749462929339 25.475633889196136 -5.926797990948001 0 0 0
3457 1 -6.115040725315736 27.964190511841384 -5.926790553210524 0 0 0
3070 1 -0.8323864694374494 26.719585317052115 -7.170932972480728 0 0 1
3087 1 -0.8323864694789028 26.719585317057238 -4.682632972433769 0 0 0
3089 1 -2.593095145905398 25.47530826403903 -5.926788499793833 0 0 0
3391 1 -2.593233317415789 27.96403246543551 -5.926785821909111 0 0 0
8429 1 -16.680632461176508 15.525184676436652 -0.9503196227960955 1 0 0
8435 1 -16.68063246116824 15.525184676372884 -3.4386196227290586 1 0 0
8464 1 -18.4427650723811 14.282044123933014 -2.1943922199412023 1 0 0
8484 1 -18.442734398787756 16.76899051606729 -2.194381024390203 1 0 0
3236 1 -13.157110155656142 15.524059652863155 -0.9504611016660294 0 0 0
3250 1 -13.15711015572071 15.524059652921741 -3.4387611015308495 0 0 0
3295 1 -14.918361944097027 14.281038458241321 -2.1946183639974532 0 0 0
3306 1 -14.919035461090242 16.76843285820684 -2.194489267954755 0 0 0
3232 1 -11.39548169243763 14.279146499881149 -2.1947968237142383 0 0 0
3252 1 -11.39622367606291 16.767350166646107 -2.1945581761520088 0 0 0
3166 1 -7.874591075339577 14.276640388352408 -2.194804284512854 0 0 0
3170 1 -9.635029740795726 15.522339809795014 -0.9505200625119214 0 0 0
3184 1 -9.635029740770666 15.522339809763391 -3.438820062471424 0 0 0
3186 1 -7.874532385552381 16.7657285873725 -2.19455006263354 0 0 0
3100 1 -4.354527086916589 14.274174938171305 -2.194598521466009 0 0 0
3104 1 -6.1142092716785195 15.520144318950573 -0.9504467741510731 0 0 0
3118 1 -6.114209271665803 15.520144318954046 -3.4387467740364572 0 0 0
3120 1 -4.3537171742620675 16.763920334960915 -2.1944580993862552 0 0 0
3034 1 -0.833841626683625 14.273130787523543 -2.194281627211859 0 0 0
3038 1 -2.593801838445644 15.518373192473504 -0.9502634264373194 0 0 0
3052 1 -2.593801838438943 15.518373192533955 -3.438563426336667 0 0 0
3054 1 -0.8330704781559041 16.76283325907986 -2.1943199040663983 0 0 0
8437 1 -16.68099461065433 18.012514514860534 -0.9502606562295829 1 0 0
8438 1 -16.68099461068069 18.01251451487142 -3.4385606562223567 1 0 0
8440 1 -16.681333479246906 20.50018444726961 -0.9502241751463381 1 0 0
8446 1 -16.681333479269057 20.500184447370827 -3.438524175200669 1 0 0
8485 1 -18.442876630076707 19.256402291492478 -2.194361500558772 1 0 0
3254 1 -13.157818635813737 18.011895174501213 -0.9503241783787306 0 0 0
3255 1 -13.157818635879131 18.01189517448498 -3.438624178344653 0 0 0
3259 1 -13.158362178348355 20.499855120778594 -0.9502542617976311 0 0 0
3272 1 -13.15836217839791 20.49985512080354 -3.438554261839083 0 0 0
3307 1 -14.919567748813154 19.256131550198116 -2.19441454679372 0 0 0
3253 1 -11.396809603553542 19.255491962472387 -2.1944442246256415 0 0 0
3187 1 -7.874783642287921 19.254461481502535 -2.194437356684556 0 0 0
3188 1 -9.635467385303857 18.01082961966547 -0.9503443261181999 0 0 0
3189 1 -9.63546738529593 18.01082961965954 -3.4386443260684585 0 0 0
3193 1 -9.635929818067641 20.499205586640834 -0.950262139687837 0 0 0
3206 1 -9.635929818105792 20.499205586642468 -3.4385621396528845 0 0 0
3121 1 -4.353497629670166 19.253242674186204 -2.1943938630540583 0 0 0
3122 1 -6.114013824121791 18.00936405608093 -0.9503073767314111 0 0 0
3123 1 -6.114013824118373 18.009364056040926 -3.4386073767548186 0 0 0
3127 1 -6.114158524298383 20.498275767118262 -0.9502435499736036 0 0 0
3140 1 -6.1141585243523915 20.498275767155853 -3.438543549929578 0 0 0
3055 1 -0.8326194507963943 19.25237091967723 -2.1943294901696606 0 0 0
3056 1 -2.5931846501133706 18.008023130820444 -0.9502246992581688 0 0 0
3057 1 -2.5931846500738645 18.008023130756293 -3.438524699257329 0 0 0
3061 1 -2.5929740739717277 20.49735958518183 -0.9502042793866887 0 0 0
3074 1 -2.5929740739494123 20.49735958527304 -3.4385042793493694 0 0 0
8448 1 -16.681610922993965 22.98807848043889 -0.9502042329657066 1 0 0
8449 1 -16.681610922985872 22.98807848043814 -3.438504232970817 1 0 0
8506 1 -18.443035633002655 21.74412838536202 -2.194348398419595 1 0 0
8507 1 -18.443165293802753 24.23207691717384 -2.1943410379777215 1 0 0
3276 1 -13.158804378020188 22.987926469955724 -0.9502189021965474 0 0 0
3277 1 -13.15880437804554 22.98792646994337 -3.438518902261151 0 0 0
3317 1 -14.919991141012115 21.744023831161563 -2.1943747054887823 0 0 0
3318 1 -14.920329402764008 24.232065759487377 -2.1943541589990683 0 0 0
3274 1 -11.397309753998346 21.743663908772316 -2.194388431802357 0 0 0
3275 1 -11.397740846391029 24.231891870175918 -2.1943607677115575 0 0 0
3208 1 -7.8751481959428675 21.743040318344843 -2.1943843217257606 0 0 0
3209 1 -7.875531283927447 24.23154954449379 -2.19435854532997 0 0 0
3210 1 -9.636374875132576 22.987559970928167 -0.9502223215233332 0 0 0
3211 1 -9.636374875112883 22.987559970951132 -3.4385223215658476 0 0 0
3142 1 -4.353569827309256 21.74227232592872 -2.1943631242529054 0 0 0
3143 1 -4.353766351701086 24.23110481530336 -2.194348059232645 0 0 0
3144 1 -6.1144380803521035 22.987008647059227 -0.9502129803284209 0 0 0
3145 1 -6.114438080330493 22.987008647005258 -3.43851298028359 0 0 0
3076 1 -0.8324197164082561 21.741664118458182 -2.1943320167374436 0 0 0
3077 1 -0.8323675187482017 24.230722436754558 -2.194332741210667 0 0 0
3078 1 -2.5929852321665035 22.98643445746656 -0.9501938069226715 0 0 0
3079 1 -2.5929852321909506 22.9864344573651 -3.438493806896332 0 0 0
8451 1 -16.68182696103044 25.47613904788439 -0.9501938356484748 1 0 0
8453 1 -16.681826961049964 25.476139047902723 -3.4384938356098864 1 0 0
8520 1 -18.44325884856757 26.720189777404244 -2.1943371517435226 1 0 0
8827 1 -16.6819898737458 27.96432820980844 -0.950188525592143 1 0 0
8828 1 -16.681989873761438 27.964328209746785 -3.4384885256326765 1 0 0
3281 1 -13.159167422252207 25.47609764313168 -0.9502010915501232 0 0 0
3286 1 -13.159167422234036 25.47609764322061 -3.438501091612519 0 0 0
3324 1 -14.920597070401215 26.720229218894413 -2.1943437169291196 0 0 0
3572 1 -13.159460511298548 27.96435387903148 -0.95019214010337 0 0 0
3573 1 -13.159460511296635 27.96435387905354 -3.4384921401354727 0 0 0
3288 1 -11.398104409137916 26.720177965008475 -2.1943469632064283 0 0 0
3215 1 -9.63677634962113 25.475924565379547 -0.9502026794831397 0 0 0
3220 1 -9.636776349667453 25.47592456539414 -3.4385026794997984 0 0 0
3222 1 -7.875885898876024 26.72002597257106 -2.194345811645637 0 0 0
3506 1 -9.63711960443188 27.964308530360206 -0.950192906624335 0 0 0
3507 1 -9.637119604424976 27.96430853031104 -3.4384929066166756 0 0 0
3149 1 -6.114749462895346 25.475633889219175 -0.9501979909027942 0 0 0
3154 1 -6.1147494629221235 25.47563388924195 -3.438497990963663 0 0 0
3156 1 -4.353995280870414 26.71980192906414 -2.194340587504211 0 0 0
3440 1 -6.115040725267056 27.96419051186626 -0.9501905532065216 0 0 0
3441 1 -6.115040725242562 27.964190511775364 -3.438490553326588 0 0 0
3083 1 -2.593095145937474 25.47530826398326 -0.9501884997671018 0 0 0
3088 1 -2.593095145892027 25.475308264053073 -3.4384884997950094 0 0 0
3090 1 -0.8323864695095116 26.71958531707191 -2.1943329725497938 0 0 0
3374 1 -2.593233317453861 27.964032465392236 -0.9501858219007363 0 0 0
3375 1 -2.5932333174130684 27.964032465445644 -3.438485821923785 0 0 0
8428 1 -16.680632461130042 15.52518467638929 1.5379803771945437 1 0 0
8456 1 -18.442765072366896 14.282044123978249 2.782207780053814 1 0 0
8465 1 -18.442765072377778 14.28204412390275 0.29390778009782875 1 0 0
8466 1 -18.44273439877428 16.768990516081747 0.29391897555440244 1 0 0
8469 1 -18.44273439877664 16.76899051610237 2.7822189755653945 1 0 0
3235 1 -13.157110155651587 15.5240596528869 1.537838898427286 0 0 0
3290 1 -14.91836194418128 14.281038458233137 2.7819816360731817 0 0 0
3296 1 -14.91836194417983 14.281038458202426 0.2936816360435001 0 0 0
3297 1 -14.91903546109266 16.76843285826885 0.2938107320975706 0 0 0
3298 1 -14.91903546108754 16.76843285824869 2.7821107320420926 0 0 0
3224 1 -11.395481692457144 14.279146499897475 2.781803176297367 0 0 0
3233 1 -11.395481692492822 14.279146499934368 0.29350317629892003 0 0 0
3234 1 -11.396223676014577 16.767350166664002 0.29374182386736747 0 0 0
3237 1 -11.396223676005802 16.767350166639563 2.7820418238991294 0 0 0
3158 1 -7.87459107538421 14.276640388357258 2.781795715497028 0 0 0
3167 1 -7.874591075332845 14.276640388371074 0.2934957154771256 0 0 0
3168 1 -7.874532385546451 16.765728587379787 0.2937499374277883 0 0 0
3169 1 -9.63502974085554 15.522339809830255 1.5377799374083962 0 0 0
3171 1 -7.87453238556224 16.765728587439995 2.782049937318681 0 0 0
3092 1 -4.354527086913507 14.274174938155467 2.782001478568849 0 0 0
3101 1 -4.354527086901011 14.274174938125068 0.29370147851802964 0 0 0
3102 1 -4.353717174290241 16.763920335015722 0.2938419007070203 0 0 0
3103 1 -6.114209271723067 15.52014431903564 1.5378532259044613 0 0 0
3105 1 -4.35371717428597 16.76392033506076 2.782141900637484 0 0 0
3026 1 -0.8338416266498926 14.27313078748964 2.782318372718501 0 0 0
3035 1 -0.8338416266764876 14.273130787497202 0.294018372730546 0 0 0
3036 1 -0.8330704781651398 16.76283325910748 0.29398009603408115 0 0 0
3037 1 -2.593801838512032 15.518373192514133 1.5380365735373172 0 0 0
3039 1 -0.8330704781754983 16.762833259112433 2.782280095917614 0 0 0
8431 1 -16.680994610631178 18.01251451494202 1.5380393438255433 1 0 0
8439 1 -16.681333479227717 20.500184447353025 1.5380758248351947 1 0 0
8470 1 -18.442876630043475 19.25640229150255 2.782238499429523 1 0 0
8488 1 -18.442876630089415 19.256402291543683 0.2939384995547301 1 0 0
3240 1 -13.15781863576905 18.011895174477225 1.5379758216519066 0 0 0
3258 1 -13.158362178306897 20.499855120811596 1.5380457381388766 0 0 0
3299 1 -14.919567748834144 19.256131550265632 2.7821854531585215 0 0 0
3308 1 -14.919567748831692 19.256131550215336 0.29388545325564464 0 0 0
3238 1 -11.396809603650473 19.255491962425527 2.7821557754690027 0 0 0
3256 1 -11.396809603665305 19.255491962439034 0.29385577541235164 0 0 0
3172 1 -7.874783642209004 19.254461481420975 2.782162643337198 0 0 0
3174 1 -9.635467385291545 18.01082961960075 1.5379556737919142 0 0 0
3190 1 -7.874783642204548 19.25446148145344 0.29386264329208023 0 0 0
3192 1 -9.635929818027275 20.49920558664355 1.5380378602855274 0 0 0
3106 1 -4.353497629662678 19.253242674163438 2.7822061369128654 0 0 0
3108 1 -6.114013824126881 18.00936405606736 1.5379926232221497 0 0 0
3124 1 -4.353497629668927 19.253242674216747 0.29390613685563904 0 0 0
3126 1 -6.114158524379628 20.498275767115842 1.5380564500735758 0 0 0
3040 1 -0.8326194507779202 19.252370919755762 2.78227050987896 0 0 0
3042 1 -2.593184650168311 18.00802313075616 1.5380753006821613 0 0 0
3058 1 -0.8326194508170004 19.252370919690954 0.29397050978834477 0 0 0
3060 1 -2.5929740739889353 20.49735958523333 1.5380957207374082 0 0 0
8442 1 -16.681610922982575 22.988078480407207 1.5380957670019997 1 0 0
8489 1 -18.443035633086886 21.744128385333372 0.2939516015218355 1 0 0
8492 1 -18.443035633094066 21.744128385336193 2.7822516015305383 1 0 0
8493 1 -18.443165293876156 24.232076917173092 2.7822589620593834 1 0 0
8510 1 -18.443165293826528 24.232076917146387 0.29395896199718324 1 0 0
3263 1 -13.158804378012693 22.987926469890787 1.5380810977629693 0 0 0
3309 1 -14.919991141031886 21.744023831198266 0.29392529448084875 0 0 0
3310 1 -14.919991140970788 21.744023831113694 2.7822252944871377 0 0 0
3311 1 -14.920329402768497 24.2320657594755 2.782245840983799 0 0 0
3319 1 -14.920329402800133 24.23206575948607 0.29394584103538374 0 0 0
3257 1 -11.39730975397456 21.74366390886974 0.29391156816206165 0 0 0
3260 1 -11.397309753943578 21.74366390886269 2.7822115681548962 0 0 0
3261 1 -11.397740846369567 24.23189187012405 2.7822392323740597 0 0 0
3278 1 -11.397740846310331 24.231891870110612 0.2939392322991567 0 0 0
3191 1 -7.8751481959159495 21.743040318434822 0.29391567824563075 0 0 0
3194 1 -7.875148195940503 21.74304031848411 2.7822156783166485 0 0 0
3195 1 -7.875531283968545 24.23154954446526 2.7822414546132315 0 0 0
3197 1 -9.636374875169121 22.987559970977454 1.5380776784408396 0 0 0
3212 1 -7.875531283927433 24.231549544452147 0.2939414545877949 0 0 0
3125 1 -4.3535698272963215 21.742272325922567 0.2939368758592283 0 0 0
3128 1 -4.353569827257759 21.742272325883306 2.7822368757944997 0 0 0
3129 1 -4.353766351696358 24.231104815321068 2.782251940750848 0 0 0
3131 1 -6.11443808035032 22.987008647029405 1.5380870196614052 0 0 0
3146 1 -4.353766351653175 24.23110481523317 0.2939519407474644 0 0 0
3059 1 -0.8324197163723545 21.741664118449044 0.29396798329192425 0 0 0
3062 1 -0.8324197163449062 21.74166411847779 2.7822679832635364 0 0 0
3063 1 -0.8323675188134727 24.230722436676512 2.7822672588444664 0 0 0
3065 1 -2.592985232197798 22.986434457381954 1.5381061930773599 0 0 0
3080 1 -0.8323675187623314 24.23072243665816 0.29396725876481905 0 0 0
8450 1 -16.68182696100423 25.47613904789466 1.5381061643715408 1 0 0
8511 1 -18.4432588485938 26.720189777410006 0.2939628482787376 1 0 0
8514 1 -18.44325884859843 26.720189777351532 2.782262848276318 1 0 0
8823 1 -16.681989873739905 27.964328209788587 1.5381114743921733 1 0 0
3280 1 -13.159167422240907 25.476097643197754 1.5380989084553234 0 0 0
3320 1 -14.920597070446886 26.72022921887017 0.29395628309452004 0 0 0
3321 1 -14.920597070443861 26.720229218913648 2.782256283073561 0 0 0
3563 1 -13.159460511236457 27.964353879039525 1.5381078598263973 0 0 0
3279 1 -11.398104409200734 26.720177964916466 0.2939530368030187 0 0 0
3282 1 -11.398104409179082 26.72017796499822 2.782253036819168 0 0 0
3213 1 -7.875885898882305 26.720025972563835 0.29395418840453863 0 0 0
3214 1 -9.636776349660076 25.475924565376562 1.5380973204985746 0 0 0
3216 1 -7.875885898900735 26.720025972571957 2.7822541884278507 0 0 0
3497 1 -9.637119604393176 27.96430853028347 1.538107093331943 0 0 0
3147 1 -4.353995280824794 26.719801929035896 0.2939594125498032 0 0 0
3148 1 -6.114749462936801 25.47563388923424 1.5381020090760151 0 0 0
3150 1 -4.353995280855121 26.719801929063888 2.7822594125331976 0 0 0
3431 1 -6.115040725313175 27.96419051184078 1.5381094467520007 0 0 0
3081 1 -0.8323864694265024 26.719585317071186 0.29396702752217874 0 0 0
3082 1 -2.593095145889248 25.475308264085566 1.5381115002312935 0 0 0
3084 1 -0.8323864694623896 26.719585317021767 2.782267027489446 0 0 0
3365 1 -2.593233317413707 27.964032465381212 1.538114178052249 0 0 0
8425 1 -16.68063246118082 15.525184676414693 6.514580377212414 1 0 0
8426 1 -16.68063246116001 15.525184676384532 4.0262803772628635 1 0 0
8457 1 -18.442765072386436 14.28204412391225 5.270507780111997 1 0 0
8458 1 -18.44273439876668 16.768990516076038 5.270518975581209 1 0 0
3227 1 -13.15711015566538 15.52405965286192 6.514438898352622 0 0 0
3228 1 -13.157110155691429 15.52405965290805 4.026138898488797 0 0 0
3291 1 -14.918361944097787 14.281038458241362 5.270281636018153 0 0 0
3292 1 -14.919035461096275 16.768432858220095 5.270410732015853 0 0 0
3225 1 -11.39548169240666 14.279146499873162 5.27010317630975 0 0 0
3226 1 -11.396223676045555 16.76735016665515 5.270341823875624 0 0 0
3159 1 -7.8745910753339885 14.276640388333213 5.270095715468985 0 0 0
3160 1 -7.874532385564804 16.76572858739562 5.270349937401581 0 0 0
3161 1 -9.635029740774188 15.522339809794971 6.514379937544333 0 0 0
3162 1 -9.635029740766873 15.52233980977688 4.02607993752515 0 0 0
3093 1 -4.35452708695973 14.274174938143684 5.270301478466595 0 0 0
3094 1 -4.353717174287378 16.763920334985034 5.270441900671352 0 0 0
3095 1 -6.114209271711849 15.52014431898881 6.514453225890087 0 0 0
3096 1 -6.1142092716844525 15.520144318930917 4.026153225960029 0 0 0
3027 1 -0.8338416267118883 14.273130787513331 5.270618372746827 0 0 0
3028 1 -0.833070478185738 16.762833259100816 5.270580095965807 0 0 0
3029 1 -2.5938018384661454 15.518373192525821 6.514636573582815 0 0 0
3030 1 -2.593801838479581 15.518373192485083 4.026336573662529 0 0 0
8427 1 -16.680994610658143 18.012514514869657 6.514639343780475 1 0 0
8430 1 -16.68099461067329 18.012514514853283 4.026339343756915 1 0 0
8432 1 -16.681333479239797 20.500184447285243 6.514675824864332 1 0 0
8433 1 -16.68133347926323 20.500184447361942 4.026375824781472 1 0 0
8473 1 -18.442876630061054 19.256402291482736 5.270538499445605 1 0 0
3231 1 -13.157818635809596 18.011895174468773 6.514575821660358 0 0 0
3239 1 -13.157818635860462 18.011895174474866 4.026275821641732 0 0 0
3243 1 -13.158362178350547 20.499855120781838 6.514645738248906 0 0 0
3244 1 -13.15836217839716 20.499855120757474 4.026345738161123 0 0 0
3300 1 -14.919567748805216 19.25613155018292 5.270485453197676 0 0 0
3241 1 -11.396809603577973 19.25549196244169 5.270455775395011 0 0 0
3165 1 -9.635467385303949 18.01082961964598 6.514555673911081 0 0 0
3173 1 -9.63546738530565 18.010829619663873 4.026255673933337 0 0 0
3175 1 -7.874783642296457 19.25446148149923 5.270462643290939 0 0 0
3177 1 -9.635929818085756 20.499205586641377 6.514637860333623 0 0 0
3178 1 -9.63592981812422 20.499205586603118 4.02633786033667 0 0 0
3099 1 -6.114013824131737 18.00936405607093 6.5145926232853215 0 0 0
3107 1 -6.114013824110078 18.009364056092682 4.026292623257937 0 0 0
3109 1 -4.353497629663202 19.253242674195423 5.270506136929716 0 0 0
3111 1 -6.114158524310248 20.498275767170085 6.514656450081663 0 0 0
3112 1 -6.114158524362431 20.49827576711572 4.026356450072011 0 0 0
3033 1 -2.5931846501101417 18.008023130771242 6.51467530074906 0 0 0
3041 1 -2.59318465009625 18.008023130811864 4.026375300736524 0 0 0
3043 1 -0.8326194507966628 19.2523709196606 5.270570509796764 0 0 0
3045 1 -2.592974073941871 20.497359585244272 6.514695720680299 0 0 0
3046 1 -2.592974073933058 20.497359585205366 4.026395720652027 0 0 0
8434 1 -16.681610922986614 22.988078480443804 6.514695767049316 1 0 0
8441 1 -16.68161092298716 22.9880784804417 4.026395767027425 1 0 0
8474 1 -18.44303563301413 21.74412838535567 5.270551601580133 1 0 0
8496 1 -18.443165293811695 24.232076917142972 5.270558962051525 1 0 0
3247 1 -13.158804378031837 22.987926469937992 6.514681097807191 0 0 0
3262 1 -13.15880437805192 22.987926469959095 4.0263810977498515 0 0 0
3301 1 -14.919991141010167 21.744023831165222 5.270525294501402 0 0 0
3312 1 -14.920329402768031 24.23206575948982 5.270545840990116 0 0 0
3242 1 -11.397309754018217 21.74366390878822 5.270511568214508 0 0 0
3264 1 -11.39774084638612 24.231891870178686 5.270539232247754 0 0 0
3176 1 -7.875148195941058 21.74304031837979 5.270515678315541 0 0 0
3181 1 -9.636374875131716 22.987559970924774 6.514677678465712 0 0 0
3196 1 -9.636374875098888 22.987559970975582 4.026377678433988 0 0 0
3198 1 -7.875531283906166 24.231549544502965 5.270541454624352 0 0 0
3110 1 -4.35356982728781 21.742272325931147 5.2705368758299 0 0 0
3115 1 -6.114438080354802 22.987008647009947 6.514687019689621 0 0 0
3130 1 -6.114438080302123 22.987008647034248 4.0263870197047815 0 0 0
3132 1 -4.353766351694344 24.231104815261073 5.270551940706426 0 0 0
3044 1 -0.8324197164006893 21.741664118460758 5.270567983324282 0 0 0
3049 1 -2.5929852321584703 22.986434457396307 6.514706193090088 0 0 0
3064 1 -2.5929852321980005 22.98643445740493 4.0264061931144575 0 0 0
3066 1 -0.8323675187772416 24.230722436712316 5.270567258747021 0 0 0
8443 1 -16.68182696103869 25.476139047896503 6.514706164358115 1 0 0
8444 1 -16.681826961067156 25.476139047874863 4.026406164370461 1 0 0
8497 1 -18.443258848559985 26.720189777401536 5.2705628482740945 1 0 0
8821 1 -16.68198987372764 27.964328209816106 6.514711474412654 1 0 0
8822 1 -16.681989873777713 27.96432820972683 4.026411474363386 1 0 0
3266 1 -13.159167422243291 25.476097643154972 6.51469890845671 0 0 0
3267 1 -13.159167422238955 25.47609764320295 4.0263989083543015 0 0 0
3313 1 -14.9205970704032 26.720229218907335 5.270556283077028 0 0 0
3560 1 -13.159460511291238 27.964353879033474 6.514707859921204 0 0 0
3562 1 -13.159460511296517 27.964353879077525 4.026407859862382 0 0 0
3265 1 -11.398104409127185 26.720177965025893 5.270553036803399 0 0 0
3199 1 -7.87588589886168 26.720025972604585 5.27055418839653 0 0 0
3200 1 -9.636776349625697 25.475924565410217 6.514697320534888 0 0 0
3201 1 -9.636776349652331 25.475924565398945 4.026397320472357 0 0 0
3494 1 -9.63711960441085 27.964308530371294 6.514707093403061 0 0 0
3496 1 -9.637119604411872 27.96430853034781 4.026407093403692 0 0 0
3133 1 -4.353995280867214 26.71980192908617 5.270559412547438 0 0 0
3134 1 -6.114749462883108 25.47563388925036 6.51470200909575 0 0 0
3135 1 -6.114749462897453 25.475633889209682 4.026402009014448 0 0 0
3428 1 -6.11504072526152 27.964190511858224 6.514709446818997 0 0 0
3430 1 -6.1150407252405765 27.964190511837046 4.026409446699118 0 0 0
3067 1 -0.8323864695088867 26.719585317070756 5.270567027514305 0 0 0
3068 1 -2.5930951459439884 25.475308264023674 6.514711500226564 0 0 0
3069 1 -2.5930951459005716 25.47530826399483 4.026411500184095 0 0 0
3362 1 -2.5932333174550726 27.9640324653368 6.514714178122762 0 0 0
3364 1 -2.5932333173749096 27.96403246544955 4.0264141780717235 0 0 0
8838 1 -16.6821084124128 30.452616229295714 -5.926785841117073 1 0 0
8857 1 -18.4433203740082 29.208426304824926 -7.1709351585392325 1 0 1
8888 1 -18.443320373948275 29.208426304836053 -4.682635158453279 1 0 0
3593 1 -13.15969018256169 30.45267883313856 -5.92678764782258 0 0 0
3625 1 -14.920804308144493 29.208489966680855 -7.170938448083645 0 0 1
3640 1 -14.920804308151343 29.2084899666049 -4.682638448053316 0 0 0
3559 1 -11.39840076761289 29.208515397280554 -7.170940059840725 0 0 1
3590 1 -11.398400767618037 29.208515397254995 -4.682640059837978 0 0 0
3493 1 -7.876189460110696 29.208486087878228 -7.170939471624115 0 0 1
3524 1 -7.876189460165969 29.20848608783698 -4.682639471535388 0 0 0
3527 1 -9.637398946621971 30.452712108777053 -5.926788022812702 0 0 0
3427 1 -4.354209966473145 29.208404438706264 -7.170936859124406 0 0 1
3458 1 -4.354209966475024 29.208404438706683 -4.682636859161823 0 0 0
3461 1 -6.1152881664118635 30.452701559390142 -5.92678684275933 0 0 0
3361 1 -0.8324321917812292 29.20829829967877 -7.1709330548059365 0 0 1
3392 1 -0.8324321918150971 29.208298299644643 -4.682633054808329 0 0 0
3395 1 -2.593364712858114 30.452648706822426 -5.926784476531913 0 0 0
8847 1 -16.68219078039422 32.94097813279594 -5.926784485759851 1 0 0
8866 1 -18.44335658823761 31.696754929692222 -7.170934147532721 1 0 1
8867 1 -18.443374451306678 34.18514975582212 -7.170933635962936 1 0 1
8889 1 -18.443356588171103 31.69675492970657 -4.682634147506123 1 0 0
8908 1 -18.44337445129244 34.185149755758594 -4.682633635910855 1 0 0
3609 1 -13.159863343069004 32.941056587494124 -5.926785389623233 0 0 0
3629 1 -14.920959596693653 31.696826046420345 -7.170935794030981 0 0 1
3630 1 -14.921071046441332 34.18521799964639 -7.170934461230769 0 0 1
3641 1 -14.920959596726222 31.696826046498042 -4.682635794018414 0 0 0
3649 1 -14.921071046342417 34.18521799953456 -4.682634461171461 0 0 0
3568 1 -11.398632872655064 31.69689439640651 -7.170936598762136 0 0 1
3569 1 -11.398806687584637 34.185305059976145 -7.170934862407722 0 0 1
3591 1 -11.398632872640048 31.696894396432192 -4.682636598683231 0 0 0
3610 1 -11.398806687525225 34.18530505999245 -4.6826348622969345 0 0 0
3502 1 -7.876433994624106 31.69693775392306 -7.170936299688429 0 0 1
3503 1 -7.8766206845179205 34.18538530193438 -7.170934711157254 0 0 1
3525 1 -7.876433994546147 31.696937753984365 -4.682636299634788 0 0 0
3543 1 -9.637615579062473 32.94113237574177 -5.926785574958093 0 0 0
3544 1 -7.876620684496936 34.18538530187015 -4.682634711114823 0 0 0
3436 1 -4.35439043941821 31.69694130285478 -7.170934991189137 0 0 1
3437 1 -4.35453163414437 34.185434246016655 -7.1709340549547544 0 0 1
3459 1 -4.354390439375732 31.696941302850856 -4.682634991244645 0 0 0
3477 1 -6.115484535936928 32.94118235109197 -5.9267849815585825 0 0 0
3478 1 -4.354531634198663 34.18543424603523 -4.682634054905076 0 0 0
3370 1 -0.8324826397926898 31.696903344310325 -7.1709330894604255 0 0 1
3371 1 -0.8325284093642843 34.185435157023825 -7.170933100492298 0 0 1
3393 1 -0.8324826397527262 31.696903344258384 -4.682633089342853 0 0 0
3411 1 -2.593475157210993 32.94119020168789 -5.9267837970975386 0 0 0
3412 1 -0.8325284093541779 34.18543515698184 -4.682633100397104 0 0 0
8849 1 -16.682244674150745 35.42939277714784 -5.926783808792104 1 0 0
8854 1 -16.682277135286647 37.91784276220431 -5.92678347238649 1 0 0
8884 1 -18.443380124710288 36.67358956022295 -7.170933384551943 1 0 1
8909 1 -18.443380124716967 36.67358956022175 -4.6826333845484776 1 0 0
3613 1 -13.159987922669371 35.429472933907604 -5.9267842595253075 0 0 0
3621 1 -13.160072594739205 37.91791598614681 -5.926783699168919 0 0 0
3638 1 -14.921146773243038 36.67364925151516 -7.170933798676774 0 0 1
3650 1 -14.92114677322639 36.673649251553556 -4.682633798635729 0 0 0
3586 1 -11.398930400349228 36.673738676125474 -7.170933996911323 0 0 1
3611 1 -11.398930400246783 36.6737386761488 -4.682633996852951 0 0 0
3520 1 -7.876755955269759 36.67383156736981 -7.170933919973492 0 0 1
3545 1 -7.876755955320546 36.67383156736735 -4.682633919902603 0 0 0
3547 1 -9.637775467906636 35.42956582077893 -5.9267843506872255 0 0 0
3555 1 -9.637887286156975 37.91800931757023 -5.926783742442251 0 0 0
3454 1 -4.354636046639035 36.67389971371619 -7.170933588471036 0 0 1
3479 1 -4.354636046668859 36.6738997137235 -4.682633588397965 0 0 0
3481 1 -6.115631827977499 35.42964402153508 -5.926784052157627 0 0 0
3489 1 -6.115736607580722 37.91809489103962 -5.92678359003652 0 0 0
3388 1 -0.8325663445723033 36.67392044034448 -7.1709331044402145 0 0 1
3413 1 -0.8325663445907071 36.67392044043594 -4.682633104472352 0 0 0
3415 1 -2.5935613919539064 35.429682773772456 -5.926783455802733 0 0 0
3423 1 -2.593625173039091 37.91814570968522 -5.926783288484325 0 0 0
8856 1 -16.682294284646932 40.40631445141179 -5.926783308219717 1 0 0
8885 1 -18.443378509590403 39.162057591728725 -7.170933260895945 1 0 1
8920 1 -18.443378509619095 39.16205759172831 -4.68263326081973 1 0 0
9248 1 -18.443373139209076 41.65054133372252 -7.170933205901753 1 0 1
9263 1 -18.443373139199338 41.65054133375102 -4.6826332059087425 1 0 0
3624 1 -13.16012609665089 40.4063763261473 -5.926783423216108 0 0 0
3639 1 -14.921194680771933 39.16210633617546 -7.170933469743013 0 0 1
3654 1 -14.921194680791201 39.16210633620131 -4.682633469713282 0 0 0
3950 1 -14.921222007703397 41.65057889983939 -7.17093330958633 0 0 1
3959 1 -14.921222007683884 41.65057889985405 -4.682633309590194 0 0 0
3587 1 -11.399013316413498 39.16218815926023 -7.170933569907666 0 0 1
3622 1 -11.399013316386382 39.16218815922399 -4.6826335697365975 0 0 0
3884 1 -11.3990647637721 41.65064804666592 -7.170933362335272 0 0 1
3899 1 -11.399064763820565 41.65064804668807 -4.682633362264917 0 0 0
3521 1 -7.876848663014704 39.1622785622821 -7.170933529060386 0 0 1
3556 1 -7.876848663025391 39.162278562379896 -4.6826335289233585 0 0 0
3558 1 -9.637960697238618 40.40646035872865 -5.926783446564758 0 0 0
3818 1 -7.876908135254556 41.650727635752936 -7.1709333435856095 0 0 1
3833 1 -7.876908135290305 41.65072763573431 -4.682633343577941 0 0 0
3455 1 -4.35470936013355 39.1623497983972 -7.170933360227939 0 0 1
3490 1 -4.354709360134291 39.162349798394324 -4.682633360153614 0 0 0
3492 1 -6.115807061832972 40.40654097936083 -5.926783367589907 0 0 0
3752 1 -4.354758069621877 41.650792948986584 -7.170933259357131 0 0 1
3767 1 -4.354758069675594 41.650792949048444 -4.682633259375705 0 0 0
3389 1 -0.8325960866374612 39.162378576081345 -7.17093311745071 0 0 1
3424 1 -0.8325960866431614 39.16237857607462 -4.682633117381667 0 0 0
3426 1 -2.5936701287906265 40.40659273780636 -5.926783215252812 0 0 0
3686 1 -0.8326184119090396 41.65082289777243 -7.170933135759353 0 0 1
3701 1 -0.8326184119393673 41.65082289777164 -4.682633135770612 0 0 0
8830 1 -16.682108412423087 30.452616229241887 -0.9501858411474141 1 0 0
8837 1 -16.682108412448898 30.45261622932144 -3.4384858410743013 1 0 0
8869 1 -18.4433203739272 29.208426304864993 -2.1943351584366235 1 0 0
3577 1 -13.159690182551435 30.452678833187253 -0.9501876478221387 0 0 0
3592 1 -13.159690182637323 30.45267883308519 -3.438487647806432 0 0 0
3631 1 -14.920804308130782 29.20848996665285 -2.19433844810766 0 0 0
3571 1 -11.398400767619497 29.208515397281154 -2.194340059846981 0 0 0
3505 1 -7.876189460150643 29.208486087871417 -2.1943394715888775 0 0 0
3511 1 -9.6373989465724 30.452712108730495 -0.9501880227748503 0 0 0
3526 1 -9.637398946588156 30.452712108699153 -3.4384880228720016 0 0 0
3439 1 -4.354209966517662 29.20840443869922 -2.1943368591613384 0 0 0
3445 1 -6.115288166390715 30.452701559343407 -0.9501868426884709 0 0 0
3460 1 -6.11528816641696 30.452701559375583 -3.438486842743022 0 0 0
3373 1 -0.8324321919586755 29.2082982996599 -2.194333054778749 0 0 0
3379 1 -2.5933647128219772 30.452648706884858 -0.9501844765713774 0 0 0
3394 1 -2.5933647127634822 30.45264870694968 -3.4384844765278397 0 0 0
8839 1 -16.682190780377375 32.940978132803934 -0.9501844857418382 1 0 0
8840 1 -16.682190780443673 32.940978132836605 -3.438484485784292 1 0 0
8892 1 -18.44335658817195 31.69675492965935 -2.194334147526342 1 0 0
8893 1 -18.44337445126176 34.18514975578733 -2.194333635946971 1 0 0
3596 1 -13.159863343105608 32.941056587519085 -0.9501853895216715 0 0 0
3597 1 -13.159863343106798 32.94105658746838 -3.438485389639622 0 0 0
3642 1 -14.920959596710162 31.69682604644819 -2.194335794044192 0 0 0
3643 1 -14.921071046351102 34.18521799958509 -2.194334461211107 0 0 0
3594 1 -11.398632872645399 31.696894396407068 -2.1943365987475936 0 0 0
3595 1 -11.39880668752782 34.18530506000607 -2.194334862458468 0 0 0
3528 1 -7.876433994564813 31.696937753948305 -2.1943362997293065 0 0 0
3529 1 -7.876620684553962 34.185385301869246 -2.19433471117279 0 0 0
3530 1 -9.637615579114891 32.94113237578488 -0.9501855749271098 0 0 0
3531 1 -9.637615579051745 32.94113237575831 -3.4384855750081376 0 0 0
3462 1 -4.354390439400571 31.69694130281255 -2.1943349911654564 0 0 0
3463 1 -4.354531634154781 34.18543424601404 -2.1943340549510095 0 0 0
3464 1 -6.115484535943223 32.94118235106305 -0.9501849815140098 0 0 0
3465 1 -6.115484535910403 32.94118235113988 -3.4384849815556415 0 0 0
3396 1 -0.8324826398386316 31.69690334428218 -2.194333089452205 0 0 0
3397 1 -0.8325284094300821 34.185435156954014 -2.194333100401264 0 0 0
3398 1 -2.593475157187758 32.94119020172797 -0.9501837969527631 0 0 0
3399 1 -2.5934751571284727 32.941190201740056 -3.438483797058137 0 0 0
8842 1 -16.682244674122817 35.4293927771495 -0.9501838087584287 1 0 0
8848 1 -16.682244674151114 35.42939277707308 -3.438483808771112 1 0 0
8850 1 -16.682277135338015 37.91784276220406 -0.9501834723471685 1 0 0
8851 1 -16.682277135355825 37.91784276233022 -3.438483472342184 1 0 0
8912 1 -18.443380124705048 36.673589560201215 -2.194333384541264 1 0 0
3601 1 -13.159987922701852 35.42947293396075 -0.950184259536642 0 0 0
3612 1 -13.159987922641735 35.42947293393406 -3.4384842594950786 0 0 0
3616 1 -13.160072594805941 37.917915986158505 -0.9501836990489925 0 0 0
3617 1 -13.160072594736713 37.917915986277734 -3.438483699151021 0 0 0
3651 1 -14.921146773235895 36.67364925149639 -2.194333798610774 0 0 0
3614 1 -11.398930400262138 36.67373867610886 -2.1943339969398106 0 0 0
3535 1 -9.637775467843117 35.42956582078092 -0.9501843505993011 0 0 0
3546 1 -9.637775467882182 35.42956582079537 -3.438484350648427 0 0 0
3548 1 -7.876755955329249 36.673831567346895 -2.194333919969893 0 0 0
3550 1 -9.637887286187928 37.91800931756866 -0.9501837423329741 0 0 0
3551 1 -9.637887286099339 37.91800931760333 -3.438483742457776 0 0 0
3469 1 -6.115631827957358 35.42964402151406 -0.9501840521418566 0 0 0
3480 1 -6.115631827947572 35.42964402153102 -3.438484052175435 0 0 0
3482 1 -4.354636046645036 36.67389971370301 -2.194333588506979 0 0 0
3484 1 -6.115736607575973 37.918094891037605 -0.9501835899762293 0 0 0
3485 1 -6.115736607636226 37.918094891041996 -3.4384835900024195 0 0 0
3403 1 -2.593561391960799 35.42968277376426 -0.9501834558093156 0 0 0
3414 1 -2.593561391909228 35.42968277372019 -3.43848345579259 0 0 0
3416 1 -0.8325663446854397 36.6739204403498 -2.194333104406087 0 0 0
3418 1 -2.593625173051388 37.91814570966641 -0.9501832884510172 0 0 0
3419 1 -2.5936251730060937 37.91814570973484 -3.438483288484893 0 0 0
8853 1 -16.68229428468183 40.40631445145512 -0.9501833082467505 1 0 0
8855 1 -16.682294284687057 40.40631445133545 -3.4384833082869686 1 0 0
8913 1 -18.443378509569566 39.16205759172078 -2.1943332609849815 1 0 0
9264 1 -18.443373139156567 41.65054133365586 -2.194333205889724 1 0 0
3620 1 -13.160126096619312 40.40637632617464 -0.9501834231867758 0 0 0
3623 1 -13.160126096646165 40.406376326070564 -3.4384834232874564 0 0 0
3652 1 -14.921194680806007 39.16210633619771 -2.194333469824208 0 0 0
3960 1 -14.921222007673533 41.6505788998828 -2.194333309610611 0 0 0
3615 1 -11.399013316390308 39.16218815928449 -2.194333569846059 0 0 0
3900 1 -11.399064763802466 41.65064804672766 -2.1943333623317667 0 0 0
3549 1 -7.876848663064335 39.1622785623001 -2.1943335290910073 0 0 0
3554 1 -9.637960697293769 40.406460358754714 -0.9501834465195926 0 0 0
3557 1 -9.6379606972665 40.40646035864031 -3.4384834465808556 0 0 0
3834 1 -7.876908135308816 41.65072763574343 -2.1943333436185353 0 0 0
3483 1 -4.354709360217693 39.16234979846965 -2.194333360270346 0 0 0
3488 1 -6.115807061839326 40.40654097931517 -0.9501833675893012 0 0 0
3491 1 -6.115807061852678 40.406540979227714 -3.438483367562517 0 0 0
3768 1 -4.354758069671435 41.650792949042305 -2.1943332594094205 0 0 0
3417 1 -0.8325960866408761 39.16237857604626 -2.1943331175164364 0 0 0
3422 1 -2.5936701288060884 40.40659273775829 -0.950183215267648 0 0 0
3425 1 -2.5936701287359485 40.40659273780029 -3.438483215305918 0 0 0
3702 1 -0.832618411933419 41.650822897839745 -2.1943331357553046 0 0 0
8829 1 -16.682108412402663 30.452616229266425 1.5381141588746705 1 0 0
8859 1 -18.44332037394318 29.208426304844327 2.7822648415043245 1 0 0
8872 1 -18.443320374024648 29.208426304816314 0.29396484147634244 1 0 0
3576 1 -13.15969018258847 30.452678833121738 1.538112352176709 0 0 0
3626 1 -14.920804308173247 29.208489966583276 2.7822615518984373 0 0 0
3632 1 -14.920804308158441 29.208489966635575 0.2939615518826785 0 0 0
3561 1 -11.398400767613428 29.20851539726781 2.782259940158042 0 0 0
3574 1 -11.39840076760679 29.208515397273697 0.2939599401406482 0 0 0
3495 1 -7.876189460185702 29.208486087890254 2.7822605284910593 0 0 0
3508 1 -7.876189460114105 29.20848608785841 0.2939605283146315 0 0 0
3510 1 -9.63739894664188 30.452712108777625 1.5381119771702794 0 0 0
3429 1 -4.354209966450329 29.208404438714997 2.7822631408487015 0 0 0
3442 1 -4.3542099664624185 29.20840443868622 0.2939631408209442 0 0 0
3444 1 -6.115288166406064 30.45270155939832 1.5381131572325428 0 0 0
3363 1 -0.8324321918389458 29.20829829964948 2.7822669451959654 0 0 0
3376 1 -0.8324321917874532 29.208298299668307 0.2939669451399638 0 0 0
3378 1 -2.5933647128499593 30.45264870685523 1.538115523483823 0 0 0
8832 1 -16.682190780379084 32.94097813279393 1.5381155142644365 1 0 0
8873 1 -18.443356588201578 31.696754929702433 0.29396585243041373 1 0 0
8876 1 -18.443356588158878 31.69675492970419 2.7822658524943327 1 0 0
8877 1 -18.443374451270394 34.18514975577049 2.782266364073008 1 0 0
8896 1 -18.44337445130891 34.1851497558116 0.29396636406793075 1 0 0
3581 1 -13.159863343082048 32.94105658749694 1.5381146103611767 0 0 0
3633 1 -14.920959596694068 31.69682604641279 0.2939642059425527 0 0 0
3634 1 -14.920959596728329 31.696826046462792 2.782264206015238 0 0 0
3635 1 -14.921071046373637 34.185217999555434 2.7822655388011874 0 0 0
3644 1 -14.921071046456259 34.18521799962429 0.2939655388055977 0 0 0
3575 1 -11.39863287265988 31.69689439642973 0.293963401212205 0 0 0
3578 1 -11.398632872664887 31.69689439641551 2.78226340130211 0 0 0
3579 1 -11.398806687525104 34.18530506001211 2.7822651376681287 0 0 0
3598 1 -11.398806687568579 34.185305059966566 0.29396513759040027 0 0 0
3509 1 -7.87643399462936 31.696937753930253 0.29396370031422625 0 0 0
3512 1 -7.876433994553043 31.696937753964715 2.7822637003333934 0 0 0
3513 1 -7.876620684481239 34.18538530188441 2.7822652888790365 0 0 0
3515 1 -9.637615579056584 32.94113237574464 1.5381144250102177 0 0 0
3532 1 -7.8766206844966105 34.185385301929436 0.29396528884518575 0 0 0
3443 1 -4.354390439406064 31.69694130286247 0.2939650088171717 0 0 0
3446 1 -4.354390439358296 31.696941302830172 2.7822650087310894 0 0 0
3447 1 -4.354531634202698 34.185434246048686 2.782265945060556 0 0 0
3449 1 -6.115484535934897 32.941182351079746 1.5381150184180514 0 0 0
3466 1 -4.354531634145797 34.18543424599291 0.29396594506162754 0 0 0
3377 1 -0.8324826397746251 31.69690334432658 0.2939669105352427 0 0 0
3380 1 -0.8324826397604406 31.696903344227444 2.7822669106319116 0 0 0
3381 1 -0.8325284093752062 34.18543515699255 2.7822668996207263 0 0 0
3383 1 -2.593475157192717 32.941190201673415 1.5381162028997735 0 0 0
3400 1 -0.8325284093541568 34.185435157016435 0.29396689952138716 0 0 0
8841 1 -16.682244674162735 35.42939277711463 1.5381161911878176 1 0 0
8844 1 -16.682277135304535 37.91784276225236 1.5381165275964683 1 0 0
8897 1 -18.44338012472736 36.67358956022661 0.2939666153909465 1 0 0
8900 1 -18.443380124697438 36.67358956023254 2.782266615480138 1 0 0
3600 1 -13.159987922685012 35.4294729338903 1.5381157404474353 0 0 0
3605 1 -13.160072594738567 37.91791598620532 1.5381163008144292 0 0 0
3645 1 -14.921146773266752 36.673649251515634 0.2939662012672989 0 0 0
3646 1 -14.921146773257556 36.67364925156663 2.782266201388414 0 0 0
3599 1 -11.398930400348464 36.67373867613556 0.2939660030356134 0 0 0
3602 1 -11.398930400236605 36.67373867613784 2.782266003165642 0 0 0
3533 1 -7.876755955255058 36.67383156738211 0.293966079992096 0 0 0
3534 1 -9.637775467891117 35.429565820756416 1.5381156493038985 0 0 0
3536 1 -7.876755955345683 36.67383156736316 2.7822660801147427 0 0 0
3539 1 -9.637887286144222 37.918009317631565 1.538116257526349 0 0 0
3467 1 -4.354636046638609 36.67389971371854 0.2939664115109622 0 0 0
3468 1 -6.115631827981575 35.42964402153388 1.538115947840934 0 0 0
3470 1 -4.354636046662908 36.673899713721774 2.7822664116198887 0 0 0
3473 1 -6.115736607614187 37.91809489108477 1.5381164099402636 0 0 0
3401 1 -0.8325663445631976 36.673920440342094 0.29396689554758915 0 0 0
3402 1 -2.5935613919489184 35.42968277375401 1.5381165442029934 0 0 0
3404 1 -0.8325663445950693 36.67392044041801 2.782266895571852 0 0 0
3407 1 -2.593625173047715 37.9181457097169 1.5381167114974916 0 0 0
8852 1 -16.682294284627563 40.40631445134986 1.538116691753036 1 0 0
8901 1 -18.44337850962174 39.162057591735945 2.7822667391248745 1 0 0
8916 1 -18.44337850960743 39.162057591735774 0.29396673910004284 1 0 0
9251 1 -18.443373139205825 41.65054133370157 0.29396679403146164 1 0 0
9252 1 -18.44337313918714 41.650541333746794 2.782266794155396 1 0 0
3619 1 -13.160126096657796 40.40637632608894 1.538116576774805 0 0 0
3647 1 -14.921194680810565 39.16210633621556 2.7822665302299923 0 0 0
3653 1 -14.921194680785026 39.16210633617421 0.29396653030850484 0 0 0
3952 1 -14.921222007686758 41.650578899835025 0.29396669031643957 0 0 0
3953 1 -14.921222007669481 41.65057889985806 2.7822666904991413 0 0 0
3603 1 -11.399013316378273 39.16218815921052 2.782266430205976 0 0 0
3618 1 -11.3990133164125 39.16218815926534 0.2939664301377728 0 0 0
3887 1 -11.399064763760963 41.65064804667417 0.29396663754163754 0 0 0
3888 1 -11.399064763818428 41.650648046661324 2.7822666378031107 0 0 0
3537 1 -7.876848663030891 39.16227856238796 2.7822664710204608 0 0 0
3552 1 -7.876848663025946 39.16227856228615 0.29396647095587486 0 0 0
3553 1 -9.637960697239409 40.40646035865453 1.5381165534129544 0 0 0
3821 1 -7.8769081352607 41.6507276357744 0.29396665629316376 0 0 0
3822 1 -7.87690813529907 41.65072763572204 2.782266656495314 0 0 0
3471 1 -4.35470936016366 39.16234979838769 2.7822666397822204 0 0 0
3486 1 -4.354709360151657 39.16234979838361 0.29396663982761756 0 0 0
3487 1 -6.115807061848764 40.406540979288245 1.5381166323983222 0 0 0
3755 1 -4.354758069627585 41.6507929489815 0.29396674055094224 0 0 0
3756 1 -4.35475806967972 41.650792949003325 2.7822667406596193 0 0 0
3405 1 -0.8325960866293463 39.16237857606767 2.782266882584296 0 0 0
3420 1 -0.8325960866441728 39.16237857604761 0.29396688257189163 0 0 0
3421 1 -2.5936701287830215 40.40659273773628 1.5381167847336135 0 0 0
3689 1 -0.8326184119089207 41.650822897766105 0.29396686418579415 0 0 0
3690 1 -0.8326184119090229 41.65082289776867 2.7822668642569934 0 0 0
8824 1 -16.682108412429642 30.452616229258467 6.5147141588827004 1 0 0
8825 1 -16.68210841245544 30.452616229301977 4.026414158911961 1 0 0
8862 1 -18.443320373907664 29.20842630485369 5.270564841595372 1 0 0
3566 1 -13.159690182569653 30.452678833185495 6.514712352217568 0 0 0
3567 1 -13.159690182652207 30.452678833064038 4.026412352182045 0 0 0
3627 1 -14.920804308163383 29.208489966652895 5.270561551937438 0 0 0
3564 1 -11.398400767603096 29.208515397251233 5.2705599401761445 0 0 0
3498 1 -7.87618946015415 29.208486087899 5.2705605284285495 0 0 0
3500 1 -9.63739894658158 30.452712108745008 6.51471197726396 0 0 0
3501 1 -9.63739894660995 30.452712108722917 4.026411977109198 0 0 0
3432 1 -4.354209966497739 29.20840443868686 5.2705631408317 0 0 0
3434 1 -6.1152881663898535 30.452701559373764 6.514713157360973 0 0 0
3435 1 -6.115288166406668 30.45270155936899 4.026413157231672 0 0 0
3366 1 -0.8324321919742831 29.20829829963605 5.270566945203569 0 0 0
3368 1 -2.5933647128322375 30.45264870688925 6.51471552346543 0 0 0
3369 1 -2.593364712765885 30.45264870689005 4.026415523445347 0 0 0
8826 1 -16.682190780388176 32.94097813282187 6.514715514249857 1 0 0
8831 1 -16.682190780423902 32.940978132796296 4.026415514247088 1 0 0
8863 1 -18.443356588170413 31.696754929646996 5.270565852466727 1 0 0
8880 1 -18.44337445123757 34.185149755790334 5.2705663640763785 1 0 0
3570 1 -13.159863343098971 32.941056587510275 6.514714610473794 0 0 0
3580 1 -13.159863343123611 32.94105658746196 4.026414610376299 0 0 0
3628 1 -14.920959596724868 31.69682604647378 5.270564205977891 0 0 0
3636 1 -14.921071046351509 34.185217999611766 5.2705655388144965 0 0 0
3565 1 -11.398632872657453 31.696894396392064 5.270563401250439 0 0 0
3582 1 -11.398806687546527 34.18530505999169 5.270565137551473 0 0 0
3499 1 -7.876433994582366 31.69693775397715 5.270563700277609 0 0 0
3504 1 -9.637615579148717 32.941132375789586 6.514714425073592 0 0 0
3514 1 -9.637615579059222 32.941132375749596 4.026414424992138 0 0 0
3516 1 -7.876620684577097 34.18538530186295 5.270565288848153 0 0 0
3433 1 -4.35439043940163 31.696941302821436 5.270565008851033 0 0 0
3438 1 -6.115484535947944 32.941182351082745 6.514715018469275 0 0 0
3448 1 -6.115484535900322 32.94118235112201 4.026415018463631 0 0 0
3450 1 -4.354531634164506 34.18543424600203 5.270565945040981 0 0 0
3367 1 -0.8324826398569104 31.696903344282756 5.270566910575304 0 0 0
3372 1 -2.5934751572052654 32.94119020170156 6.514716203023711 0 0 0
3382 1 -2.593475157137604 32.94119020171585 4.0264162029443336 0 0 0
3384 1 -0.8325284094462243 34.18543515695961 5.270566899610293 0 0 0
8833 1 -16.682244674101305 35.42939277713297 6.514716191265614 1 0 0
8834 1 -16.68224467415948 35.429392777116306 4.026416191225735 1 0 0
8835 1 -16.682277135312013 37.91784276226272 6.514716527664433 1 0 0
8843 1 -16.682277135373162 37.91784276229287 4.026416527661932 1 0 0
8881 1 -18.44338012468647 36.67358956021521 5.270566615413824 1 0 0
3584 1 -13.159987922687451 35.42947293394084 6.514715740477002 0 0 0
3585 1 -13.159987922657175 35.429472933987185 4.026415740476549 0 0 0
3588 1 -13.160072594782502 37.91791598622483 6.514716300952763 0 0 0
3604 1 -13.160072594737155 37.917915986237304 4.026416300846447 0 0 0
3637 1 -14.921146773230138 36.67364925152282 5.270566201353413 0 0 0
3583 1 -11.398930400251547 36.67373867612033 5.270566003028697 0 0 0
3517 1 -7.876755955353485 36.67383156736844 5.27056608000965 0 0 0
3518 1 -9.637775467867732 35.429565820747484 6.514715649418418 0 0 0
3519 1 -9.637775467903383 35.42956582083029 4.026415649329365 0 0 0
3522 1 -9.637887286185128 37.91800931761792 6.514716257673493 0 0 0
3538 1 -9.63788728610374 37.91800931755749 4.02641625754238 0 0 0
3451 1 -4.3546360466458 36.67389971372384 5.270566411452176 0 0 0
3452 1 -6.115631827972304 35.42964402150813 6.514715947871494 0 0 0
3453 1 -6.115631827967072 35.429644021580664 4.026415947813161 0 0 0
3456 1 -6.115736607573517 37.91809489109074 6.51471641003294 0 0 0
3472 1 -6.115736607644093 37.918094891013226 4.026416409991993 0 0 0
3385 1 -0.83256634469089 36.6739204403755 5.2705668955797496 0 0 0
3386 1 -2.5935613919778544 35.42968277375495 6.514716544195492 0 0 0
3387 1 -2.5935613919304092 35.429682773736985 4.0264165442104405 0 0 0
3390 1 -2.593625173052611 37.9181457097123 6.514716711536986 0 0 0
3406 1 -2.593625173011355 37.918145709729416 4.026416711527435 0 0 0
8845 1 -16.68229428467681 40.40631445141154 6.514716691809015 1 0 0
8846 1 -16.682294284688307 40.4063144513918 4.026416691743333 1 0 0
8904 1 -18.44337850955736 39.162057591731994 5.270566739098599 1 0 0
9247 1 -18.443373139157472 41.6505413336758 5.270566794048017 1 0 0
3607 1 -13.16012609663265 40.40637632611577 6.5147165768498585 0 0 0
3608 1 -13.160126096636063 40.40637632614307 4.0264165767328235 0 0 0
3648 1 -14.921194680815876 39.16210633619922 5.270566530245533 0 0 0
3949 1 -14.92122200767792 41.65057889988317 5.27056669034702 0 0 0
3606 1 -11.399013316371072 39.16218815927645 5.270566430224902 0 0 0
3883 1 -11.39906476379862 41.65064804671524 5.270566637613839 0 0 0
3540 1 -7.876848663066036 39.16227856227404 5.2705664709937645 0 0 0
3541 1 -9.637960697307214 40.40646035865295 6.514716553544734 0 0 0
3542 1 -9.637960697261379 40.406460358722484 4.02641655342727 0 0 0
3817 1 -7.876908135328712 41.65072763571094 5.270566656351646 0 0 0
3474 1 -4.354709360217777 39.162349798451466 5.270566639801706 0 0 0
3475 1 -6.115807061823803 40.40654097925617 6.514716632467222 0 0 0
3476 1 -6.11580706184155 40.406540979306364 4.02641663244243 0 0 0
3751 1 -4.354758069658906 41.65079294901875 5.270566740535669 0 0 0
3408 1 -0.8325960866349381 39.16237857603899 5.270566882535595 0 0 0
3409 1 -2.5936701287972252 40.4065927377192 6.514716784753713 0 0 0
3410 1 -2.593670128729965 40.40659273784932 4.026416784693265 0 0 0
3685 1 -0.8326184119220512 41.65082289784966 5.27056686420391 0 0 0
9232 1 -16.682301138892328 42.89479777753057 -5.926783232074376 1 0 0
9249 1 -18.443366352920137 44.13903203020332 -7.1709331841348 1 0 1
9284 1 -18.443366352951323 44.1390320302063 -4.68263318411663 1 0 0
3919 1 -13.160156541420912 42.894846889418474 -5.926783291193191 0 0 0
3951 1 -14.921234971287165 44.13905945281481 -7.170933240039181 0 0 1
3970 1 -14.9212349713564 44.13905945282192 -4.682633239900156 0 0 0
3885 1 -11.399093260039793 44.13911430510767 -7.170933268045315 0 0 1
3920 1 -11.39909326001256 44.13911430508814 -4.682633267874115 0 0 0
3819 1 -7.876943019414913 44.13917952514312 -7.170933260210686 0 0 1
3853 1 -9.63800506417076 42.8949169809406 -5.926783306094252 0 0 0
3854 1 -7.8769430194179035 44.13917952509271 -4.682633260074014 0 0 0
3753 1 -4.354788288805035 44.13923466399995 -7.170933218928311 0 0 1
3787 1 -6.115851306943756 42.894986354754415 -5.92678326918315 0 0 0
3788 1 -4.3547882888555485 44.13923466396368 -4.682633218824023 0 0 0
3687 1 -0.8326344849998998 44.139262071504575 -7.170933159080657 0 0 1
3721 1 -2.5937002459130483 42.89503307947052 -5.926783192025655 0 0 0
3722 1 -0.8326344849653518 44.13926207155165 -4.682633159089812 0 0 0
9234 1 -16.682301573661164 45.38328580839005 -5.926783205264518 1 0 0
9241 1 -16.682298424213887 47.87177415632874 -5.926783200287356 1 0 0
9260 1 -18.443359561891466 46.62752402017889 -7.170933184554676 1 0 1
9285 1 -18.44335956188236 46.62752402014484 -4.682633184613551 1 0 0
3923 1 -13.160170922047968 45.38332266984916 -5.926783237548971 0 0 0
3937 1 -13.160174860440103 47.87180033751383 -5.926783216976697 0 0 0
3957 1 -14.92123858241924 46.6275429461805 -7.17093321387109 0 0 1
3971 1 -14.921238582463971 46.62754294617797 -4.682633213983905 0 0 0
3896 1 -11.39910599768764 46.62758407541586 -7.170933229430691 0 0 1
3921 1 -11.399105997758163 46.62758407539887 -4.682633229561431 0 0 0
3830 1 -7.876960680311889 46.62763445857932 -7.170933227498543 0 0 1
3855 1 -7.876960680298268 46.62763445854574 -4.6826332275433575 0 0 0
3857 1 -9.63802865824025 45.38337763918355 -5.926783244368452 0 0 0
3871 1 -9.638038279962876 47.871841120740505 -5.92678322390031 0 0 0
3764 1 -4.354805259940709 46.627678185097714 -7.170933209371707 0 0 1
3789 1 -4.354805259924583 46.627678185160136 -4.682633209402287 0 0 0
3791 1 -6.11587653837107 45.38343348190853 -5.926783227454969 0 0 0
3805 1 -6.115888692224715 47.871883605352934 -5.92678321864362 0 0 0
3698 1 -0.8326455315841026 46.627701337762936 -7.170933182629624 0 0 1
3723 1 -0.8326455315014557 46.62770133777847 -4.6826331826720375 0 0 0
3725 1 -2.593719197096077 45.38347251698405 -5.9267831918827945 0 0 0
3739 1 -2.593730099639052 47.87191432006529 -5.926783204554476 0 0 0
9243 1 -16.68229363804921 50.36026034792502 -5.9267832152825894 1 0 0
9261 1 -18.44335351465797 49.116014008636704 -7.170933199215362 1 0 1
9280 1 -18.4433485309456 51.60450039010198 -7.170933224432785 1 0 1
9302 1 -18.443353514724727 49.11601400859893 -4.682633199111276 1 0 0
9303 1 -18.4433485308191 51.60450039014879 -4.6826332246341735 1 0 0
3941 1 -13.160172610824896 50.360277856970995 -5.926783219766655 0 0 0
3958 1 -14.921236631693679 49.11602624887871 -7.170933211938456 0 0 1
3968 1 -14.921231822687163 51.60450765262904 -7.170933227618352 0 0 1
3979 1 -14.921236631656901 49.11602624886171 -4.6826332118354985 0 0 0
3980 1 -14.921231822677647 51.604507652601924 -4.682633227722386 0 0 0
3897 1 -11.3991086689744 49.11605543127688 -7.170933220799264 0 0 1
3916 1 -11.399105505157967 51.6045271430327 -7.170933229690606 0 0 1
3938 1 -11.399108668955721 49.116055431210576 -4.682633220711822 0 0 0
3939 1 -11.399105505142016 51.6045271431846 -4.682633229769146 0 0 0
3831 1 -7.876966999103373 49.11609228873125 -7.170933222487292 0 0 1
3850 1 -7.876966409073404 51.60455264153125 -7.170933232835431 0 0 1
3872 1 -7.876966999093713 49.116092288646016 -4.682633222379991 0 0 0
3873 1 -7.8769664091165135 51.604552641560595 -4.682633232975694 0 0 0
3875 1 -9.638039176219184 50.36030648108964 -5.926783223923941 0 0 0
3765 1 -4.354813205387277 49.11612513108003 -7.1709332184662244 0 0 1
3784 1 -4.354815368146278 51.6045760353418 -7.1709332347729875 0 0 1
3806 1 -4.354813205356444 49.11612513104632 -4.6826332183326445 0 0 0
3807 1 -4.354815368158226 51.60457603531636 -4.682633234927335 0 0 0
3809 1 -6.115892385143382 50.360337115496456 -5.926783227815134 0 0 0
3699 1 -0.8326526995085747 49.11614353815312 -7.170933207755943 0 0 1
3718 1 -0.8326569947357975 51.60458991731268 -7.170933232757471 0 0 1
3740 1 -0.8326526995550544 49.116143538199964 -4.682633207780127 0 0 0
3741 1 -0.8326569946363495 51.60458991725957 -4.682633232864621 0 0 0
3743 1 -2.5937354625057623 50.36036003932452 -5.926783224359982 0 0 0
9246 1 -16.682288459253613 52.84874324722687 -5.926783240526647 1 0 0
9281 1 -18.44334466390241 54.09298266233075 -7.170933252466793 1 0 1
9312 1 -18.443344663848674 54.09298266238351 -4.682633252469523 1 0 0
9624 1 -16.68228361933758 55.337222583779294 -5.92678326938454 1 0 0
3947 1 -13.160167190885344 52.84875411667284 -5.926783242264677 0 0 0
3969 1 -14.921225950489712 54.09298641979247 -7.170933256082877 0 0 1
3984 1 -14.921225950522564 54.09298641977643 -4.682633256142059 0 0 0
4241 1 -13.16016060564351 55.33722864694372 -5.926783270640381 0 0 0
3917 1 -11.399099470335392 54.09299850117918 -7.170933255585418 0 0 1
3948 1 -11.39909947039277 54.092998501145665 -4.682633255529762 0 0 0
3851 1 -7.876962089984234 54.09301504240144 -7.170933254248331 0 0 1
3881 1 -9.638035179727234 52.84877300235568 -5.926783241547465 0 0 0
3882 1 -7.876962089985297 54.09301504239423 -4.682633254177171 0 0 0
4175 1 -9.638028919212688 55.33724016659743 -5.926783268605138 0 0 0
3785 1 -4.354814127122129 54.09303077222788 -7.1709332535023345 0 0 1
3815 1 -6.115891042107378 52.84879387610532 -5.926783242428476 0 0 0
3816 1 -4.3548141271023075 54.09303077222745 -4.682633253462363 0 0 0
4109 1 -6.115887076278694 55.337253460567915 -5.926783266396472 0 0 0
3719 1 -0.8326592590803141 54.093040711905914 -7.170933254280785 0 0 1
3749 1 -2.5937372259138325 52.8488101077003 -5.926783244946103 0 0 0
3750 1 -0.8326592592319935 54.09304071187053 -4.6826332542271425 0 0 0
4043 1 -2.5937368220619694 55.33726430481895 -5.926783265748984 0 0 0
9223 1 -16.68230113884579 42.89479777747847 -0.9501832321511625 1 0 0
9224 1 -16.682301138944077 42.894797777528105 -3.4384832321564067 1 0 0
9265 1 -18.443366352931765 44.139032030176715 -2.1943331841003126 1 0 0
3902 1 -13.16015654139839 42.89484688942736 -0.9501832912193439 0 0 0
3903 1 -13.16015654143535 42.894846889449425 -3.43848329118453 0 0 0
3961 1 -14.921234971279418 44.13905945287658 -2.1943332399763538 0 0 0
3901 1 -11.39909326007072 44.13911430506995 -2.1943332680383136 0 0 0
3835 1 -7.876943019463744 44.13917952515712 -2.1943332600984395 0 0 0
3836 1 -9.63800506417352 42.89491698096589 -0.950183306077006 0 0 0
3837 1 -9.63800506422757 42.89491698104664 -3.438483306142104 0 0 0
3769 1 -4.354788288779823 44.139234664040096 -2.194333218954939 0 0 0
3770 1 -6.115851306964348 42.8949863547452 -0.9501832692037665 0 0 0
3771 1 -6.115851306906847 42.89498635480971 -3.4384832692110026 0 0 0
3703 1 -0.8326344850426635 44.139262071536294 -2.1943331590306516 0 0 0
3704 1 -2.593700245879934 42.89503307949882 -0.9501831920343112 0 0 0
3705 1 -2.593700245907486 42.89503307953449 -3.43848319202576 0 0 0
9226 1 -16.682301573637517 45.383285808452904 -0.9501832052417548 1 0 0
9233 1 -16.68230157364944 45.38328580830986 -3.4384832052897822 1 0 0
9235 1 -16.682298424213283 47.87177415634259 -0.9501832002873494 1 0 0
9236 1 -16.682298424273796 47.87177415648385 -3.438483200298808 1 0 0
9288 1 -18.4433595618333 46.62752402021884 -2.1943331845071445 1 0 0
3907 1 -13.160170922066072 45.38332266982736 -0.9501832374905208 0 0 0
3922 1 -13.16017092205831 45.38332266972222 -3.4384832375189904 0 0 0
3926 1 -13.160174860370804 47.8718003375281 -0.9501832169381472 0 0 0
3927 1 -13.160174860467826 47.871800337623945 -3.4384832170200132 0 0 0
3972 1 -14.92123858247863 46.62754294615569 -2.1943332138677447 0 0 0
3924 1 -11.39910599773843 46.627584075411555 -2.194333229436351 0 0 0
3841 1 -9.638028658239012 45.38337763915532 -0.950183244310802 0 0 0
3856 1 -9.638028658238085 45.38337763902852 -3.438483244287484 0 0 0
3858 1 -7.8769606803152765 46.627634458523175 -2.1943332274330136 0 0 0
3860 1 -9.638038279949862 47.871841120699514 -0.9501832238658269 0 0 0
3861 1 -9.638038279965272 47.87184112078077 -3.4384832239402443 0 0 0
3775 1 -6.1158765383724045 45.383433481936734 -0.9501832274290307 0 0 0
3790 1 -6.115876538404567 45.383433481842125 -3.438483227436546 0 0 0
3792 1 -4.354805259991642 46.627678185132254 -2.1943332093497983 0 0 0
3794 1 -6.115888692213145 47.87188360536112 -0.9501832186489196 0 0 0
3795 1 -6.11588869225078 47.87188360550245 -3.4384832185662217 0 0 0
3709 1 -2.5937191970880416 45.38347251696557 -0.9501831919232503 0 0 0
3724 1 -2.593719197073231 45.38347251693849 -3.43848319191998 0 0 0
3726 1 -0.8326455316037161 46.627701337743474 -2.194333182577337 0 0 0
3728 1 -2.5937300997156245 47.871914320087264 -0.9501832046362606 0 0 0
3729 1 -2.593730099593561 47.87191432011048 -3.43848320461408 0 0 0
9238 1 -16.682293638092894 50.360260347912636 -0.9501832152721331 1 0 0
9242 1 -16.68229363811395 50.36026034784965 -3.438483215203271 1 0 0
9289 1 -18.443353514660505 49.116014008672344 -2.1943331991720028 1 0 0
9306 1 -18.443348530889214 51.604500390127434 -2.1943332245074187 1 0 0
3931 1 -13.160172610796009 50.36027785697427 -0.9501832197727413 0 0 0
3940 1 -13.16017261079751 50.36027785685987 -3.4384832197262076 0 0 0
3973 1 -14.921236631706629 49.11602624887201 -2.194333211944881 0 0 0
3981 1 -14.921231822638628 51.604507652638034 -2.194333227661115 0 0 0
3925 1 -11.399108668936298 49.116055431268286 -2.1943332207799737 0 0 0
3942 1 -11.399105505130894 51.6045271430888 -2.1943332296331652 0 0 0
3859 1 -7.876966999126129 49.11609228865698 -2.194333222482318 0 0 0
3865 1 -9.638039176298257 50.36030648104487 -0.9501832239898182 0 0 0
3874 1 -9.638039176263163 50.36030648096333 -3.438483223968585 0 0 0
3876 1 -7.8769664091165135 51.604552641545155 -2.1943332327756226 0 0 0
3793 1 -4.354813205405315 49.1161251310585 -2.194333218441511 0 0 0
3799 1 -6.115892385145122 50.36033711547789 -0.9501832278323883 0 0 0
3808 1 -6.115892385164705 50.36033711536963 -3.438483227827331 0 0 0
3810 1 -4.35481536816228 51.60457603528635 -2.1943332348073197 0 0 0
3727 1 -0.8326526994744691 49.11614353820676 -2.1943332077938407 0 0 0
3733 1 -2.5937354624712317 50.36036003929717 -0.9501832243538945 0 0 0
3742 1 -2.593735462494042 50.36036003919912 -3.4384832243508776 0 0 0
3744 1 -0.8326569946825267 51.60458991722669 -2.1943332327705605 0 0 0
9244 1 -16.682288459296153 52.848743247249764 -0.9501832406078905 1 0 0
9245 1 -16.68228845936462 52.848743247265254 -3.4384832405364447 1 0 0
9307 1 -18.443344663884737 54.092982662371774 -2.1943332525008086 1 0 0
9617 1 -16.682283619356838 55.33722258374711 -0.9501832694070041 1 0 0
9623 1 -16.6822836193579 55.33722258370161 -3.438483269313383 1 0 0
3944 1 -13.16016719092838 52.848754116676375 -0.9501832423369253 0 0 0
3945 1 -13.160167190863136 52.8487541168049 -3.438483242241675 0 0 0
3982 1 -14.92122595049962 54.0929864197931 -2.1943332561343083 0 0 0
4227 1 -13.160160605690896 55.33722864694361 -0.9501832706681962 0 0 0
4240 1 -13.160160605664178 55.33722864685584 -3.4384832705675357 0 0 0
3943 1 -11.399099470357733 54.09299850119216 -2.194333255609429 0 0 0
3877 1 -7.876962089972321 54.09301504243829 -2.1943332543062954 0 0 0
3878 1 -9.63803517975992 52.848773002322076 -0.9501832416137342 0 0 0
3879 1 -9.63803517978064 52.84877300247725 -3.4384832415518516 0 0 0
4161 1 -9.63802891920766 55.337240166600296 -0.9501832686022961 0 0 0
4174 1 -9.638028919176444 55.33724016654797 -3.438483268577671 0 0 0
3811 1 -4.354814127084036 54.09303077220323 -2.1943332534819597 0 0 0
3812 1 -6.1158910420538115 52.848793876126074 -0.9501832424340936 0 0 0
3813 1 -6.115891042031524 52.848793876238744 -3.438483242439346 0 0 0
4095 1 -6.115887076155429 55.33725346053265 -0.9501832665094356 0 0 0
4108 1 -6.115887076189829 55.3372534604427 -3.4384832664100773 0 0 0
3745 1 -0.8326592591470563 54.09304071193351 -2.194333254217039 0 0 0
3746 1 -2.593737225844043 52.84881010762599 -0.9501832449823855 0 0 0
3747 1 -2.593737225821876 52.848810107807516 -3.438483244961064 0 0 0
4029 1 -2.5937368220855004 55.337264304828814 -0.9501832656816904 0 0 0
4042 1 -2.5937368220707833 55.33726430467404 -3.438483265651038 0 0 0
9219 1 -16.682301138874845 42.89479777757819 1.5381167679298027 1 0 0
9253 1 -18.44336635292012 44.13903203020752 2.78226681582809 1 0 0
9268 1 -18.443366352917366 44.13903203018316 0.2939668159386319 1 0 0
3891 1 -13.16015654143215 42.894846889502304 1.5381167087731649 0 0 0
3954 1 -14.921234971345424 44.139059452806194 2.782266760029283 0 0 0
3962 1 -14.92123497130984 44.13905945282345 0.2939667600554634 0 0 0
3889 1 -11.39909326002846 44.13911430508916 2.782266732012198 0 0 0
3904 1 -11.39909326006001 44.139114305093706 0.29396673204936935 0 0 0
3823 1 -7.876943019428887 44.13917952509742 2.782266739869453 0 0 0
3825 1 -9.638005064188047 42.89491698104296 1.53811669389197 0 0 0
3838 1 -7.876943019418082 44.13917952513742 0.2939667399016432 0 0 0
3757 1 -4.354788288860544 44.139234663928015 2.7822667810997155 0 0 0
3759 1 -6.115851306925789 42.89498635483227 1.5381167308096308 0 0 0
3772 1 -4.354788288802362 44.13923466399334 0.29396678112898617 0 0 0
3691 1 -0.8326344849925823 44.13926207157725 2.782266840864362 0 0 0
3693 1 -2.593700245917705 42.89503307950694 1.538116807948082 0 0 0
3706 1 -0.8326344849841133 44.13926207150692 0.2939668409660468 0 0 0
9225 1 -16.68230157365911 45.38328580831698 1.5381167947512142 1 0 0
9228 1 -16.68229842423178 47.8717741564339 1.5381167997002099 1 0 0
9269 1 -18.443359561896514 46.627524020172885 0.29396681539466346 1 0 0
9272 1 -18.443359561897232 46.62752402015833 2.7822668154503964 1 0 0
3906 1 -13.16017092206308 45.38332266973653 1.5381167624258247 0 0 0
3911 1 -13.160174860426832 47.871800337624805 1.5381167830293243 0 0 0
3963 1 -14.921238582408396 46.62754294619992 0.2939667860593024 0 0 0
3964 1 -14.921238582452355 46.627542946163175 2.782266786085461 0 0 0
3905 1 -11.399105997676413 46.62758407540812 0.2939667704755944 0 0 0
3908 1 -11.399105997760772 46.6275840754039 2.7822667705475963 0 0 0
3839 1 -7.876960680306346 46.62763445856411 0.2939667724271994 0 0 0
3840 1 -9.638028658251686 45.38337763908533 1.5381167556090396 0 0 0
3842 1 -7.876960680288271 46.62763445855049 2.782266772586445 0 0 0
3845 1 -9.638038279943219 47.87184112085242 1.538116776100601 0 0 0
3773 1 -4.354805259956695 46.62767818509701 0.2939667905409859 0 0 0
3774 1 -6.115876538368482 45.38343348180518 1.5381167725241205 0 0 0
3776 1 -4.354805259945353 46.62767818513392 2.7822667906856067 0 0 0
3779 1 -6.115888692240237 47.87188360546319 1.5381167813426748 0 0 0
3707 1 -0.8326455315911069 46.627701337788 0.29396681733804647 0 0 0
3708 1 -2.593719197113103 45.38347251689322 1.5381168081152552 0 0 0
3710 1 -0.832645531524219 46.627701337804666 2.782266817395771 0 0 0
3713 1 -2.5937300996640795 47.8719143201524 1.538116795423369 0 0 0
9237 1 -16.682293638062742 50.360260347867374 1.5381167847011956 1 0 0
9273 1 -18.44335351474259 49.11601400861782 2.7822668007963225 1 0 0
9292 1 -18.443353514664153 49.1160140086417 0.2939668008103004 1 0 0
9293 1 -18.443348530940785 51.604500390094856 0.2939667754579476 1 0 0
9296 1 -18.443348530828214 51.60450039014372 2.782266775430909 1 0 0
3930 1 -13.160172610806487 50.360277856861074 1.538116780237358 0 0 0
3965 1 -14.921236631660213 49.11602624885801 2.7822667880693444 0 0 0
3974 1 -14.921236631701278 49.11602624889196 0.293966788182466 0 0 0
3975 1 -14.921231822693368 51.60450765263597 0.29396677228264234 0 0 0
3976 1 -14.921231822665279 51.604507652582164 2.78226677234745 0 0 0
3909 1 -11.399108668936039 49.11605543122793 2.7822667792013034 0 0 0
3928 1 -11.399108668967855 49.116055431272656 0.2939667793475079 0 0 0
3929 1 -11.399105505146132 51.604527143043974 0.2939667701826909 0 0 0
3932 1 -11.399105505135232 51.60452714317613 2.782266770335344 0 0 0
3843 1 -7.876966999061597 49.11609228866871 2.782266777520362 0 0 0
3862 1 -7.876966999110991 49.11609228872673 0.29396677762699586 0 0 0
3863 1 -7.876966409075558 51.604552641528876 0.2939667670464457 0 0 0
3864 1 -9.638039176209189 50.36030648097558 1.5381167760462477 0 0 0
3866 1 -7.876966409107379 51.60455264157049 2.7822667671261985 0 0 0
3777 1 -4.354813205398982 49.11612513104887 2.78226678155059 0 0 0
3796 1 -4.3548132054098465 49.11612513108131 0.2939667816323478 0 0 0
3797 1 -4.354815368118806 51.604576035347144 0.2939667651256132 0 0 0
3798 1 -6.115892385142094 50.36033711542589 1.5381167721534288 0 0 0
3800 1 -4.354815368140015 51.604576035288844 2.7822667651385036 0 0 0
3711 1 -0.832652699540793 49.11614353823045 2.782266792151194 0 0 0
3730 1 -0.8326526995039293 49.11614353814297 0.29396679229399153 0 0 0
3731 1 -0.8326569947203156 51.60458991732887 0.29396676713626096 0 0 0
3732 1 -2.593735462494659 50.36036003922059 1.5381167756144252 0 0 0
3734 1 -0.8326569946194555 51.60458991724406 2.7822667672049373 0 0 0
9240 1 -16.68228845926884 52.84874324729944 1.538116759418573 1 0 0
9297 1 -18.44334466385383 54.09298266237271 2.782266747487528 1 0 0
9310 1 -18.443344663914534 54.09298266234318 0.2939667475699511 1 0 0
9616 1 -16.68228361933855 55.33722258373459 1.5381167306040298 1 0 0
3935 1 -13.160167190897845 52.8487541167667 1.538116757707749 0 0 0
3977 1 -14.921225950525344 54.092986419786946 2.782266743772721 0 0 0
3983 1 -14.921225950500666 54.09298641980415 0.2939667439771722 0 0 0
4226 1 -13.160160605632566 55.337228646870166 1.5381167293671072 0 0 0
3933 1 -11.399099470432015 54.092998501129536 2.7822667443888434 0 0 0
3946 1 -11.399099470341712 54.09299850117246 0.293966744522224 0 0 0
3867 1 -7.876962089982078 54.093015042386284 2.782266745724435 0 0 0
3869 1 -9.63803517972904 52.8487730024624 1.5381167584360809 0 0 0
3880 1 -7.876962089975029 54.09301504241771 0.29396674587557103 0 0 0
4160 1 -9.638028919234358 55.337240166498084 1.5381167314324153 0 0 0
3801 1 -4.354814127073623 54.09303077220853 2.782266746455214 0 0 0
3803 1 -6.115891042081912 52.84879387620625 1.5381167575562729 0 0 0
3814 1 -4.354814127098278 54.093030772217915 0.29396674659401134 0 0 0
4094 1 -6.115887076269463 55.33725346046215 1.5381167336003732 0 0 0
3735 1 -0.8326592592148906 54.093040711888506 2.782266745725503 0 0 0
3737 1 -2.5937372258632174 52.848810107762745 1.5381167550197272 0 0 0
3748 1 -0.8326592590757405 54.09304071190183 0.2939667457649717 0 0 0
4028 1 -2.5937368220633203 55.337264304759756 1.538116734271928 0 0 0
9217 1 -16.682301138854253 42.89479777755284 6.514716767860544 1 0 0
9218 1 -16.68230113892844 42.89479777745427 4.026416767848379 1 0 0
9256 1 -18.443366352911042 44.139032030201044 5.270566815969776 1 0 0
3886 1 -13.16015654137886 42.894846889509026 6.514716708803261 0 0 0
3890 1 -13.160156541413935 42.894846889362164 4.02641670882281 0 0 0
3955 1 -14.921234971250138 44.13905945285262 5.2705667601161394 0 0 0
3892 1 -11.399093260059827 44.13911430507149 5.270566732045777 0 0 0
3820 1 -9.63800506418218 42.894916981035806 6.514716693961022 0 0 0
3824 1 -9.638005064240545 42.89491698096262 4.02641669387724 0 0 0
3826 1 -7.8769430194668715 44.13917952514729 5.2705667399756235 0 0 0
3754 1 -6.115851306951622 42.89498635482446 6.514716730812263 0 0 0
3758 1 -6.115851306918493 42.89498635471286 4.026416730807436 0 0 0
3760 1 -4.354788288795503 44.13923466401953 5.270566781122032 0 0 0
3688 1 -2.5937002459013505 42.89503307955476 6.514716807961554 0 0 0
3692 1 -2.593700245907339 42.895033079441845 4.02641680795773 0 0 0
3694 1 -0.8326344850864905 44.13926207153491 5.270566841016998 0 0 0
9220 1 -16.682301573630664 45.38328580836532 6.514716794720777 1 0 0
9221 1 -16.68230157363954 45.383285808391776 4.026416794690459 1 0 0
9222 1 -16.68229842420803 47.87177415643281 6.514716799696567 1 0 0
9227 1 -16.68229842428989 47.87177415640148 4.026416799696837 1 0 0
9257 1 -18.44335956183448 46.627524020234915 5.27056681540711 1 0 0
3894 1 -13.160170922056817 45.3833226697336 6.514716762512045 0 0 0
3895 1 -13.160170922055325 45.38332266982078 4.026416762472124 0 0 0
3898 1 -13.16017486038393 47.87180033764029 6.514716783041847 0 0 0
3910 1 -13.160174860469011 47.871800337522714 4.026416782970707 0 0 0
3956 1 -14.921238582487371 46.62754294612683 5.270566786021937 0 0 0
3893 1 -11.399105997735836 46.627584075416024 5.270566770419211 0 0 0
3827 1 -7.876960680307136 46.62763445854997 5.270566772413966 0 0 0
3828 1 -9.63802865823104 45.38337763906352 6.514716755690692 0 0 0
3829 1 -9.638028658235058 45.383377639141145 4.02641675569559 0 0 0
3832 1 -9.638038279954488 47.87184112081659 6.5147167761046525 0 0 0
3844 1 -9.638038279943753 47.87184112068314 4.026416776055986 0 0 0
3761 1 -4.354805260005252 46.62767818514019 5.270566790565648 0 0 0
3762 1 -6.115876538365548 45.38343348185611 6.514716772596327 0 0 0
3763 1 -6.115876538419496 45.38343348192352 4.026416772563063 0 0 0
3766 1 -6.115888692196541 47.87188360547898 6.514716781352181 0 0 0
3778 1 -6.115888692249662 47.87188360541142 4.026416781436114 0 0 0
3695 1 -0.8326455316041328 46.627701337754246 5.270566817328474 0 0 0
3696 1 -2.5937191971128906 45.38347251690533 6.514716808082873 0 0 0
3697 1 -2.5937191971048676 45.38347251701097 4.026416808070393 0 0 0
3700 1 -2.593730099698876 47.871914320193724 6.514716795349954 0 0 0
3712 1 -2.5937300996050094 47.87191432007519 4.026416795382637 0 0 0
9229 1 -16.682293638100276 50.360260347819114 6.514716784752343 1 0 0
9230 1 -16.682293638114274 50.3602603479383 4.026416784807352 1 0 0
9276 1 -18.443353514653047 49.11601400869063 5.270566800902403 1 0 0
9277 1 -18.443348530889114 51.60450039014951 5.270566775474876 1 0 0
3914 1 -13.160172610813714 50.36027785686721 6.514716780240658 0 0 0
3915 1 -13.160172610781673 50.36027785696697 4.0264167802903374 0 0 0
3966 1 -14.921236631710547 49.11602624885995 5.270566788126162 0 0 0
3967 1 -14.921231822637813 51.6045076526096 5.270566772264171 0 0 0
3912 1 -11.399108668923882 49.11605543127441 5.270566779323985 0 0 0
3913 1 -11.399105505146114 51.60452714307354 5.270566770267172 0 0 0
3846 1 -7.876966999102349 49.11609228867882 5.270566777640606 0 0 0
3847 1 -7.876966409111301 51.60455264156595 5.2705667671309335 0 0 0
3848 1 -9.638039176287315 50.360306480936586 6.514716776055159 0 0 0
3849 1 -9.638039176233804 50.36030648107781 4.026416776045003 0 0 0
3780 1 -4.354813205419543 49.11612513105598 5.270566781658716 0 0 0
3781 1 -4.354815368157239 51.60457603527767 5.270566765098063 0 0 0
3782 1 -6.115892385131945 50.36033711539622 6.514716772206767 0 0 0
3783 1 -6.1158923851674665 50.360337115493174 4.026416772189375 0 0 0
3714 1 -0.832652699454453 49.116143538236564 5.270566792268618 0 0 0
3715 1 -0.8326569946903534 51.60458991722213 5.270566767208092 0 0 0
3716 1 -2.593735462504923 50.36036003922699 6.514716775675873 0 0 0
3717 1 -2.593735462496348 50.36036003928763 4.026416775637219 0 0 0
9231 1 -16.682288459279714 52.84874324728527 6.514716759443161 1 0 0
9239 1 -16.682288459355448 52.84874324718799 4.026416759469859 1 0 0
9300 1 -18.44334466387386 54.092982662345186 5.270566747539852 1 0 0
9613 1 -16.682283619338182 55.337222583677416 6.514716730593366 1 0 0
9614 1 -16.68228361936017 55.33722258376636 4.026416730683523 1 0 0
3918 1 -13.160167190925371 52.84875411676702 6.51471675768315 0 0 0
3934 1 -13.160167190873942 52.84875411669242 4.026416757756838 0 0 0
3978 1 -14.921225950490967 54.09298641976899 5.270566743951726 0 0 0
4220 1 -13.160160605677259 55.33722864686897 6.5147167293494554 0 0 0
4221 1 -13.160160605655284 55.337228646964306 4.026416729429671 0 0 0
3936 1 -11.399099470380085 54.092998501174804 5.270566744492344 0 0 0
3852 1 -9.638035179794374 52.84877300240901 6.5147167583763 0 0 0
3868 1 -9.638035179807508 52.84877300235475 4.026416758443659 0 0 0
3870 1 -7.8769620899862645 54.09301504239943 5.270566745813161 0 0 0
4154 1 -9.63802891921456 55.33724016649911 6.514716731364351 0 0 0
4155 1 -9.638028919179472 55.3372401666146 4.026416731422395 0 0 0
3786 1 -6.115891042037452 52.84879387621795 6.514716757564631 0 0 0
3802 1 -6.115891042015892 52.84879387611955 4.026416757564362 0 0 0
3804 1 -4.354814127073609 54.09303077217596 5.2705667466214905 0 0 0
4088 1 -6.115887076165699 55.337253460419795 6.5147167335157175 0 0 0
4089 1 -6.115887076205668 55.33725346050121 4.0264167335873875 0 0 0
3720 1 -2.5937372258417137 52.8488101076922 6.514716755041907 0 0 0
3736 1 -2.5937372257922804 52.84881010771417 4.026416755059316 0 0 0
3738 1 -0.8326592591438025 54.09304071192687 5.270566745848349 0 0 0
4022 1 -2.593736822067276 55.33726430474802 6.5147167343177514 0 0 0
4023 1 -2.5937368220621444 55.33726430473564 4.0264167343597945 0 0 0
9634 1 -16.682279478592623 57.825698588793166 -5.926783300232861 1 0 0
9652 1 -18.443341820357087 56.58146099239103 -7.170933282950929 1 0 1
9653 1 -18.4433398399495 59.06993589521922 -7.170933315841376 1 0 1
9669 1 -18.44334182033436 56.58146099231354 -4.682633282943378 1 0 0
9691 1 -18.443339839972204 59.06993589521227 -4.6826333159297135 1 0 0
4260 1 -13.160154083042878 57.82570136815507 -5.926783298544139 0 0 0
4286 1 -14.921220123415853 56.58146242559869 -7.17093328492879 0 0 1
4287 1 -14.921214938843024 59.06993589964211 -7.170933314777319 0 0 1
4295 1 -14.921220123435573 56.58146242560991 -4.682633284935188 0 0 0
4305 1 -14.921214938869841 59.06993589967569 -4.682633314721299 0 0 0
4222 1 -11.399092499438476 56.58146914952212 -7.170933282956536 0 0 1
4223 1 -11.399085758581355 59.069938965958436 -7.170933310364942 0 0 1
4239 1 -11.399092499392617 56.58146914953944 -4.682633283164673 0 0 0
4261 1 -11.39908575854514 59.06993896595283 -4.6826333103736335 0 0 0
4156 1 -7.876956177183907 56.58147901053735 -7.170933279779774 0 0 1
4157 1 -7.876950017023512 59.06994410998441 -7.170933306649576 0 0 1
4173 1 -7.876956177195412 56.581479010542296 -4.6826332799163195 0 0 0
4194 1 -9.638022078876268 57.825707615912506 -5.926783295821434 0 0 0
4195 1 -7.876950017055285 59.0699441099606 -4.682633306620394 0 0 0
4090 1 -4.354811146819292 56.58148886466461 -7.170933279119207 0 0 1
4091 1 -4.354807522052227 59.06994968944755 -7.170933304227338 0 0 1
4107 1 -4.354811146833151 56.581488864604324 -4.682633279257593 0 0 0
4128 1 -6.11588208845985 57.82571533612588 -5.9267832922889685 0 0 0
4129 1 -4.354807522060627 59.06994968947474 -4.682633304238265 0 0 0
4024 1 -0.8326601646535731 56.58149559049085 -7.170933277961251 0 0 1
4025 1 -0.8326602234253907 59.069953938762374 -7.170933303035712 0 0 1
4041 1 -0.8326601646595634 56.58149559048118 -4.68263327805523 0 0 0
4062 1 -2.593735266733758 57.82572207113767 -5.926783290654767 0 0 0
4063 1 -0.8326602233954264 59.069953938800545 -4.682633303100241 0 0 0
9636 1 -16.682276162943207 60.31417175025831 -5.926783328811895 1 0 0
9666 1 -18.443338542129588 61.558408016311255 -7.170933342132825 1 0 1
9692 1 -18.44333854215857 61.55840801637273 -4.682633342244709 1 0 0
4264 1 -13.160148290395474 60.314172430389014 -5.926783325363608 0 0 0
4293 1 -14.921210663932847 61.55840723722281 -7.170933340578212 0 0 1
4306 1 -14.921210663897476 61.5584072372334 -4.682633340682789 0 0 0
4236 1 -11.399079864563394 61.55840797058552 -7.1709333358090035 0 0 1
4262 1 -11.399079864569444 61.55840797053134 -4.682633335918102 0 0 0
4170 1 -7.876944373603161 61.55840997719595 -7.170933332206091 0 0 1
4196 1 -7.876944373625551 61.55840997719247 -4.682633332309409 0 0 0
4198 1 -9.638015651447915 60.314175119947905 -5.926783320769128 0 0 0
4104 1 -4.354803920681917 61.55841261595871 -7.170933329386814 0 0 1
4130 1 -4.354803920676115 61.55841261594105 -4.682633329455966 0 0 0
4132 1 -6.115877062248071 60.314178956732086 -5.926783316768616 0 0 0
4038 1 -0.8326598075611956 61.55841505284609 -7.170933328686949 0 0 1
4064 1 -0.8326598075579509 61.558415052834135 -4.682633328754377 0 0 0
4066 1 -2.5937332378373754 60.31418272170899 -5.926783315874453 0 0 0
9643 1 -16.68227365232773 62.80264263790293 -5.926783354033953 1 0 0
9645 1 -16.682271849405943 65.29111180757765 -5.926783375580336 1 0 0
9667 1 -18.44333775709833 64.04687800979639 -7.17093336539316 1 0 1
9707 1 -18.443337757096582 64.04687800980574 -4.682633365471799 1 0 0
4276 1 -13.16014351838293 62.80264209308655 -5.926783352175583 0 0 0
4280 1 -13.16013981031805 65.29111064684358 -5.926783375368102 0 0 0
4294 1 -14.921207341218569 64.0468768841287 -7.170933363258869 0 0 1
4312 1 -14.921207341165044 64.04687688410351 -4.682633363263869 0 0 0
4237 1 -11.399075059008588 64.04687625607724 -7.170933363462381 0 0 1
4277 1 -11.399075059009638 64.0468762560546 -4.6826333634974135 0 0 0
4171 1 -7.876939614316178 64.04687632772195 -7.170933361166918 0 0 1
4210 1 -9.638010131606947 62.802642542223595 -5.9267833477575875 0 0 0
4211 1 -7.876939614320098 64.04687632773053 -4.682633361185641 0 0 0
4214 1 -9.63800569704656 65.29110981840223 -5.926783376901547 0 0 0
4105 1 -4.354800715829862 64.04687707096906 -7.1709333605055035 0 0 1
4144 1 -6.115872549051765 62.80264384042611 -5.926783345934983 0 0 0
4145 1 -4.35480071590538 64.0468770709199 -4.68263336047183 0 0 0
4148 1 -6.11586879612996 65.29110958406342 -5.92678337713123 0 0 0
4039 1 -0.8326591759517501 64.0468782557044 -7.170933363546013 0 0 1
4078 1 -2.593731161514721 62.802645572079655 -5.926783344306715 0 0 0
4079 1 -0.8326591759331521 64.0468782556739 -4.682633363634966 0 0 0
4082 1 -2.593729282446239 65.2911100172576 -5.9267833782552835 0 0 0
9648 1 -16.682270622686527 67.77957974804228 -5.926783401208495 1 0 0
9688 1 -18.443337329988115 66.5353464645506 -7.1709333876343075 1 0 1
9708 1 -18.443337329991582 66.53534646459458 -4.682633387668467 1 0 0
10039 1 -18.443337147464838 69.02381386115182 -7.170933415479162 1 0 1
10064 1 -18.443337147442175 69.02381386122208 -4.6826334155169915 1 0 0
4284 1 -13.160137078379233 67.77957837203866 -5.926783401434644 0 0 0
4304 1 -14.921204890862152 66.53534526442692 -7.170933388190057 0 0 1
4313 1 -14.921204890808431 66.53534526446046 -4.682633388121129 0 0 0
4609 1 -14.921203177252874 69.02381274758326 -7.1709334155078635 0 0 1
4624 1 -14.921203177231348 69.0238127475928 -4.682633415578553 0 0 0
4258 1 -11.399071362163706 66.53534395630722 -7.170933388775774 0 0 1
4278 1 -11.399071362189645 66.53534395629875 -4.682633388823271 0 0 0
4543 1 -11.399068664714141 69.02381120437838 -7.170933416970234 0 0 1
4568 1 -11.399068664769922 69.02381120437063 -4.682633416993758 0 0 0
4192 1 -7.876935844646088 66.53534295615476 -7.170933389769915 0 0 1
4212 1 -7.876935844661753 66.53534295618485 -4.68263338991903 0 0 0
4218 1 -9.638002328070096 67.77957692852608 -5.926783402533977 0 0 0
4477 1 -7.876933019054737 69.02380972373236 -7.1709334178015585 0 0 1
4502 1 -7.876933019069618 69.02380972368452 -4.682633417768813 0 0 0
4126 1 -4.354798071165726 66.53534258274381 -7.17093339250653 0 0 1
4146 1 -4.354798071211892 66.53534258282609 -4.68263339251536 0 0 0
4152 1 -6.115865861337089 67.77957587807566 -5.9267834050221095 0 0 0
4411 1 -4.354796013931559 69.02380877309467 -7.170933420379168 0 0 1
4436 1 -4.354796013945322 69.02380877306956 -4.6826334203941435 0 0 0
4060 1 -0.8326584923030964 66.535342951865 -7.170933395122535 0 0 1
4080 1 -0.8326584922684889 66.53534295186397 -4.682633395167052 0 0 0
4086 1 -2.593727708178605 67.77957555280751 -5.926783408210854 0 0 0
4345 1 -0.8326578515444901 69.0238086560532 -7.17093342302638 0 0 1
4370 1 -0.8326578515321721 69.02380865608792 -4.682633423030461 0 0 0
9625 1 -16.68227947858987 57.82569858873284 -0.9501833002825288 1 0 0
9626 1 -16.68227947864004 57.825698588731946 -3.4384833001841213 1 0 0
9672 1 -18.443341820316363 56.58146099234131 -2.1943332828579485 1 0 0
9673 1 -18.44333983995169 59.06993589521001 -2.1943333158184495 1 0 0
4244 1 -13.160154083115623 57.82570136817113 -0.9501832986324763 0 0 0
4245 1 -13.160154083142348 57.8257013682426 -3.4384832985057243 0 0 0
4296 1 -14.921220123405387 56.58146242560229 -2.1943332849161026 0 0 0
4297 1 -14.921214938852993 59.06993589967331 -2.194333314768172 0 0 0
4242 1 -11.399092499391024 56.5814691495551 -2.194333283015148 0 0 0
4243 1 -11.399085758543642 59.06993896593585 -2.1943333104061895 0 0 0
4176 1 -7.876956177164982 56.581479010609534 -2.194333279793853 0 0 0
4177 1 -7.876950017090518 59.06994410993859 -2.194333306583375 0 0 0
4178 1 -9.63802207888392 57.82570761593936 -0.9501832957868187 0 0 0
4179 1 -9.638022078860926 57.82570761589608 -3.438483295756685 0 0 0
4110 1 -4.3548111468082755 56.58148886460989 -2.19433327912128 0 0 0
4111 1 -4.3548075220478895 59.0699496894921 -2.1943333042556965 0 0 0
4112 1 -6.115882088416278 57.825715336123565 -0.9501832923392503 0 0 0
4113 1 -6.11588208838497 57.82571533613373 -3.43848329229363 0 0 0
4044 1 -0.832660164723778 56.58149559053601 -2.1943332779367792 0 0 0
4045 1 -0.8326602234473743 59.06995393879124 -2.1943333030449996 0 0 0
4046 1 -2.593735266700632 57.82572207119068 -0.9501832906735419 0 0 0
4047 1 -2.5937352667284594 57.82572207116401 -3.4384832906253426 0 0 0
9628 1 -16.68227616295384 60.31417175018737 -0.9501833287958942 1 0 0
9635 1 -16.68227616296896 60.314171750191555 -3.4384833287639327 1 0 0
9695 1 -18.443338542162483 61.55840801628397 -2.194333342190176 1 0 0
4249 1 -13.160148290389468 60.31417243033632 -0.9501833254351131 0 0 0
4263 1 -13.160148290439773 60.31417243033173 -3.438483325348736 0 0 0
4307 1 -14.921210663908363 61.55840723723232 -2.1943333406047207 0 0 0
4265 1 -11.399079864508822 61.55840797058952 -2.1943333357518933 0 0 0
4183 1 -9.638015651423743 60.3141751199385 -0.9501833207308499 0 0 0
4197 1 -9.638015651413578 60.314175119879934 -3.438483320665607 0 0 0
4199 1 -7.876944373627101 61.55840997718927 -2.194333332202156 0 0 0
4117 1 -6.115877062287825 60.31417895673179 -0.9501833168085315 0 0 0
4131 1 -6.115877062190967 60.31417895666219 -3.438483316686701 0 0 0
4133 1 -4.354803920713973 61.55841261596766 -2.1943333294593836 0 0 0
4051 1 -2.593733237838369 60.31418272166775 -0.9501833159396 0 0 0
4065 1 -2.5937332377782227 60.31418272164619 -3.438483315910969 0 0 0
4067 1 -0.832659807599451 61.55841505282598 -2.194333328736424 0 0 0
9637 1 -16.682273652357843 62.802642637877305 -0.950183354157146 1 0 0
9638 1 -16.682273652345053 62.80264263790265 -3.4384833540815536 1 0 0
9640 1 -16.68227184933742 65.29111180760245 -0.9501833756096139 1 0 0
9644 1 -16.682271849421017 65.2911118076033 -3.4384833755757254 1 0 0
9696 1 -18.44333775709514 64.04687800984134 -2.194333365393183 1 0 0
4267 1 -13.160143518379195 62.80264209310657 -0.9501833522540728 0 0 0
4268 1 -13.160143518371198 62.802642093123296 -3.43848335217795 0 0 0
4272 1 -13.160139810301546 65.29111064687014 -0.9501833753940769 0 0 0
4279 1 -13.160139810264498 65.29111064679222 -3.438483375298592 0 0 0
4308 1 -14.921207341167616 64.04687688418936 -2.194333363308115 0 0 0
4266 1 -11.399075059037306 64.04687625603943 -2.1943333634891498 0 0 0
4200 1 -7.876939614291292 64.04687632765639 -2.1943333612375215 0 0 0
4201 1 -9.638010131622538 62.802642542242424 -0.9501833477682169 0 0 0
4202 1 -9.638010131639037 62.80264254230524 -3.4384833478144845 0 0 0
4206 1 -9.638005697052375 65.29110981837667 -0.9501833768370049 0 0 0
4213 1 -9.638005697060281 65.2911098183679 -3.4384833768126333 0 0 0
4134 1 -4.354800715956175 64.04687707092071 -2.194333360497008 0 0 0
4135 1 -6.115872549005187 62.802643840415016 -0.9501833459971187 0 0 0
4136 1 -6.115872549106972 62.802643840404144 -3.438483345911008 0 0 0
4140 1 -6.115868796166357 65.29110958400493 -0.9501833770782665 0 0 0
4147 1 -6.115868796120523 65.29110958401814 -3.4384833770938106 0 0 0
4068 1 -0.8326591759784773 64.04687825567844 -2.19433336354162 0 0 0
4069 1 -2.5937311615329692 62.80264557209265 -0.9501833444356367 0 0 0
4070 1 -2.5937311615237735 62.80264557213211 -3.438483344357141 0 0 0
4074 1 -2.5937292825465805 65.29111001733587 -0.9501833783038296 0 0 0
4081 1 -2.593729282485258 65.29111001730887 -3.438483378201006 0 0 0
9646 1 -16.682270622675862 67.77957974802523 -0.9501834011233333 1 0 0
9647 1 -16.682270622752597 67.77957974800813 -3.438483401141476 1 0 0
9711 1 -18.443337330000375 66.5353464645861 -2.194333387548252 1 0 0
10048 1 -18.4433371474264 69.02381386117942 -2.194333415472928 1 0 0
4282 1 -13.160137078291536 67.77957837200317 -0.9501834014140625 0 0 0
4283 1 -13.160137078348797 67.77957837201895 -3.438483401472743 0 0 0
4314 1 -14.921204890822324 66.53534526440559 -2.194333388090724 0 0 0
4615 1 -14.921203177197738 69.02381274756881 -2.1943334155617884 0 0 0
4281 1 -11.399071362214048 66.53534395628536 -2.1943333887913234 0 0 0
4552 1 -11.399068664725208 69.02381120438085 -2.194333416982005 0 0 0
4215 1 -7.876935844640133 66.5353429561415 -2.1943333897358643 0 0 0
4216 1 -9.63800232800912 67.77957692859961 -0.9501834025275879 0 0 0
4217 1 -9.638002328071002 67.77957692857747 -3.438483402557726 0 0 0
4486 1 -7.8769330190669 69.02380972374847 -2.1943334177979357 0 0 0
4149 1 -4.35479807123029 66.53534258280061 -2.1943333924992525 0 0 0
4150 1 -6.1158658614026935 67.7795758780759 -0.9501834050012442 0 0 0
4151 1 -6.115865861413466 67.7795758780795 -3.438483405066725 0 0 0
4420 1 -4.354796013941748 69.02380877309308 -2.1943334203915486 0 0 0
4083 1 -0.8326584923148961 66.53534295186533 -2.1943333951312978 0 0 0
4084 1 -2.5937277082090238 67.77957555278596 -0.9501834081467733 0 0 0
4085 1 -2.5937277082244203 67.77957555280635 -3.438483408158822 0 0 0
4354 1 -0.8326578515543657 69.02380865603439 -2.1943334230245575 0 0 0
9619 1 -16.68227947859483 57.82569858885267 1.5381166997409672 1 0 0
9655 1 -18.443341820369625 56.58146099239454 0.2939667170494268 1 0 0
9658 1 -18.44334182034473 56.58146099231622 2.7822667171162023 1 0 0
9659 1 -18.443339839964754 59.069935895235034 2.782266684073865 1 0 0
9676 1 -18.443339839937703 59.06993589521361 0.29396668417073635 1 0 0
4231 1 -13.160154083029749 57.825701368247564 1.5381167014368395 0 0 0
4288 1 -14.92122012341791 56.581462425601174 0.2939667150253248 0 0 0
4289 1 -14.92122012344043 56.58146242563094 2.782266715134004 0 0 0
4290 1 -14.921214938865138 59.06993589968808 2.7822666852495774 0 0 0
4298 1 -14.921214938830316 59.06993589964534 0.29396668526912156 0 0 0
4225 1 -11.399092499442258 56.58146914952965 0.2939667169719535 0 0 0
4228 1 -11.399092499379682 56.58146914954658 2.7822667169430755 0 0 0
4229 1 -11.399085758552914 59.06993896597756 2.7822666895632033 0 0 0
4246 1 -11.399085758560474 59.06993896596126 0.29396668970236145 0 0 0
4159 1 -7.876956177191076 56.58147901055251 0.29396672016591424 0 0 0
4162 1 -7.876956177201544 56.581479010539454 2.7822667201852114 0 0 0
4163 1 -7.8769500170522555 59.06994410997706 2.782266693324814 0 0 0
4165 1 -9.638022078885836 57.82570761600104 1.538116704195631 0 0 0
4180 1 -7.876950017033171 59.06994410998565 0.2939666934327325 0 0 0
4093 1 -4.354811146823707 56.5814888646688 0.2939667208093705 0 0 0
4096 1 -4.354811146835582 56.58148886459497 2.782266720826129 0 0 0
4097 1 -4.35480752206829 59.069949689492525 2.782266695697702 0 0 0
4099 1 -6.115882088468594 57.825715336194776 1.538116707722296 0 0 0
4114 1 -4.354807522073932 59.0699496894538 0.2939666958426448 0 0 0
4027 1 -0.8326601646678696 56.58149559047952 0.29396672202621776 0 0 0
4030 1 -0.8326601646519811 56.581495590483755 2.7822667220032766 0 0 0
4031 1 -0.8326602233842855 59.06995393879946 2.7822666968617873 0 0 0
4033 1 -2.593735266749929 57.825722071215104 1.5381167093434622 0 0 0
4048 1 -0.8326602234384265 59.069953938758395 0.2939666969993393 0 0 0
9627 1 -16.682276162938575 60.31417175022026 1.5381166711883159 1 0 0
9677 1 -18.44333854214623 61.5584080163033 0.29396665787375975 1 0 0
9680 1 -18.443338542159175 61.55840801635801 2.782266657790101 1 0 0
4248 1 -13.160148290402805 60.314172430344286 1.5381166746142787 0 0 0
4299 1 -14.92121066395107 61.558407237232124 0.29396665938879274 0 0 0
4300 1 -14.921210663908397 61.55840723723377 2.7822666593817784 0 0 0
4247 1 -11.399079864576235 61.55840797057719 0.2939666641429019 0 0 0
4250 1 -11.3990798645871 61.55840797051891 2.782266664143109 0 0 0
4181 1 -7.876944373600382 61.558409977220144 0.29396666771087165 0 0 0
4182 1 -9.638015651432825 60.31417511990863 1.5381166792351024 0 0 0
4184 1 -7.8769443736201445 61.558409977204875 2.7822666677505783 0 0 0
4115 1 -4.35480392067208 61.55841261598316 0.2939666705502829 0 0 0
4116 1 -6.115877062265282 60.31417895668488 1.5381166832282462 0 0 0
4118 1 -4.354803920661672 61.55841261594673 2.782266670583464 0 0 0
4049 1 -0.8326598075555545 61.55841505286441 0.2939666712357526 0 0 0
4050 1 -2.5937332378381543 60.314182721666704 1.5381166840867566 0 0 0
4052 1 -0.8326598075432112 61.5584150528164 2.7822666712674775 0 0 0
9630 1 -16.682273652340342 62.802642637903425 1.5381166459273201 1 0 0
9639 1 -16.682271849405733 65.29111180755572 1.5381166244165891 1 0 0
9681 1 -18.443337757107646 64.04687800978272 2.7822666345571294 1 0 0
9699 1 -18.44333775710361 64.04687800978209 0.2939666345588475 1 0 0
4253 1 -13.160143518394598 62.80264209313859 1.5381166477853971 0 0 0
4271 1 -13.160139810309419 65.29111064679775 1.5381166246208613 0 0 0
4301 1 -14.921207341175677 64.04687688410013 2.782266636710722 0 0 0
4309 1 -14.921207341221468 64.04687688412048 0.29396663671655554 0 0 0
4251 1 -11.399075058996587 64.04687625605659 2.782266636497063 0 0 0
4269 1 -11.399075059018234 64.04687625606624 0.2939666365605033 0 0 0
4185 1 -7.876939614331122 64.04687632774325 2.782266638770364 0 0 0
4187 1 -9.63801013163268 62.80264254225651 1.5381166522082845 0 0 0
4203 1 -7.876939614302654 64.04687632770163 0.29396663884700275 0 0 0
4205 1 -9.63800569705146 65.2911098183796 1.5381166231011245 0 0 0
4119 1 -4.354800715894778 64.04687707092417 2.7822666395287463 0 0 0
4121 1 -6.115872549037856 62.80264384047513 1.5381166540343165 0 0 0
4137 1 -4.354800715822156 64.04687707096518 0.2939666395024626 0 0 0
4139 1 -6.1158687961255715 65.2911095840259 1.5381166228648178 0 0 0
4053 1 -0.8326591759086772 64.04687825566025 2.7822666364166664 0 0 0
4055 1 -2.593731161492351 62.80264557212214 1.5381166556615562 0 0 0
4071 1 -0.8326591759598739 64.04687825571844 0.2939666364558398 0 0 0
4073 1 -2.5937292824473768 65.29111001721967 1.538116621767115 0 0 0
9642 1 -16.68227062266702 67.77957974801627 1.5381165987835355 1 0 0
9700 1 -18.44333732998401 66.53534646455216 0.29396661243036964 1 0 0
9703 1 -18.4433373300056 66.53534646456511 2.7822666123321325 1 0 0
10040 1 -18.44333714745203 69.02381386120818 2.782266584553897 1 0 0
10049 1 -18.44333714744851 69.02381386111837 0.2939665845133368 1 0 0
4275 1 -13.160137078362665 67.77957837205236 1.5381165985518033 0 0 0
4310 1 -14.921204890849497 66.53534526440947 0.29396661184758016 0 0 0
4311 1 -14.921204890801514 66.53534526443666 2.782266611898921 0 0 0
4610 1 -14.921203177219741 69.02381274760495 2.782266584472948 0 0 0
4616 1 -14.921203177233986 69.02381274755264 0.293966584474008 0 0 0
4270 1 -11.399071362152394 66.53534395632262 0.2939666112114199 0 0 0
4273 1 -11.399071362208941 66.5353439562714 2.7822666112392302 0 0 0
4544 1 -11.39906866475892 69.0238112044115 2.78226658300805 0 0 0
4553 1 -11.399068664709862 69.02381120437968 0.29396658304607587 0 0 0
4204 1 -7.876935844652205 66.53534295614658 0.29396661021789217 0 0 0
4207 1 -7.876935844648453 66.53534295617072 2.7822666101670324 0 0 0
4209 1 -9.638002328067445 67.77957692854066 1.538116597468321 0 0 0
4478 1 -7.876933019055312 69.02380972371098 2.7822665822361947 0 0 0
4487 1 -7.876933019062242 69.02380972373041 0.29396658223831373 0 0 0
4138 1 -4.354798071192534 66.53534258274361 0.29396660748406334 0 0 0
4141 1 -4.354798071203547 66.53534258280105 2.7822666075419833 0 0 0
4143 1 -6.115865861353492 67.7795758780734 1.5381165949763296 0 0 0
4412 1 -4.3547960139457365 69.0238087730761 2.7822665796180748 0 0 0
4421 1 -4.3547960139345765 69.0238087730767 0.2939665796291044 0 0 0
4072 1 -0.8326584923250189 66.535342951871 0.29396660490291926 0 0 0
4075 1 -0.8326584922716924 66.53534295184963 2.782266604860251 0 0 0
4077 1 -2.5937277082015435 67.77957555279949 1.5381165917660775 0 0 0
4346 1 -0.8326578515416768 69.02380865609966 2.7822665770263635 0 0 0
4355 1 -0.8326578515453601 69.023808656009 0.2939665769985629 0 0 0
9615 1 -16.68227947859541 57.825698588794936 6.514716699734147 1 0 0
9618 1 -16.682279478654394 57.82569858871106 4.0264166998106745 1 0 0
9649 1 -18.443341820317027 56.581460992342464 5.270566717075021 1 0 0
9662 1 -18.443339839953502 59.06993589521405 5.270566684187944 1 0 0
4224 1 -13.16015408311825 57.82570136826164 6.514716701362752 0 0 0
4230 1 -13.160154083139034 57.82570136819402 4.0264167014713195 0 0 0
4285 1 -14.92122012339953 56.58146242562153 5.270566714996823 0 0 0
4291 1 -14.921214938856286 59.06993589967846 5.270566685254104 0 0 0
4219 1 -11.399092499380174 56.581469149577686 5.2705667168902774 0 0 0
4232 1 -11.399085758584798 59.069938965949326 5.270566689655286 0 0 0
4153 1 -7.876956177165806 56.581479010598926 5.270566720089354 0 0 0
4158 1 -9.638022078881024 57.82570761601891 6.514716704209937 0 0 0
4164 1 -9.638022078857396 57.82570761584839 4.026416704258457 0 0 0
4166 1 -7.876950017082359 59.06994410994949 5.27056669347731 0 0 0
4087 1 -4.354811146810883 56.58148886459981 5.270566720802491 0 0 0
4092 1 -6.115882088421875 57.82571533618748 6.514716707640458 0 0 0
4098 1 -6.115882088379236 57.82571533607282 4.026416707709659 0 0 0
4100 1 -4.354807522021453 59.0699496894743 5.270566695794109 0 0 0
4021 1 -0.8326601647078921 56.58149559055743 5.2705667219642205 0 0 0
4026 1 -2.59373526668156 57.825722071243156 6.514716709309544 0 0 0
4032 1 -2.59373526672446 57.825722071104025 4.026416709349023 0 0 0
4034 1 -0.832660223429505 59.069953938789105 5.270566696950008 0 0 0
9620 1 -16.68227616295106 60.31417175015414 6.5147166712264495 1 0 0
9621 1 -16.68227616295645 60.31417175024372 4.026416671251707 1 0 0
9663 1 -18.443338542150897 61.558408016287075 5.270566657827789 1 0 0
4234 1 -13.160148290396405 60.31417243029283 6.514716674596606 0 0 0
4235 1 -13.160148290458885 60.314172430410395 4.0264166746491314 0 0 0
4292 1 -14.921210663894085 61.558407237245305 5.270566659347524 0 0 0
4233 1 -11.399079864505635 61.55840797059607 5.270566664158013 0 0 0
4167 1 -7.876944373617843 61.558409977200235 5.270566667728315 0 0 0
4168 1 -9.638015651431784 60.31417511986352 6.514716679280704 0 0 0
4169 1 -9.638015651417962 60.31417511994812 4.026416679336045 0 0 0
4101 1 -4.35480392071827 61.55841261596052 5.270566670479616 0 0 0
4102 1 -6.115877062274623 60.31417895665594 6.514716683202644 0 0 0
4103 1 -6.115877062177923 60.31417895674479 4.026416683301641 0 0 0
4035 1 -0.8326598075947229 61.55841505280152 5.270566671261287 0 0 0
4036 1 -2.593733237820489 60.31418272159474 6.514716684110771 0 0 0
4037 1 -2.593733237771599 60.31418272168572 4.026416684079446 0 0 0
9622 1 -16.682273652333272 62.80264263788997 6.514716645870383 1 0 0
9629 1 -16.68227365235496 62.8026426378943 4.026416645930482 1 0 0
9631 1 -16.68227184932984 65.2911118076004 6.514716624408122 1 0 0
9632 1 -16.68227184942883 65.29111180759058 4.026416624414346 1 0 0
9684 1 -18.44333775709944 64.04687800982704 5.2705666345743385 1 0 0
4238 1 -13.160143518366382 62.80264209316109 6.514716647751647 0 0 0
4252 1 -13.160143518366752 62.80264209308278 4.026416647814418 0 0 0
4256 1 -13.160139810309492 65.29111064681751 6.514716624639725 0 0 0
4257 1 -13.16013981028572 65.29111064677143 4.026416624711645 0 0 0
4302 1 -14.921207341178574 64.04687688418718 5.270566636704781 0 0 0
4254 1 -11.399075059016836 64.04687625603441 5.27056663654441 0 0 0
4172 1 -9.63801013161118 62.80264254226949 6.514716652222758 0 0 0
4186 1 -9.638010131624602 62.80264254226216 4.0264166521778115 0 0 0
4188 1 -7.876939614279914 64.0468763276566 5.270566638788893 0 0 0
4190 1 -9.638005697057189 65.29110981836459 6.514716623189786 0 0 0
4191 1 -9.638005697044122 65.29110981838458 4.026416623206831 0 0 0
4106 1 -6.115872549030005 62.80264384045207 6.514716654022119 0 0 0
4120 1 -6.115872549107104 62.8026438403757 4.026416654084671 0 0 0
4122 1 -4.354800715976115 64.04687707089062 5.270566639544048 0 0 0
4124 1 -6.115868796152527 65.29110958398422 6.514716622944413 0 0 0
4125 1 -6.11586879610016 65.29110958403116 4.02641662290328 0 0 0
4040 1 -2.5937311615486967 62.80264557209104 6.514716655593794 0 0 0
4054 1 -2.5937311615085927 62.80264557208264 4.026416655670722 0 0 0
4056 1 -0.8326591759590987 64.0468782556371 5.270566636463756 0 0 0
4058 1 -2.593729282519611 65.29111001728414 6.5147166217202335 0 0 0
4059 1 -2.593729282463423 65.29111001729837 4.026416621824388 0 0 0
9633 1 -16.68227062269256 67.77957974803353 6.514716598860273 1 0 0
9641 1 -16.68227062274756 67.77957974803755 4.026416598859618 1 0 0
9685 1 -18.4433373300138 66.53534646458537 5.270566612449325 1 0 0
10041 1 -18.443337147454766 69.02381386116338 5.27056658443675 1 0 0
4259 1 -13.160137078308392 67.77957837201795 6.514716598582272 0 0 0
4274 1 -13.160137078348907 67.7795783720238 4.02641659853704 0 0 0
4303 1 -14.921204890829223 66.53534526442238 5.270566611870034 0 0 0
4611 1 -14.921203177211279 69.02381274759001 5.270566584387905 0 0 0
4255 1 -11.399071362256015 66.5353439562882 5.270566611166009 0 0 0
4545 1 -11.399068664709832 69.02381120438845 5.270566582993558 0 0 0
4189 1 -7.876935844614641 66.53534295615012 5.270566610207431 0 0 0
4193 1 -9.638002328022504 67.77957692860498 6.5147165974389045 0 0 0
4208 1 -9.638002328082065 67.77957692856438 4.026416597456462 0 0 0
4479 1 -7.876933019060339 69.02380972374243 5.270566582204481 0 0 0
4123 1 -4.354798071195177 66.53534258279225 5.270566607449154 0 0 0
4127 1 -6.1158658613754895 67.7795758780814 6.514716594984636 0 0 0
4142 1 -6.115865861390276 67.77957587806841 4.0264165949594855 0 0 0
4413 1 -4.3547960139192545 69.02380877308681 5.270566579591348 0 0 0
4057 1 -0.8326584922824792 66.53534295187976 5.270566604852355 0 0 0
4061 1 -2.5937277081843058 67.77957555278408 6.514716591848483 0 0 0
4076 1 -2.5937277082374277 67.7795755527794 4.026416591846087 0 0 0
4347 1 -0.8326578515663163 69.0238086560373 5.270566576930893 0 0 0
10020 1 -16.6822698426803 70.26804685625898 -5.926783430186182 1 0 0
10029 1 -16.682269391107393 72.75651344214128 -5.926783463776525 1 0 0
10045 1 -18.443337116199395 71.51228057814112 -7.170933448281359 1 0 1
10065 1 -18.44333711616122 71.51228057806007 -4.682633448189808 1 0 0
4571 1 -13.160135173585257 70.26804550840339 -5.926783430930147 0 0 0
4589 1 -13.160133925823212 72.75651225301569 -5.9267834636349335 0 0 0
4613 1 -14.921202054209118 71.51227963039103 -7.170933447110842 0 0 1
4625 1 -14.921202054180855 71.51227963034616 -4.682633447050201 0 0 0
4549 1 -11.399066805948205 71.5122781231516 -7.170933447278358 0 0 1
4569 1 -11.399066805960574 71.51227812311967 -4.682633447222483 0 0 0
4483 1 -7.876931013166674 71.51227653452652 -7.170933448529839 0 0 1
4503 1 -7.876931013202492 71.51227653451146 -4.682633448426421 0 0 0
4505 1 -9.637999904321282 70.26804388266953 -5.926783432451655 0 0 0
4523 1 -9.637998255522955 72.75651069844363 -5.926783462962872 0 0 0
4417 1 -4.354794497637851 71.51227536733495 -7.170933447474524 0 0 1
4437 1 -4.354794497638197 71.51227536730772 -4.68263344753234 0 0 0
4439 1 -6.115863685639426 70.26804249463184 -5.926783432822093 0 0 0
4457 1 -6.115862158535517 72.75650927105347 -5.926783461906626 0 0 0
4351 1 -0.8326573072359996 71.51227499596301 -7.170933448942002 0 0 1
4371 1 -0.8326573072847138 71.51227499597508 -4.682633448889631 0 0 0
4373 1 -2.593726472350207 70.26804178477023 -5.926783434262241 0 0 0
4391 1 -2.593725551932222 72.75650842582685 -5.926783462641076 0 0 0
10031 1 -16.682269168095157 75.24497972845037 -5.926783500060728 1 0 0
10046 1 -18.44333717165093 74.00074689502216 -7.1709334826010975 1 0 1
10086 1 -18.443337171696815 74.00074689495467 -4.682633482626036 1 0 0
4593 1 -13.160133171248471 75.24497875386996 -5.9267834965035044 0 0 0
4614 1 -14.921201371905404 74.00074614071093 -7.170933481927516 0 0 1
4635 1 -14.92120137192204 74.00074614070245 -4.682633481916611 0 0 0
4550 1 -11.39906560312368 74.0007448126943 -7.170933478238317 0 0 1
4590 1 -11.399065603066592 74.00074481267282 -4.6826334782822805 0 0 0
4484 1 -7.876929670640841 74.00074333338816 -7.170933476580895 0 0 1
4524 1 -7.876929670650935 74.00074333334429 -4.682633476584893 0 0 0
4527 1 -9.637997207969105 75.24497740264049 -5.926783493104379 0 0 0
4418 1 -4.354793440968 74.00074217082827 -7.170933476342524 0 0 1
4458 1 -4.354793440975891 74.00074217081574 -4.682633476351887 0 0 0
4461 1 -6.115861150211289 75.24497610546098 -5.926783492845278 0 0 0
4352 1 -0.8326568699904653 74.00074169928959 -7.170933477343946 0 0 1
4392 1 -0.8326568700585089 74.00074169934956 -4.682633477263715 0 0 0
4395 1 -2.593724902822835 75.24497527461435 -5.9267834923389975 0 0 0
10036 1 -16.682269092546278 77.73344587531794 -5.9267835292409305 1 0 0
10061 1 -18.443337266741622 76.48921301066625 -7.170933513380382 1 0 1
10062 1 -18.44333737826061 78.97767904746941 -7.170933542692365 1 0 1
10087 1 -18.443337266694094 76.48921301066379 -4.682633513242726 1 0 0
10100 1 -18.443337378243502 78.97767904743924 -4.6826335427056405 1 0 0
4603 1 -13.160132767144528 77.73344511948183 -5.926783529359233 0 0 0
4622 1 -14.921201006331216 76.48921244274432 -7.170933513088051 0 0 1
4623 1 -14.921200850553225 78.97767864359264 -7.170933545223743 0 0 1
4636 1 -14.921201006248536 76.48921244281726 -4.682633513158548 0 0 0
4642 1 -14.921200850546569 78.9776786435976 -4.682633545235813 0 0 0
4565 1 -11.399064886432688 76.48921135332014 -7.170933512569934 0 0 1
4566 1 -11.39906451489408 78.97767780019883 -7.170933544176553 0 0 1
4591 1 -11.399064886411363 76.48921135334658 -4.6826335126302165 0 0 0
4604 1 -11.399064514891265 78.97767780019635 -4.682633544109313 0 0 0
4499 1 -7.8769288318878505 76.48921008982046 -7.170933510531345 0 0 1
4500 1 -7.876928361635476 78.97767678900642 -7.170933542292218 0 0 1
4525 1 -7.876928831891937 76.48921008984449 -4.682633510609342 0 0 0
4537 1 -9.637996599684268 77.73344402334726 -5.926783527684254 0 0 0
4538 1 -7.876928361652342 78.97767678896109 -4.6826335422209375 0 0 0
4433 1 -4.354792747004207 76.4892090529721 -7.17093351078024 0 0 1
4434 1 -4.354792323632994 78.97767592866727 -7.170933539107197 0 0 1
4459 1 -4.354792746984831 76.48920905296491 -4.6826335108158395 0 0 0
4471 1 -6.11586053264259 77.733442935157 -5.926783525764575 0 0 0
4472 1 -4.354792323633324 78.97767592867459 -4.682633539081131 0 0 0
4367 1 -0.8326565388237392 76.48920857267953 -7.170933508403519 0 0 1
4368 1 -0.8326563009229445 78.97767549608689 -7.170933540062763 0 0 1
4393 1 -0.8326565388618199 76.489208572692 -4.682633508296093 0 0 0
4405 1 -2.5937244699182367 77.73344219796516 -5.926783525779002 0 0 0
4406 1 -0.832656300877321 78.97767549608753 -4.682633539987034 0 0 0
10038 1 -16.68226910767838 80.22191198687067 -5.926783557678438 1 0 0
10084 1 -18.443337484856492 81.46614506468173 -7.170933572396029 1 0 1
10101 1 -18.44333748480545 81.46614506469102 -4.682633572307137 1 0 0
10420 1 -16.68226917194626 82.71037816369359 -5.926783585601763 1 0 0
4607 1 -13.160132595327012 80.22191143523179 -5.92678355926495 0 0 0
4634 1 -14.921200826859604 81.46614479619838 -7.170933573943652 0 0 1
4643 1 -14.92120082685036 81.46614479621718 -4.68263357392953 0 0 0
4909 1 -13.160132571764027 82.71037778253493 -5.926783586251927 0 0 0
4588 1 -11.399064368765574 81.46614417813785 -7.17093357296066 0 0 1
4605 1 -11.39906436872245 81.46614417819919 -4.682633572943907 0 0 0
4522 1 -7.876928139678839 81.46614341033965 -7.1709335700489065 0 0 1
4539 1 -7.876928139627831 81.46614341035749 -4.682633570023505 0 0 0
4541 1 -9.637996297863642 80.22191059268324 -5.926783557464979 0 0 0
4843 1 -9.63799619500451 82.7103771702014 -5.926783586173282 0 0 0
4456 1 -4.354792094803049 81.46614274042462 -7.170933567538044 0 0 1
4473 1 -4.354792094784552 81.4661427404619 -4.682633567540924 0 0 0
4475 1 -6.115860192173172 80.22190973392615 -5.926783554631561 0 0 0
4777 1 -6.115860042642112 82.7103765259555 -5.926783582418276 0 0 0
4390 1 -0.832656134447239 81.46614237608867 -7.170933564934014 0 0 1
4407 1 -0.8326561344845391 81.46614237607139 -4.68263356491945 0 0 0
4409 1 -2.5937242006119576 80.22190912661986 -5.9267835519863805 0 0 0
4711 1 -2.5937240484699697 82.71037605354056 -5.926783579552828 0 0 0
10013 1 -16.682269842683485 70.26804685634322 -0.9501834301085557 1 0 0
10019 1 -16.682269842709076 70.26804685628281 -3.438483430184142 1 0 0
10021 1 -16.68226939116521 72.75651344215218 -0.9501834638074298 1 0 0
10022 1 -16.682269391104168 72.756513442139 -3.4384834637805954 1 0 0
10068 1 -18.443337116148765 71.51228057811132 -2.194333448287941 1 0 0
4556 1 -13.160135173630826 70.26804550836123 -0.9501834308972146 0 0 0
4570 1 -13.160135173613373 70.2680455083674 -3.4384834309286445 0 0 0
4574 1 -13.160133925899837 72.75651225296615 -0.9501834635972367 0 0 0
4575 1 -13.160133925828612 72.75651225296869 -3.4384834636221173 0 0 0
4626 1 -14.921202054188724 71.51227963040245 -2.1943334470789155 0 0 0
4572 1 -11.399066805930437 71.51227812313262 -2.194333447175903 0 0 0
4490 1 -9.63799990431897 70.26804388267111 -0.950183432495507 0 0 0
4504 1 -9.637999904259932 70.26804388266078 -3.4384834324707745 0 0 0
4506 1 -7.876931013212175 71.51227653454275 -2.194333448519685 0 0 0
4508 1 -9.637998255492858 72.75651069844811 -0.950183462955268 0 0 0
4509 1 -9.637998255568284 72.75651069847315 -3.4384834629294616 0 0 0
4424 1 -6.115863685647598 70.26804249470416 -0.9501834328197535 0 0 0
4438 1 -6.115863685655972 70.26804249463699 -3.4384834328902683 0 0 0
4440 1 -4.354794497682883 71.51227536735922 -2.194333447514214 0 0 0
4442 1 -6.115862158499441 72.75650927103266 -0.950183461875945 0 0 0
4443 1 -6.115862158535654 72.75650927102424 -3.438483461872189 0 0 0
4358 1 -2.593726472336491 70.26804178473185 -0.9501834342063505 0 0 0
4372 1 -2.593726472376547 70.2680417846975 -3.438483434255267 0 0 0
4374 1 -0.8326573072721614 71.51227499596831 -2.194333448908982 0 0 0
4376 1 -2.593725551960755 72.75650842584032 -0.950183462557074 0 0 0
4377 1 -2.593725551888995 72.75650842581265 -3.4384834626194944 0 0 0
10024 1 -16.682269168131207 75.24497972848356 -0.9501835000947328 1 0 0
10030 1 -16.68226916814477 75.2449797284824 -3.4384835000537093 1 0 0
10069 1 -18.44333717161991 74.00074689499839 -2.1943334825710243 1 0 0
4579 1 -13.16013317124252 75.24497875380574 -0.9501834964729735 0 0 0
4592 1 -13.16013317125893 75.24497875387841 -3.4384834964903828 0 0 0
4627 1 -14.921201371930442 74.00074614067127 -2.1943334819255034 0 0 0
4573 1 -11.399065603087882 74.00074481267147 -2.194333478289238 0 0 0
4507 1 -7.876929670642894 74.0007433333468 -2.1943334765537665 0 0 0
4513 1 -9.637997208024547 75.24497740264468 -0.9501834931167671 0 0 0
4526 1 -9.637997208006912 75.24497740261754 -3.4384834930697177 0 0 0
4441 1 -4.354793440962342 74.00074217076649 -2.194333476357022 0 0 0
4447 1 -6.115861150207388 75.24497610538616 -0.9501834928501383 0 0 0
4460 1 -6.115861150212411 75.24497610540134 -3.438483492854467 0 0 0
4375 1 -0.83265687007912 74.00074169938678 -2.1943334773114875 0 0 0
4381 1 -2.593724902748916 75.24497527457824 -0.9501834923610286 0 0 0
4394 1 -2.5937249027605405 75.24497527465125 -3.4384834923457412 0 0 0
10032 1 -16.682269092550687 77.73344587533344 -0.9501835291516242 1 0 0
10033 1 -16.682269092566354 77.73344587528177 -3.438483529205066 1 0 0
10090 1 -18.44333726664652 76.48921301067998 -2.19433351335473 1 0 0
10091 1 -18.443337378299148 78.97767904749539 -2.194333542775337 1 0 0
4596 1 -13.160132767123125 77.73344511949269 -0.9501835293506977 0 0 0
4597 1 -13.160132767160567 77.73344511948076 -3.4384835293183427 0 0 0
4637 1 -14.921201006275243 76.48921244276036 -2.194333513138598 0 0 0
4638 1 -14.92120085052165 78.97767864357479 -2.1943335452478605 0 0 0
4594 1 -11.399064886482094 76.4892113533929 -2.1943335126211636 0 0 0
4595 1 -11.399064514842815 78.97767780020934 -2.194333544163227 0 0 0
4528 1 -7.876928831912836 76.48921008982877 -2.194333510531622 0 0 0
4529 1 -7.876928361643868 78.97767678898246 -2.1943335422838355 0 0 0
4530 1 -9.637996599669583 77.73344402340439 -0.9501835276790732 0 0 0
4531 1 -9.637996599674805 77.73344402347466 -3.4384835276141192 0 0 0
4462 1 -4.3547927470791326 76.48920905298364 -2.194333510835317 0 0 0
4463 1 -4.3547923236724 78.97767592869785 -2.194333539086042 0 0 0
4464 1 -6.115860532660371 77.73344293523986 -0.9501835257520386 0 0 0
4465 1 -6.115860532639533 77.73344293526371 -3.438483525730961 0 0 0
4396 1 -0.8326565388676627 76.48920857272581 -2.19433350839854 0 0 0
4397 1 -0.8326563009041369 78.97767549603776 -2.194333540063194 0 0 0
4398 1 -2.59372446987512 77.7334421979196 -0.9501835257661227 0 0 0
4399 1 -2.5937244698707453 77.73344219794393 -3.438483525729116 0 0 0
10035 1 -16.682269107661323 80.221911986905 -0.9501835576624575 1 0 0
10037 1 -16.682269107688377 80.22191198689129 -3.4384835576370154 1 0 0
10104 1 -18.443337484817828 81.46614506468745 -2.194333572271468 1 0 0
10411 1 -16.68226917193995 82.71037816373578 -0.9501835856371676 1 0 0
10412 1 -16.68226917198096 82.71037816374202 -3.4384835856314466 1 0 0
4601 1 -13.160132595305127 80.22191143520774 -0.9501835592775244 0 0 0
4606 1 -13.1601325953006 80.22191143515893 -3.438483559275625 0 0 0
4644 1 -14.921200826817167 81.4661447962197 -2.1943335739458654 0 0 0
4892 1 -13.160132571736849 82.7103777825464 -0.9501835861962452 0 0 0
4893 1 -13.160132571664489 82.71037778260033 -3.4384835862495815 0 0 0
4608 1 -11.399064368688899 81.46614417812907 -2.1943335728787354 0 0 0
4535 1 -9.637996297829446 80.22191059262781 -0.9501835574418365 0 0 0
4540 1 -9.637996297842202 80.22191059258864 -3.4384835573923915 0 0 0
4542 1 -7.876928139678136 81.46614341029834 -2.194333570022187 0 0 0
4826 1 -9.637996194912274 82.710377170092 -0.950183586076681 0 0 0
4827 1 -9.637996194979632 82.71037717009874 -3.4384835861299505 0 0 0
4469 1 -6.115860192165285 80.22190973385143 -0.9501835546258806 0 0 0
4474 1 -6.115860192206002 80.2219097338036 -3.4384835545757695 0 0 0
4476 1 -4.354792094775304 81.46614274041215 -2.194333567497235 0 0 0
4760 1 -6.115860042673515 82.71037652597033 -0.9501835823904727 0 0 0
4761 1 -6.1158600426780785 82.71037652599351 -3.4384835824368185 0 0 0
4403 1 -2.593724200667249 80.22190912661958 -0.9501835519127365 0 0 0
4408 1 -2.593724200563725 80.2219091266067 -3.4384835519215837 0 0 0
4410 1 -0.8326561344780582 81.46614237602635 -2.1943335649530216 0 0 0
4694 1 -2.5937240484638027 82.71037605360296 -0.9501835795367761 0 0 0
4695 1 -2.5937240484248516 82.71037605369123 -3.4384835795423565 0 0 0
10012 1 -16.68226984269565 70.26804685626871 1.5381165698339754 1 0 0
10015 1 -16.682269391140338 72.75651344212562 1.5381165361911961 1 0 0
10050 1 -18.443337116198645 71.51228057814569 0.2939665517348048 1 0 0
10053 1 -18.443337116167868 71.51228057807602 2.7822665517811562 1 0 0
4555 1 -13.16013517359708 70.26804550842641 1.538116569082987 0 0 0
4560 1 -13.160133925840443 72.75651225302629 1.5381165363453884 0 0 0
4617 1 -14.921202054243091 71.5122796304103 0.2939665529176672 0 0 0
4618 1 -14.921202054201867 71.5122796303397 2.7822665529587165 0 0 0
4554 1 -11.399066805953307 71.5122781231641 0.2939665527003577 0 0 0
4557 1 -11.399066805962125 71.51227812314276 2.7822665528083315 0 0 0
4488 1 -7.876931013156896 71.5122765345383 0.29396655144741946 0 0 0
4489 1 -9.637999904326204 70.2680438826728 1.5381165675646808 0 0 0
4491 1 -7.876931013190365 71.51227653449845 2.7822665516084784 0 0 0
4494 1 -9.637998255498603 72.75651069846766 1.5381165370217937 0 0 0
4422 1 -4.354794497611741 71.51227536734712 0.2939665524990994 0 0 0
4423 1 -6.115863685613159 70.26804249463193 1.5381165671610564 0 0 0
4425 1 -4.354794497633568 71.51227536732394 2.782266552512414 0 0 0
4428 1 -6.115862158522085 72.75650927107661 1.5381165380672888 0 0 0
4356 1 -0.8326573072384051 71.51227499596861 0.29396655107187736 0 0 0
4357 1 -2.593726472335221 70.2680417847864 1.5381165657408806 0 0 0
4359 1 -0.8326573072665331 71.51227499597417 2.7822665511011615 0 0 0
4362 1 -2.5937255519208477 72.75650842583526 1.5381165373275105 0 0 0
10023 1 -16.682269168106412 75.24497972850482 1.5381164999136323 1 0 0
10054 1 -18.443337171692395 74.0007468949784 2.7822665174068324 1 0 0
10072 1 -18.443337171658683 74.00074689503762 0.2939665173344891 1 0 0
4578 1 -13.160133171246086 75.24497875386855 1.5381165035013051 0 0 0
4619 1 -14.921201371949259 74.00074614073783 2.7822665181229618 0 0 0
4628 1 -14.921201371921523 74.00074614070549 0.2939665180662589 0 0 0
4558 1 -11.399065603056094 74.00074481267467 2.782266521691761 0 0 0
4576 1 -11.399065603123109 74.00074481268855 0.2939665217594736 0 0 0
4492 1 -7.876929670656953 74.00074333335202 2.782266523410052 0 0 0
4510 1 -7.876929670630305 74.0007433333667 0.2939665234322767 0 0 0
4512 1 -9.637997207977307 75.24497740262433 1.5381165068739013 0 0 0
4426 1 -4.354793440974626 74.00074217082934 2.7822665236605766 0 0 0
4444 1 -4.354793440961145 74.00074217082889 0.29396652367264464 0 0 0
4446 1 -6.115861150211105 75.24497610543342 1.5381165071473506 0 0 0
4360 1 -0.8326568700490524 74.00074169935344 2.782266522757255 0 0 0
4378 1 -0.832656869983237 74.00074169927863 0.29396652264731504 0 0 0
4380 1 -2.5937249028271046 75.24497527460751 1.538116507663245 0 0 0
10026 1 -16.682269092555416 77.73344587530629 1.5381164707576311 1 0 0
10073 1 -18.443337266732357 76.48921301069403 0.2939664866705016 1 0 0
10076 1 -18.44333726669977 76.48921301065788 2.7822664867296636 1 0 0
10077 1 -18.443337378253293 78.97767904744296 2.7822664573171974 1 0 0
10094 1 -18.443337378251467 78.9776790474909 0.2939664572726678 1 0 0
4583 1 -13.160132767130076 77.73344511949503 1.5381164706288395 0 0 0
4629 1 -14.92120100632338 76.4892124427601 0.29396648689617483 0 0 0
4630 1 -14.92120100624825 76.48921244281328 2.782266486851708 0 0 0
4631 1 -14.921200850558446 78.97767864359865 2.7822664547711664 0 0 0
4639 1 -14.921200850563599 78.97767864357259 0.2939664547873811 0 0 0
4577 1 -11.399064886428777 76.48921135331786 0.2939664874260052 0 0 0
4580 1 -11.39906488642269 76.4892113533425 2.7822664874004737 0 0 0
4581 1 -11.399064514894544 78.97767780022488 2.7822664558571786 0 0 0
4598 1 -11.399064514891233 78.97767780018654 0.2939664558445491 0 0 0
4511 1 -7.876928831900139 76.48921008981186 0.2939664894272551 0 0 0
4514 1 -7.876928831911921 76.48921008981999 2.7822664894236095 0 0 0
4515 1 -7.876928361664244 78.97767678895003 2.7822664577683467 0 0 0
4517 1 -9.637996599705996 77.73344402337482 1.5381164723351113 0 0 0
4532 1 -7.876928361654803 78.9776767889842 0.2939664577510089 0 0 0
4445 1 -4.354792747025172 76.48920905297577 0.29396648917970475 0 0 0
4448 1 -4.354792746996791 76.4892090529627 2.7822664892190723 0 0 0
4449 1 -4.354792323630714 78.97767592867133 2.782266460891282 0 0 0
4451 1 -6.115860532668736 77.73344293518497 1.5381164742327134 0 0 0
4466 1 -4.354792323642608 78.97767592863765 0.29396646093233386 0 0 0
4379 1 -0.8326565388259006 76.48920857267447 0.2939664916084367 0 0 0
4382 1 -0.8326565388553459 76.48920857267878 2.782266491690345 0 0 0
4383 1 -0.8326563008915707 78.97767549606164 2.782266460027601 0 0 0
4385 1 -2.5937244699224875 77.73344219797578 1.5381164742357105 0 0 0
4400 1 -0.8326563009122078 78.97767549606385 0.2939664599382804 0 0 0
10034 1 -16.682269107684604 80.22191198687234 1.5381164423218305 1 0 0
10095 1 -18.443337484841948 81.46614506469858 0.2939664276497936 1 0 0
10098 1 -18.44333748478855 81.46614506468607 2.7822664277034654 1 0 0
10407 1 -16.682269171925437 82.71037816373696 1.5381164143770572 1 0 0
4600 1 -13.160132595342283 80.22191143518587 1.5381164407292283 0 0 0
4640 1 -14.921200826842446 81.46614479621032 0.29396642601948425 0 0 0
4641 1 -14.921200826854603 81.46614479620159 2.7822664260966636 0 0 0
4883 1 -13.16013257175479 82.71037778258876 1.5381164137252148 0 0 0
4599 1 -11.39906436877152 81.46614417814543 0.2939664270324966 0 0 0
4602 1 -11.399064368749542 81.46614417818184 2.7822664270961948 0 0 0
4533 1 -7.87692813965723 81.46614341034078 0.2939664299184888 0 0 0
4534 1 -9.637996297846028 80.22191059263695 1.5381164425585399 0 0 0
4536 1 -7.87692813962525 81.46614341034429 2.7822664300333217 0 0 0
4817 1 -9.637996195001529 82.7103771702529 1.5381164138516765 0 0 0
4467 1 -4.354792094787793 81.46614274041966 0.2939664324217505 0 0 0
4468 1 -6.1158601921758216 80.22190973385013 1.5381164453768073 0 0 0
4470 1 -4.354792094797643 81.46614274046875 2.7822664325087776 0 0 0
4751 1 -6.115860042632885 82.71037652601123 1.5381164175952566 0 0 0
4401 1 -0.8326561344402317 81.46614237609035 0.29396643505511544 0 0 0
4402 1 -2.5937242006051027 80.22190912659474 1.538116448048288 0 0 0
4404 1 -0.8326561344845962 81.46614237606684 2.7822664351095128 0 0 0
4685 1 -2.593724048452235 82.71037605359493 1.538116420450031 0 0 0
10009 1 -16.68226984270765 70.26804685639027 6.514716569891244 1 0 0
10010 1 -16.682269842738908 70.2680468562538 4.026416569797811 1 0 0
10011 1 -16.68226939114628 72.75651344211913 6.514716536227395 1 0 0
10014 1 -16.682269391091925 72.75651344215756 4.026416536228231 1 0 0
10042 1 -18.443337116144164 71.51228057812763 5.270566551754773 1 0 0
4547 1 -13.160135173614368 70.26804550836815 6.514716569099133 0 0 0
4548 1 -13.16013517360239 70.26804550838891 4.0264165690580205 0 0 0
4551 1 -13.160133925897632 72.75651225297356 6.514716536408724 0 0 0
4559 1 -13.160133925836131 72.75651225297946 4.026416536378232 0 0 0
4612 1 -14.921202054193401 71.51227963041752 5.270566552901944 0 0 0
4546 1 -11.399066805917885 71.51227812316317 5.270566552796709 0 0 0
4480 1 -7.876931013222974 71.51227653455217 5.270566551434427 0 0 0
4481 1 -9.637999904318026 70.26804388265543 6.514716567521714 0 0 0
4482 1 -9.637999904247119 70.26804388269485 4.0264165675342865 0 0 0
4485 1 -9.63799825547301 72.7565106984686 6.514716537046358 0 0 0
4493 1 -9.637998255560685 72.75651069844601 4.026416537078649 0 0 0
4414 1 -4.354794497699455 71.51227536738993 5.270566552478997 0 0 0
4415 1 -6.11586368565357 70.2680424946961 6.514716567203532 0 0 0
4416 1 -6.115863685639117 70.26804249465273 4.02641656708198 0 0 0
4419 1 -6.11586215853116 72.75650927105347 6.514716538145188 0 0 0
4427 1 -6.1158621585648305 72.75650927099869 4.0264165381517225 0 0 0
4348 1 -0.8326573072553481 71.51227499599385 5.270566551094744 0 0 0
4349 1 -2.5937264723383366 70.26804178476036 6.514716565803338 0 0 0
4350 1 -2.5937264723876967 70.26804178469152 4.026416565729197 0 0 0
4353 1 -2.593725551951811 72.75650842583397 6.514716537451267 0 0 0
4361 1 -2.593725551886477 72.75650842580447 4.026416537397011 0 0 0
10016 1 -16.682269168148316 75.24497972849947 6.514716499958326 1 0 0
10017 1 -16.682269168150146 75.24497972846773 4.02641649993855 1 0 0
10057 1 -18.443337171601012 74.00074689496203 5.270566517395285 1 0 0
4563 1 -13.160133171248686 75.2449787538098 6.514716503564383 0 0 0
4564 1 -13.160133171256374 75.24497875387765 4.026416503495565 0 0 0
4620 1 -14.921201371931023 74.00074614067547 5.270566518025449 0 0 0
4561 1 -11.399065603084122 74.0007448126494 5.2705665217412445 0 0 0
4495 1 -7.876929670664038 74.0007433333434 5.270566523480574 0 0 0
4497 1 -9.63799720803504 75.24497740264704 6.514716506943515 0 0 0
4498 1 -9.637997208042101 75.24497740263672 4.0264165069169815 0 0 0
4429 1 -4.354793440973168 74.00074217076171 5.270566523638804 0 0 0
4431 1 -6.115861150208022 75.24497610536896 6.514716507178573 0 0 0
4432 1 -6.115861150207408 75.24497610543229 4.0264165071368465 0 0 0
4363 1 -0.8326568700503197 74.00074169939514 5.270566522677683 0 0 0
4365 1 -2.5937249027484977 75.24497527456941 6.514716507653203 0 0 0
4366 1 -2.5937249027643583 75.24497527465493 4.02641650763867 0 0 0
10018 1 -16.682269092561455 77.73344587531173 6.514716470846005 1 0 0
10025 1 -16.682269092563985 77.7334458752803 4.026416470820986 1 0 0
10058 1 -18.443337266671108 76.48921301068079 5.270566486690533 1 0 0
10080 1 -18.44333737831222 78.97767904748935 5.270566457194033 1 0 0
4567 1 -13.160132767114234 77.7334451195111 6.514716470633365 0 0 0
4582 1 -13.16013276716667 77.73344511948066 4.0264164706814665 0 0 0
4621 1 -14.921201006280063 76.489212442775 5.270566486883201 0 0 0
4632 1 -14.921200850529114 78.97767864356092 5.2705664547544036 0 0 0
4562 1 -11.399064886501856 76.48921135340589 5.270566487368852 0 0 0
4584 1 -11.399064514851872 78.97767780022731 5.270566455881256 0 0 0
4496 1 -7.876928831919223 76.48921008985363 5.270566489418728 0 0 0
4501 1 -9.637996599683351 77.73344402345526 6.514716472315682 0 0 0
4516 1 -9.63799659969377 77.73344402345859 4.026416472396014 0 0 0
4518 1 -7.876928361632638 78.97767678899096 5.270566457766062 0 0 0
4430 1 -4.354792747066045 76.48920905300717 5.270566489129885 0 0 0
4435 1 -6.115860532627608 77.73344293528531 6.514716474239297 0 0 0
4450 1 -6.1158605326402755 77.73344293523488 4.026416474272881 0 0 0
4452 1 -4.354792323671779 78.97767592871436 5.270566460924515 0 0 0
4364 1 -0.8326565388664429 76.48920857273666 5.270566491589539 0 0 0
4369 1 -2.593724469877871 77.73344219795234 6.514716474220805 0 0 0
4384 1 -2.5937244698854185 77.733442197939 4.026416474257546 0 0 0
4386 1 -0.8326563009364711 78.97767549602491 5.270566459929845 0 0 0
10027 1 -16.682269107701227 80.22191198688135 6.514716442350578 1 0 0
10028 1 -16.682269107700332 80.2219119868532 4.026416442365277 1 0 0
10081 1 -18.443337484808488 81.46614506470604 5.2705664277211595 1 0 0
10405 1 -16.682269171944355 82.71037816377215 6.514716414358825 1 0 0
10406 1 -16.68226917194333 82.71037816371796 4.026416414376564 1 0 0
4586 1 -13.160132595305127 80.22191143516758 6.514716440738506 0 0 0
4587 1 -13.160132595330023 80.22191143518475 4.026416440709372 0 0 0
4633 1 -14.921200826831184 81.46614479620307 5.270566426033394 0 0 0
4880 1 -13.160132571738616 82.71037778257713 6.514716413797371 0 0 0
4882 1 -13.16013257166634 82.71037778256664 4.0264164137521 0 0 0
4585 1 -11.399064368714447 81.46614417811915 5.270566427030076 0 0 0
4519 1 -7.876928139690558 81.46614341031587 5.2705664298937736 0 0 0
4520 1 -9.637996297819361 80.22191059260052 6.514716442538877 0 0 0
4521 1 -9.637996297846424 80.22191059262965 4.026416442581523 0 0 0
4814 1 -9.63799619492917 82.71037717016509 6.514716413887306 0 0 0
4816 1 -9.637996194995353 82.71037717004225 4.026416413885348 0 0 0
4453 1 -4.354792094814393 81.46614274044276 5.270566432426027 0 0 0
4454 1 -6.1158601921732885 80.22190973382001 6.514716445373395 0 0 0
4455 1 -6.115860192208268 80.22190973383378 4.026416445409689 0 0 0
4748 1 -6.115860042688625 82.71037652602512 6.514716417578233 0 0 0
4750 1 -6.115860042674272 82.71037652595007 4.0264164175885035 0 0 0
4387 1 -0.8326561344684498 81.46614237603876 5.27056643502321 0 0 0
4388 1 -2.5937242006904904 80.22190912663179 6.5147164480660775 0 0 0
4389 1 -2.593724200583715 80.22190912668165 4.026416448059577 0 0 0
4682 1 -2.5937240484586406 82.71037605366067 6.514716420479269 0 0 0
4684 1 -2.59372404842261 82.710376053675 4.026416420500003 0 0 0
10422 1 -16.682269254432338 85.1988446114269 -5.926783609779925 1 0 0
10441 1 -18.443337576891103 83.95461102425517 -7.170933598947766 1 0 1
10450 1 -18.443337651985587 86.44307657161725 -7.170933619443869 1 0 1
10472 1 -18.443337576863623 83.95461102426131 -4.682633598943296 1 0 0
10473 1 -18.443337652019565 86.44307657161075 -4.6826336194778335 1 0 0
4913 1 -13.160132631229361 85.19884436566888 -5.92678360931874 0 0 0
4945 1 -14.92120088064439 83.95461085844956 -7.170933597631423 0 0 1
4949 1 -14.921200968753393 86.44307647982734 -7.170933619377526 0 0 1
4960 1 -14.921200880658398 83.95461085847262 -4.682633597550949 0 0 0
4961 1 -14.921200968737375 86.44307647983526 -4.682633619370758 0 0 0
4879 1 -11.399064363130346 83.95461043082749 -7.1709335976233595 0 0 1
4888 1 -11.399064436972767 86.44307620341714 -7.170933620588602 0 0 1
4910 1 -11.399064363165008 83.95461043080624 -4.682633597546045 0 0 0
4911 1 -11.3990644369455 86.4430762034412 -4.682633620573007 0 0 0
4813 1 -7.876928078443229 83.95460987847301 -7.1709335969454004 0 0 1
4822 1 -7.876928111192311 86.4430758287055 -7.170933622081668 0 0 1
4844 1 -7.876928078492335 83.954609878488 -4.68263359686365 0 0 0
4845 1 -7.8769281111634735 86.4430758286791 -4.682633622193497 0 0 0
4847 1 -9.637996211203866 85.19884394512594 -5.926783608847068 0 0 0
4747 1 -4.354791996697085 83.95460938037208 -7.170933593863336 0 0 1
4756 1 -4.354791981222588 86.44307547625289 -7.1709336227642 0 0 1
4778 1 -4.3547919966547095 83.95460938038812 -4.682633593783125 0 0 0
4779 1 -4.354791981298452 86.44307547620525 -4.682633622740726 0 0 0
4781 1 -6.115860012297664 85.19884348660996 -5.926783609171802 0 0 0
4681 1 -0.8326560294175053 83.95460909356306 -7.170933592005396 0 0 1
4690 1 -0.8326559694493354 86.44307526031035 -7.1709336194955124 0 0 1
4712 1 -0.8326560295035774 83.95460909357618 -4.682633591980852 0 0 0
4713 1 -0.8326559694414873 86.44307526023566 -4.682633619560753 0 0 0
4715 1 -2.5937239793919877 85.19884313614689 -5.926783607771693 0 0 0
10431 1 -16.682269338394565 87.68731213613815 -5.926783627884069 1 0 0
10451 1 -18.443337711363444 88.93154002206016 -7.170933634852762 1 0 1
10492 1 -18.443337711352395 88.93154002201268 -4.6826336348026185 1 0 0
10433 1 -16.682269417592387 90.17578435895905 -5.92678364454382 1 0 0
4929 1 -13.160132731510805 87.68731199049856 -5.926783629192458 0 0 0
4950 1 -14.921201067912838 88.93153998166451 -7.170933635796502 0 0 1
4969 1 -14.921201067896217 88.93153998168086 -4.6826336357311975 0 0 0
4933 1 -13.160132843712981 90.17578428463754 -5.926783646720814 0 0 0
4889 1 -11.399064546260398 88.93153981829457 -7.170933640438262 0 0 1
4930 1 -11.39906454632825 88.93153981831284 -4.68263364032412 0 0 0
4823 1 -7.876928193977709 88.93153958068459 -7.170933643768992 0 0 1
4863 1 -9.637996293589882 87.68731172109334 -5.926783632032236 0 0 0
4864 1 -7.876928193880848 88.93153958074281 -4.6826336437127365 0 0 0
4867 1 -9.637996403558502 90.17578412605258 -5.926783651956666 0 0 0
4757 1 -4.354792010747428 88.93153934427173 -7.170933642577425 0 0 1
4797 1 -6.115860050732118 87.68731141308058 -5.926783633941531 0 0 0
4798 1 -4.3547920107634415 88.931539344287 -4.682633642517697 0 0 0
4801 1 -6.115860121832881 90.1757839322593 -5.926783651991795 0 0 0
4691 1 -0.8326559378346688 88.93153918608807 -7.170933635638789 0 0 1
4731 1 -2.5937239639917347 87.68731116309661 -5.926783630625466 0 0 0
4732 1 -0.8326559377285501 88.93153918605428 -4.682633635588066 0 0 0
4735 1 -2.5937239738626294 90.17578376415405 -5.926783646855422 0 0 0
10438 1 -16.682269485234723 92.66427776467351 -5.926783660308554 1 0 0
10468 1 -18.443337757317547 91.41999360769958 -7.170933653215241 1 0 1
10493 1 -18.443337757324343 91.41999360768165 -4.6826336532916235 1 0 0
4941 1 -13.16013295005372 92.66427774035708 -5.926783663085153 0 0 0
4958 1 -14.92120116307807 91.4199936029652 -7.170933652887497 0 0 1
4970 1 -14.921201163082431 91.41999360293467 -4.682633652933754 0 0 0
4906 1 -11.399064662832668 91.41999351899342 -7.170933657628122 0 0 1
4931 1 -11.39906466279555 91.41999351905332 -4.68263365775148 0 0 0
4840 1 -7.876928293303629 91.4199933792896 -7.170933660416965 0 0 1
4865 1 -7.876928293326554 91.41999337931863 -4.682633660500795 0 0 0
4875 1 -9.637996514155452 92.6642776580778 -5.926783666611291 0 0 0
4774 1 -4.354792061746201 91.41999323155575 -7.170933657553093 0 0 1
4799 1 -4.35479206172987 91.41999323149255 -4.682633657600295 0 0 0
4809 1 -6.115860202556433 92.66427754741632 -5.926783666650583 0 0 0
4708 1 -0.8326559251036254 91.41999312209556 -7.1709336533743535 0 0 1
4733 1 -0.8326559250497936 91.41999312214853 -4.68263365342421 0 0 0
4743 1 -2.5937240006731894 92.66427744130043 -5.926783665010096 0 0 0
10440 1 -16.682269539794856 95.15286373395294 -5.926783677110268 1 0 0
10469 1 -18.44333779039774 93.90840388628158 -7.170933668210213 1 0 1
10504 1 -18.443337790431055 93.9084038862884 -4.682633668252441 1 0 0
10820 1 -18.443337813395612 96.39661418735825 -7.170933679999651 1 0 1
10835 1 -18.443337813395214 96.39661418729128 -4.682633680003457 1 0 0
4944 1 -13.160133041990495 95.15286373817625 -5.926783679415612 0 0 0
4959 1 -14.92120124924942 93.90840390240696 -7.170933671000405 0 0 1
4974 1 -14.921201249305355 93.90840390237157 -4.682633670963022 0 0 0
5162 1 -14.921201313899688 96.39661421425048 -7.170933683839824 0 0 1
5171 1 -14.921201313946371 96.3966142142301 -4.682633683886913 0 0 0
4907 1 -11.39906476937134 93.90840387047889 -7.17093367165712 0 0 1
4942 1 -11.39906476943252 93.90840387049533 -4.682633671602533 0 0 0
5120 1 -11.399064859150633 96.39661421561824 -7.170933683415773 0 0 1
5135 1 -11.399064859181767 96.39661421559242 -4.6826336834598905 0 0 0
4841 1 -7.876928390779919 93.90840379951354 -7.1709336723921 0 0 1
4876 1 -7.876928390796126 93.90840379954516 -4.682633672320741 0 0 0
4878 1 -9.637996614328339 95.15286370720666 -5.926783677740009 0 0 0
5078 1 -7.8769284761633545 96.396614192888 -7.170933680992468 0 0 1
5093 1 -7.876928476155488 96.39661419293853 -4.6826336811143205 0 0 0
4775 1 -4.354792119450185 93.90840371641714 -7.170933671544321 0 0 1
4810 1 -4.3547921193992485 93.90840371631923 -4.682633671466027 0 0 0
4812 1 -6.115860281199178 95.15286365352446 -5.926783677134917 0 0 0
5036 1 -4.354792171605268 96.39661414987549 -7.1709336782197655 0 0 1
5051 1 -4.354792171608142 96.39661414982935 -4.682633678293205 0 0 0
4709 1 -0.8326559245708789 93.90840364216959 -7.170933670331896 0 0 1
4744 1 -0.8326559245948671 93.90840364220934 -4.682633670215784 0 0 0
4746 1 -2.5937240297889352 95.15286359025787 -5.92678367544461 0 0 0
4994 1 -0.8326559283453495 96.39661410282358 -7.170933677847625 0 0 1
5009 1 -0.8326559283698695 96.39661410279726 -4.682633677885969 0 0 0
10414 1 -16.682269254468643 85.19884461143324 -0.9501836097919082 1 0 0
10421 1 -16.682269254472963 85.19884461141595 -3.4384836098040847 1 0 0
10453 1 -18.443337576866018 83.95461102418558 -2.1943335990190804 1 0 0
10476 1 -18.443337652013437 86.44307657159511 -2.194333619352246 1 0 0
4897 1 -13.16013263127777 85.19884436575845 -0.9501836093488228 0 0 0
4912 1 -13.16013263117277 85.19884436565742 -3.4384836092955147 0 0 0
4951 1 -14.92120088067914 83.95461085846999 -2.194333597583965 0 0 0
4962 1 -14.921200968733773 86.44307647981962 -2.194333619348386 0 0 0
4891 1 -11.3990643631144 83.95461043087647 -2.194333597573851 0 0 0
4914 1 -11.399064436982822 86.4430762034478 -2.1943336205287394 0 0 0
4825 1 -7.876928078450498 83.95460987845493 -2.1943335968808486 0 0 0
4831 1 -9.637996211246273 85.19884394514001 -0.9501836088691035 0 0 0
4846 1 -9.637996211200916 85.19884394509326 -3.4384836089397646 0 0 0
4848 1 -7.876928111164372 86.44307582872584 -2.194333622078056 0 0 0
4759 1 -4.354791996612106 83.95460938044862 -2.1943335938299744 0 0 0
4765 1 -6.115860012273227 85.19884348668384 -0.9501836092552708 0 0 0
4780 1 -6.1158600122925275 85.19884348653893 -3.4384836091938182 0 0 0
4782 1 -4.354791981236796 86.44307547624598 -2.1943336227286525 0 0 0
4693 1 -0.8326560294063858 83.95460909352714 -2.194333591972958 0 0 0
4699 1 -2.5937239793401363 85.19884313616726 -0.9501836077873804 0 0 0
4714 1 -2.593723979391072 85.19884313608605 -3.438483607762354 0 0 0
4716 1 -0.8326559693784151 86.44307526026276 -2.1943336194541057 0 0 0
10423 1 -16.68226933832751 87.68731213609185 -0.9501836279157473 1 0 0
10424 1 -16.68226933833629 87.68731213621209 -3.438483627925333 1 0 0
10477 1 -18.443337711408432 88.9315400220465 -2.194333634794094 1 0 0
10426 1 -16.682269417554654 90.17578435889138 -0.95018364454657 1 0 0
10432 1 -16.682269417540354 90.17578435889467 -3.4384836444838776 1 0 0
4916 1 -13.160132731492899 87.68731199057424 -0.9501836292504384 0 0 0
4917 1 -13.160132731451405 87.68731199059833 -3.43848362919322 0 0 0
4963 1 -14.921201067902322 88.93153998170494 -2.1943336357473764 0 0 0
4921 1 -13.160132843742929 90.17578428462038 -0.9501836466679804 0 0 0
4932 1 -13.160132843732383 90.17578428457003 -3.4384836467000897 0 0 0
4915 1 -11.399064546282434 88.93153981827221 -2.194333640416336 0 0 0
4849 1 -7.87692819393432 88.93153958069917 -2.1943336437070893 0 0 0
4850 1 -9.637996293599484 87.68731172107704 -0.9501836320024815 0 0 0
4851 1 -9.63799629357173 87.68731172117398 -3.4384836320460117 0 0 0
4855 1 -9.637996403566095 90.1757841259592 -0.9501836518614406 0 0 0
4866 1 -9.637996403573482 90.17578412596191 -3.4384836519221755 0 0 0
4783 1 -4.3547920107364675 88.93153934427771 -2.194333642515283 0 0 0
4784 1 -6.115860050800736 87.68731141303809 -0.9501836339492535 0 0 0
4785 1 -6.1158600508496965 87.68731141314807 -3.4384836338914058 0 0 0
4789 1 -6.115860121809992 90.17578393228013 -0.9501836519924104 0 0 0
4800 1 -6.115860121833696 90.17578393218548 -3.438483651986462 0 0 0
4717 1 -0.8326559376922608 88.93153918606727 -2.194333635593739 0 0 0
4718 1 -2.5937239639830048 87.68731116304808 -0.9501836306867537 0 0 0
4719 1 -2.593723963965572 87.68731116318487 -3.4384836305836775 0 0 0
4723 1 -2.5937239738107123 90.17578376414075 -0.9501836468607222 0 0 0
4734 1 -2.5937239738118496 90.17578376405119 -3.4384836468997437 0 0 0
10434 1 -16.68226948527928 92.66427776472847 -0.9501836603344789 1 0 0
10435 1 -16.68226948523507 92.66427776466234 -3.438483660303747 1 0 0
10496 1 -18.443337757364006 91.41999360765664 -2.1943336532266104 1 0 0
4936 1 -13.160132950019278 92.66427774035816 -0.950183663146333 0 0 0
4937 1 -13.160132950015056 92.6642777403976 -3.43848366311819 0 0 0
4971 1 -14.921201163183772 91.4199936029886 -2.194333652892548 0 0 0
4934 1 -11.399064662844946 91.41999351906729 -2.1943336576081225 0 0 0
4868 1 -7.876928293333895 91.4199933793354 -2.1943336603544488 0 0 0
4870 1 -9.63799651422067 92.6642776580827 -0.9501836666365931 0 0 0
4871 1 -9.637996514154239 92.66427765813903 -3.4384836666490664 0 0 0
4802 1 -4.354792061701271 91.41999323160161 -2.1943336575083867 0 0 0
4804 1 -6.115860202616692 92.66427754743594 -0.9501836667559446 0 0 0
4805 1 -6.115860202620435 92.66427754745229 -3.4384836666806535 0 0 0
4736 1 -0.8326559250295646 91.41999312214088 -2.1943336534243243 0 0 0
4738 1 -2.5937240007322813 92.66427744129797 -0.9501836651221416 0 0 0
4739 1 -2.593724000776293 92.66427744138784 -3.4384836650863257 0 0 0
10437 1 -16.68226953976412 95.15286373400498 -0.9501836771170062 1 0 0
10439 1 -16.682269539757165 95.15286373394552 -3.4384836771056473 1 0 0
10497 1 -18.44333779039488 93.90840388629255 -2.1943336682608723 1 0 0
10836 1 -18.443337813389054 96.39661418734134 -2.194333679995512 1 0 0
4940 1 -13.160133041998685 95.15286373822887 -0.9501836794731139 0 0 0
4943 1 -13.160133041932212 95.15286373812125 -3.438483679388839 0 0 0
4972 1 -14.921201249254946 93.9084039024239 -2.1943336709712544 0 0 0
5172 1 -14.921201313930547 96.39661421424412 -2.1943336838062977 0 0 0
4935 1 -11.399064769471947 93.90840387054686 -2.1943336716302335 0 0 0
5136 1 -11.399064859207474 96.39661421560362 -2.19433368345357 0 0 0
4869 1 -7.8769283907626075 93.90840379956906 -2.194333672390615 0 0 0
4874 1 -9.637996614332437 95.15286370724478 -0.9501836777336542 0 0 0
4877 1 -9.637996614339855 95.15286370706896 -3.4384836777753116 0 0 0
5094 1 -7.876928476117271 96.39661419284313 -2.194333681025157 0 0 0
4803 1 -4.354792119428882 93.9084037163484 -2.1943336714974073 0 0 0
4808 1 -6.115860281187989 95.15286365346488 -0.9501836772057838 0 0 0
4811 1 -6.1158602812442595 95.15286365342222 -3.4384836771715985 0 0 0
5052 1 -4.354792171614231 96.39661414979453 -2.194333678253455 0 0 0
4737 1 -0.8326559245597864 93.90840364218022 -2.1943336702430445 0 0 0
4742 1 -2.5937240298422575 95.15286359024317 -0.9501836755160655 0 0 0
4745 1 -2.5937240298132855 95.15286359014773 -3.4384836753644223 0 0 0
5010 1 -0.8326559283488325 96.39661410277375 -2.194333677889194 0 0 0
10413 1 -16.682269254429993 85.19884461138382 1.53811639023058 1 0 0
10443 1 -18.443337576859058 83.95461102426246 2.78226640104438 1 0 0
10456 1 -18.443337576886904 83.95461102425622 0.29396640104271826 1 0 0
10457 1 -18.44333765198915 86.44307657161468 0.2939663805318646 1 0 0
10460 1 -18.443337652017366 86.44307657160759 2.7822663805361847 1 0 0
4896 1 -13.160132631220094 85.19884436561962 1.538116390686187 0 0 0
4946 1 -14.921200880633313 83.9546108584794 2.7822664024179637 0 0 0
4952 1 -14.92120088062348 83.95461085844514 0.29396640240407956 0 0 0
4953 1 -14.921200968749515 86.44307647981924 0.2939663805348904 0 0 0
4954 1 -14.921200968733123 86.44307647980106 2.7822663806640824 0 0 0
4881 1 -11.399064363159098 83.95461043081842 2.7822664023969965 0 0 0
4894 1 -11.399064363121324 83.95461043082855 0.2939664024288257 0 0 0
4895 1 -11.399064436963227 86.44307620342215 0.29396637931700964 0 0 0
4898 1 -11.399064436938449 86.44307620343132 2.78226637948693 0 0 0
4815 1 -7.876928078480336 83.95460987848612 2.7822664031185043 0 0 0
4828 1 -7.876928078426306 83.95460987846242 0.2939664031438238 0 0 0
4829 1 -7.8769281112073415 86.44307582870447 0.2939663778530496 0 0 0
4830 1 -9.637996211203394 85.19884394504744 1.5381163911585647 0 0 0
4832 1 -7.876928111172212 86.44307582865883 2.782266377902716 0 0 0
4749 1 -4.354791996633461 83.95460938040883 2.7822664061781426 0 0 0
4762 1 -4.354791996695993 83.95460938036598 0.29396640619897957 0 0 0
4763 1 -4.354791981233156 86.44307547626482 0.29396637714407253 0 0 0
4764 1 -6.115860012298175 85.19884348656588 1.5381163908153634 0 0 0
4766 1 -4.354791981286131 86.44307547621933 2.7822663773116494 0 0 0
4683 1 -0.8326560295050667 83.9546090935806 2.782266407976399 0 0 0
4696 1 -0.8326560294165003 83.9546090935395 0.29396640799431073 0 0 0
4697 1 -0.8326559694568385 86.44307526028858 0.293966380451682 0 0 0
4698 1 -2.593723979387239 85.19884313608136 1.5381163922288927 0 0 0
4700 1 -0.8326559694372261 86.44307526021458 2.782266380486624 0 0 0
10416 1 -16.682269338376983 87.68731213613653 1.5381163721092028 1 0 0
10461 1 -18.443337711336053 88.93154002201705 2.7822663651399138 1 0 0
10480 1 -18.44333771135363 88.9315400220409 0.29396636517540675 1 0 0
10425 1 -16.68226941760408 90.17578435890626 1.538116355469854 1 0 0
4901 1 -13.160132731517688 87.68731199054872 1.5381163708039942 0 0 0
4955 1 -14.921201067916359 88.93153998166287 2.7822663642388585 0 0 0
4964 1 -14.921201067907681 88.93153998165272 0.29396636426800726 0 0 0
4920 1 -13.160132843724396 90.17578428456713 1.5381163532923123 0 0 0
4899 1 -11.39906454632371 88.93153981829975 2.7822663596030983 0 0 0
4918 1 -11.399064546271125 88.93153981828759 0.2939663596709483 0 0 0
4833 1 -7.876928193859646 88.93153958073648 2.782266356224893 0 0 0
4835 1 -9.637996293577462 87.68731172116436 1.5381163679708811 0 0 0
4852 1 -7.876928193979947 88.93153958069979 0.29396635634236434 0 0 0
4854 1 -9.637996403558557 90.17578412597544 1.5381163480547329 0 0 0
4767 1 -4.354792010758686 88.93153934428423 2.782266357416194 0 0 0
4769 1 -6.115860050747058 87.6873114131579 1.5381163660387132 0 0 0
4786 1 -4.35479201072178 88.93153934428345 0.2939663575198608 0 0 0
4788 1 -6.115860121816011 90.17578393219462 1.5381163480179272 0 0 0
4701 1 -0.8326559377136887 88.93153918604376 2.7822663643697507 0 0 0
4703 1 -2.593723963982708 87.68731116313542 1.5381163693634052 0 0 0
4720 1 -0.8326559378246035 88.93153918607436 0.29396636444278146 0 0 0
4722 1 -2.5937239738429176 90.17578376409561 1.5381163531630844 0 0 0
10428 1 -16.68226948525038 92.66427776472474 1.5381163396855757 1 0 0
10481 1 -18.443337757338227 91.41999360769809 0.2939663467464597 1 0 0
10484 1 -18.4433377573291 91.41999360769209 2.782266346721628 1 0 0
4925 1 -13.160132950054694 92.66427774041587 1.5381163369052977 0 0 0
4965 1 -14.921201163108382 91.41999360296289 0.29396634707979513 0 0 0
4966 1 -14.921201163080116 91.4199936029567 2.782266347154375 0 0 0
4919 1 -11.399064662834174 91.41999351899597 0.29396634233211744 0 0 0
4922 1 -11.39906466278243 91.41999351903462 2.7822663423172855 0 0 0
4853 1 -7.876928293297533 91.41999337928237 0.2939663395272553 0 0 0
4856 1 -7.876928293324273 91.41999337931564 2.7822663395793636 0 0 0
4859 1 -9.637996514146268 92.66427765815854 1.538116333394026 0 0 0
4787 1 -4.35479206174731 91.41999323156782 0.2939663423841508 0 0 0
4790 1 -4.354792061736226 91.41999323148372 2.782266342458001 0 0 0
4793 1 -6.115860202566814 92.66427754748199 1.5381163333365437 0 0 0
4721 1 -0.8326559251068222 91.41999312210116 0.29396634658153636 0 0 0
4724 1 -0.8326559250550881 91.41999312216427 2.7822663466267525 0 0 0
4727 1 -2.593724000702159 92.66427744137414 1.538116334951023 0 0 0
10436 1 -16.682269539776634 95.1528637339096 1.5381163228761257 1 0 0
10485 1 -18.44333779041373 93.90840388631038 2.7822663316959546 1 0 0
10500 1 -18.443337790397443 93.90840388630058 0.2939663318344544 1 0 0
10823 1 -18.443337813385597 96.39661418735287 0.2939663199746851 1 0 0
10824 1 -18.44333781339412 96.39661418728681 2.782266320014449 1 0 0
4939 1 -13.160133041987361 95.15286373813595 1.5381163205800576 0 0 0
4967 1 -14.921201249291132 93.90840390236983 2.7822663289777982 0 0 0
4973 1 -14.921201249228409 93.90840390240308 0.2939663290510543 0 0 0
5164 1 -14.921201313886147 96.39661421425888 0.29396631612708884 0 0 0
5165 1 -14.921201313953182 96.3966142142374 2.782266316181943 0 0 0
4923 1 -11.39906476944603 93.90840387049364 2.782266328318768 0 0 0
4938 1 -11.399064769370293 93.90840387047577 0.29396632840222164 0 0 0
5123 1 -11.3990648591549 96.39661421562133 0.29396631653824334 0 0 0
5124 1 -11.399064859170494 96.39661421559009 2.7822663165754045 0 0 0
4857 1 -7.876928390783558 93.90840379954162 2.782266327615047 0 0 0
4872 1 -7.876928390791753 93.90840379949942 0.29396632767785397 0 0 0
4873 1 -9.637996614323834 95.15286370714024 1.5381163222402188 0 0 0
5081 1 -7.876928476152581 96.39661419287735 0.29396631893364716 0 0 0
5082 1 -7.876928476151266 96.39661419293454 2.782266318941059 0 0 0
4791 1 -4.3547921194096615 93.90840371632972 2.782266328486961 0 0 0
4806 1 -4.354792119471404 93.9084037164195 0.29396632852027316 0 0 0
4807 1 -6.115860281205735 95.15286365344087 1.5381163228403865 0 0 0
5039 1 -4.354792171621896 96.39661414987222 0.29396632169312265 0 0 0
5040 1 -4.354792171619388 96.39661414983445 2.7822663217435557 0 0 0
4725 1 -0.8326559246080963 93.90840364220384 2.782266329724348 0 0 0
4740 1 -0.8326559246039212 93.90840364217279 0.29396632975923503 0 0 0
4741 1 -2.5937240298055464 95.15286359021694 1.5381163245369456 0 0 0
4997 1 -0.832655928356834 96.39661410282312 0.29396632209056844 0 0 0
4998 1 -0.8326559283654473 96.3966141027892 2.7822663221352 0 0 0
10408 1 -16.682269254476694 85.19884461141969 6.514716390200149 1 0 0
10409 1 -16.68226925447739 85.1988446114303 4.0264163901896115 1 0 0
10446 1 -18.443337576866718 83.95461102417234 5.270566400993007 1 0 0
10447 1 -18.443337652029594 86.44307657159432 5.2705663805855405 1 0 0
4886 1 -13.160132631278335 85.19884436569015 6.514716390647821 0 0 0
4887 1 -13.1601326311736 85.19884436572286 4.026416390708638 0 0 0
4947 1 -14.921200880663097 83.95461085846145 5.270566402431754 0 0 0
4948 1 -14.921200968725032 86.44307647981688 5.270566380625296 0 0 0
4884 1 -11.399064363127978 83.95461043086529 5.27056640247137 0 0 0
4885 1 -11.399064436992571 86.44307620344325 5.27056637939581 0 0 0
4818 1 -7.876928078428952 83.95460987844297 5.270566403172367 0 0 0
4819 1 -7.876928111157785 86.44307582869727 5.270566377834932 0 0 0
4820 1 -9.637996211264058 85.19884394507312 6.514716391144574 0 0 0
4821 1 -9.637996211208446 85.19884394514546 4.026416391075729 0 0 0
4752 1 -4.354791996608941 83.95460938045338 5.27056640624664 0 0 0
4753 1 -4.354791981210889 86.44307547624254 5.270566377225967 0 0 0
4754 1 -6.115860012270908 85.19884348662599 6.514716390754092 0 0 0
4755 1 -6.115860012264131 85.19884348662754 4.026416390816247 0 0 0
4686 1 -0.8326560294000735 83.9546090935287 5.270566408086174 0 0 0
4687 1 -0.8326559693613929 86.44307526025452 5.270566380505826 0 0 0
4688 1 -2.5937239793189737 85.19884313613161 6.514716392230214 0 0 0
4689 1 -2.5937239793841638 85.19884313614591 4.0264163922439895 0 0 0
10410 1 -16.682269338348103 87.68731213613073 6.514716372072559 1 0 0
10415 1 -16.682269338334887 87.68731213614356 4.026416372069744 1 0 0
10464 1 -18.44333771141657 88.93154002203109 5.270566365229766 1 0 0
10417 1 -16.682269417559084 90.1757843588439 6.514716355453784 1 0 0
10418 1 -16.682269417540507 90.17578435896647 4.026416355501414 1 0 0
4890 1 -13.160132731485085 87.6873119906437 6.514716370743916 0 0 0
4900 1 -13.160132731451363 87.68731199052377 4.026416370822731 0 0 0
4956 1 -14.92120106791572 88.93153998170177 5.270566364306406 0 0 0
4904 1 -13.160132843725899 90.1757842845613 6.514716353310385 0 0 0
4905 1 -13.16013284373038 90.17578428464707 4.0264163533097825 0 0 0
4902 1 -11.399064546281801 88.93153981826357 5.270566359644468 0 0 0
4824 1 -9.637996293611062 87.6873117211296 6.5147163679841835 0 0 0
4834 1 -9.637996293567427 87.68731172108954 4.026416367943361 0 0 0
4836 1 -7.876928193917465 88.93153958067313 5.2705663563598 0 0 0
4838 1 -9.637996403556816 90.1757841258661 6.514716348135206 0 0 0
4839 1 -9.637996403550664 90.1757841260228 4.026416348066488 0 0 0
4758 1 -6.115860050788179 87.68731141309748 6.514716366055739 0 0 0
4768 1 -6.115860050846336 87.68731141307094 4.026416366111723 0 0 0
4770 1 -4.354792010743314 88.93153934426134 5.270566357549733 0 0 0
4772 1 -6.11586012181207 90.17578393220614 6.514716347985093 0 0 0
4773 1 -6.115860121839998 90.1757839322631 4.026416348010021 0 0 0
4692 1 -2.593723963980505 87.6873111631178 6.514716369335408 0 0 0
4702 1 -2.5937239639552163 87.68731116312486 4.026416369434411 0 0 0
4704 1 -0.8326559376872575 88.93153918606968 5.270566364454724 0 0 0
4706 1 -2.5937239738261084 90.17578376408183 6.514716353126083 0 0 0
4707 1 -2.5937239738126987 90.17578376410664 4.026416353101492 0 0 0
10419 1 -16.682269485268836 92.66427776476132 6.514716339676603 1 0 0
10427 1 -16.682269485232524 92.66427776463263 4.02641633968481 1 0 0
10465 1 -18.44333775736099 91.41999360765747 5.27056634673977 1 0 0
4908 1 -13.16013295000986 92.66427774045155 6.5147163368618015 0 0 0
4924 1 -13.160132949991088 92.66427774036308 4.026416336878675 0 0 0
4957 1 -14.921201163150183 91.41999360300281 5.270566347040046 0 0 0
4903 1 -11.399064662835112 91.41999351906183 5.270566342299923 0 0 0
4837 1 -7.876928293321885 91.41999337932776 5.270566339551349 0 0 0
4842 1 -9.63799651422104 92.66427765815398 6.5147163333560885 0 0 0
4858 1 -9.63799651414518 92.66427765807838 4.026416333341494 0 0 0
4771 1 -4.354792061710883 91.41999323159217 5.270566342410233 0 0 0
4776 1 -6.115860202611907 92.66427754750484 6.51471633326983 0 0 0
4792 1 -6.11586020260752 92.66427754738709 4.026416333309147 0 0 0
4705 1 -0.8326559250319655 91.41999312215427 5.2705663465170165 0 0 0
4710 1 -2.5937240007231734 92.66427744134758 6.5147163348917765 0 0 0
4726 1 -2.5937240008125504 92.66427744132919 4.026416334901375 0 0 0
10429 1 -16.68226953979201 95.15286373394751 6.514716322899006 1 0 0
10430 1 -16.68226953975102 95.15286373398648 4.0264163228988 1 0 0
10488 1 -18.443337790394065 93.90840388629587 5.270566331775063 1 0 0
10819 1 -18.44333781339115 96.39661418735072 5.270566319994174 1 0 0
4927 1 -13.160133042009711 95.15286373817652 6.514716320530471 0 0 0
4928 1 -13.160133041939636 95.15286373818546 4.02641632061314 0 0 0
4968 1 -14.92120124925563 93.90840390242172 5.2705663290889175 0 0 0
5161 1 -14.92120131394531 96.39661421423432 5.270566316143099 0 0 0
4926 1 -11.399064769466463 93.90840387055208 5.270566328436658 0 0 0
5119 1 -11.399064859201905 96.39661421558002 5.270566316502886 0 0 0
4860 1 -7.876928390747942 93.90840379957199 5.27056632767334 0 0 0
4861 1 -9.637996614326282 95.15286370717914 6.514716322295571 0 0 0
4862 1 -9.637996614336808 95.15286370715675 4.026416322231452 0 0 0
5077 1 -7.876928476118608 96.39661419285841 5.270566318932087 0 0 0
4794 1 -4.354792119418155 93.90840371635497 5.2705663285955655 0 0 0
4795 1 -6.115860281174752 95.15286365341785 6.51471632282532 0 0 0
4796 1 -6.115860281242978 95.15286365350005 4.026416322828241 0 0 0
5035 1 -4.354792171608697 96.39661414979399 5.270566321682634 0 0 0
4728 1 -0.8326559245599933 93.90840364217328 5.27056632980482 0 0 0
4729 1 -2.5937240298166664 95.15286359019917 6.514716324512331 0 0 0
4730 1 -2.5937240298025785 95.15286359020865 4.026416324636109 0 0 0
4993 1 -0.8326559283440266 96.39661410276923 5.270566322093529 0 0 0
10813 1 -16.682269579989985 97.64189504817246 -5.926783683847012 1 0 0
10815 1 -16.68226961218688 100.1321410698678 -5.926783683456603 1 0 0
10821 1 -18.443337832623385 98.88366405114876 -7.170933682776402 1 0 1
10850 1 -18.44333783263161 98.88366405109788 -4.682633682731732 1 0 0
5149 1 -13.160133112079484 97.64189507093577 -5.926783685483588 0 0 0
5153 1 -13.160133166093615 100.1321411048007 -5.926783682908135 0 0 0
5163 1 -14.92120136519442 98.88366408416144 -7.170933684161403 0 0 1
5179 1 -14.921201365189335 98.88366408417298 -4.682633684114491 0 0 0
5121 1 -11.399064927559024 98.88366410532507 -7.1709336851863945 0 0 1
5150 1 -11.399064927556143 98.88366410534071 -4.682633685196036 0 0 0
5079 1 -7.8769285412245695 98.88366411035499 -7.170933683969502 0 0 1
5107 1 -9.637996695691044 97.64189507291748 -5.926783685239056 0 0 0
5108 1 -7.876928541242913 98.88366411043965 -4.682633683912712 0 0 0
5111 1 -9.637996754140863 100.13214112597176 -5.926783682552246 0 0 0
5037 1 -4.354792210395888 98.88366409608541 -7.170933683971379 0 0 1
5065 1 -6.115860344068413 97.64189505461357 -5.926783682533525 0 0 0
5066 1 -4.3547922104596335 98.88366409609142 -4.682633683889533 0 0 0
5069 1 -6.115860390629064 100.13214112971433 -5.926783683035976 0 0 0
4995 1 -0.8326559314588764 98.88366406832449 -7.1709336821915555 0 0 1
5023 1 -2.5937240568422966 97.6418950211563 -5.926783680909276 0 0 0
5024 1 -0.8326559314471492 98.88366406828126 -4.682633682254489 0 0 0
5027 1 -2.5937240735104434 100.13214111701527 -5.926783683394118 0 0 0
10818 1 -16.682269640157823 102.62518836150352 -5.926783681318704 1 0 0
10832 1 -18.443337848769097 101.36562136384016 -7.170933682606614 1 0 1
10833 1 -18.443337868283834 103.8491191290491 -7.170933681985649 1 0 1
10851 1 -18.44333784875585 101.36562136389962 -4.682633682642623 1 0 0
10860 1 -18.443337868218748 103.84911912910455 -4.682633681969285 1 0 0
5159 1 -13.160133204838298 102.62518839820522 -5.926783681046959 0 0 0
5169 1 -14.921201405921671 101.36562139860145 -7.170933681188802 0 0 1
5170 1 -14.921201435376402 103.84911916120524 -7.170933680818023 0 0 1
5180 1 -14.921201405930535 101.36562139859511 -4.682633681282903 0 0 0
5184 1 -14.921201435366937 103.84911916124288 -4.6826336808744164 0 0 0
5132 1 -11.399064976014952 101.36562143290921 -7.170933681142726 0 0 1
5133 1 -11.399065008319512 103.84911920605187 -7.170933680650052 0 0 1
5151 1 -11.399064976039163 101.36562143287908 -4.68263368109895 0 0 0
5160 1 -11.399065008323573 103.84911920610143 -4.682633680721238 0 0 0
5090 1 -7.8769285843133385 101.36562145653664 -7.170933682286921 0 0 1
5091 1 -7.87692860801037 103.84911924522218 -7.170933681250087 0 0 1
5109 1 -7.876928584263675 101.36562145656362 -4.682633682279469 0 0 0
5117 1 -9.637996791159013 102.62518843165009 -5.9267836799606455 0 0 0
5118 1 -7.876928607974823 103.84911924520759 -4.682633681273672 0 0 0
5048 1 -4.354792238584529 101.36562145951004 -7.1709336834199275 0 0 1
5049 1 -4.354792244203994 103.84911926584208 -7.1709336819133345 0 0 1
5067 1 -4.354792238567695 101.3656214594552 -4.682633683461991 0 0 0
5075 1 -6.11586041519189 102.6251884498156 -5.9267836819450785 0 0 0
5076 1 -4.354792244158943 103.8491192659446 -4.682633682007883 0 0 0
5006 1 -0.8326559280719638 101.36562144508623 -7.17093368376848 0 0 1
5007 1 -0.8326559177607655 103.84911926581908 -7.170933684146953 0 0 1
5025 1 -0.8326559279769302 101.36562144513795 -4.682633683762298 0 0 0
5033 1 -2.593724079539379 102.62518844626803 -5.926783683811559 0 0 0
5034 1 -0.8326559177998359 103.84911926582495 -4.682633684152888 0 0 0
10807 1 -16.682269579923773 97.64189504814894 -0.9501836839221622 1 0 0
10808 1 -16.682269579908947 97.6418950483017 -3.438483683849828 1 0 0
10810 1 -16.682269612201136 100.13214106985573 -0.950183683474551 1 0 0
10814 1 -16.68226961220477 100.13214106987539 -3.438483683426097 1 0 0
10837 1 -18.443337832621904 98.88366405111897 -2.194333682792 1 0 0
5138 1 -13.160133112065752 97.64189507089648 -0.9501836855482227 0 0 0
5139 1 -13.16013311203219 97.6418950709097 -3.4384836854720695 0 0 0
5143 1 -13.160133166025782 100.13214110477756 -0.9501836829396718 0 0 0
5152 1 -13.160133166093862 100.13214110477479 -3.438483682923084 0 0 0
5173 1 -14.92120136518951 98.8836640842036 -2.1943336841635537 0 0 0
5137 1 -11.399064927567442 98.88366410536571 -2.194333685264135 0 0 0
5095 1 -7.876928541240544 98.88366411041217 -2.1943336839621708 0 0 0
5096 1 -9.637996695677096 97.64189507293914 -0.9501836852003567 0 0 0
5097 1 -9.637996695714428 97.64189507295849 -3.438483685202836 0 0 0
5101 1 -9.637996754078335 100.13214112602232 -0.9501836825932306 0 0 0
5110 1 -9.637996754080097 100.13214112596452 -3.4384836825590157 0 0 0
5053 1 -4.354792210430633 98.88366409613923 -2.1943336839036816 0 0 0
5054 1 -6.115860344083119 97.64189505458538 -0.9501836826025091 0 0 0
5055 1 -6.1158603440767205 97.64189505469594 -3.4384836824913143 0 0 0
5059 1 -6.115860390643394 100.13214112979415 -0.9501836830628319 0 0 0
5068 1 -6.115860390583142 100.13214112967479 -3.438483683038051 0 0 0
5011 1 -0.8326559314438509 98.883664068303 -2.1943336822080224 0 0 0
5012 1 -2.593724056858878 97.64189502122196 -0.9501836809105582 0 0 0
5013 1 -2.593724056847507 97.64189502126747 -3.438483680897089 0 0 0
5017 1 -2.5937240735406095 100.13214111704139 -0.9501836834110596 0 0 0
5026 1 -2.593724073561662 100.13214111704319 -3.4384836834198422 0 0 0
10816 1 -16.68226964012681 102.62518836148122 -0.9501836813472261 1 0 0
10817 1 -16.682269640138788 102.62518836144018 -3.4384836813289534 1 0 0
10854 1 -18.443337848746335 101.3656213639069 -2.194333682663201 1 0 0
10855 1 -18.443337868260926 103.84911912907444 -2.1943336819131307 1 0 0
5156 1 -13.16013320482691 102.62518839821543 -0.9501836810600861 0 0 0
5157 1 -13.160133204828043 102.62518839821581 -3.4384836809789103 0 0 0
5181 1 -14.921201405899291 101.36562139858259 -2.1943336812338368 0 0 0
5182 1 -14.921201435378698 103.84911916120251 -2.194333680804205 0 0 0
5154 1 -11.399064976036318 101.36562143291593 -2.19433368106005 0 0 0
5155 1 -11.399065008348991 103.84911920607414 -2.1943336806606544 0 0 0
5112 1 -7.876928584172566 101.3656214565362 -2.1943336822648565 0 0 0
5113 1 -7.876928607998651 103.84911924520314 -2.194333681303367 0 0 0
5114 1 -9.637996791163541 102.62518843161767 -0.9501836799588976 0 0 0
5115 1 -9.63799679109808 102.62518843161432 -3.4384836799088463 0 0 0
5070 1 -4.354792238585739 101.36562145952618 -2.1943336834489475 0 0 0
5071 1 -4.3547922441536775 103.8491192658877 -2.1943336819394426 0 0 0
5072 1 -6.115860415194266 102.62518844980261 -0.9501836820342608 0 0 0
5073 1 -6.115860415247754 102.62518844977933 -3.4384836819732225 0 0 0
5028 1 -0.8326559280505377 101.36562144513312 -2.194333683680963 0 0 0
5029 1 -0.8326559177973948 103.84911926586773 -2.1943336841224843 0 0 0
5030 1 -2.593724079534819 102.6251884462455 -0.9501836838163499 0 0 0
5031 1 -2.593724079467569 102.6251884462692 -3.4384836838087423 0 0 0
10803 1 -16.682269579980485 97.64189504820366 1.538116316138621 1 0 0
10809 1 -16.682269612208966 100.1321410698492 1.538116316525136 1 0 0
10825 1 -18.443337832617477 98.88366405107041 2.782266317252117 1 0 0
10840 1 -18.443337832628256 98.88366405113372 0.293966317254275 1 0 0
5127 1 -13.16013311207905 97.6418950709849 1.5381163144868457 0 0 0
5142 1 -13.160133166082034 100.13214110477716 1.5381163170731973 0 0 0
5166 1 -14.921201365172367 98.88366408418106 2.782266315859436 0 0 0
5174 1 -14.921201365193287 98.88366408418369 0.29396631587912764 0 0 0
5125 1 -11.399064927554495 98.88366410532254 2.78226631476358 0 0 0
5140 1 -11.399064927554747 98.88366410532491 0.29396631484726027 0 0 0
5083 1 -7.876928541224571 98.88366411043583 2.7822663160210377 0 0 0
5085 1 -9.637996695669809 97.64189507298664 1.538116314724625 0 0 0
5098 1 -7.876928541205014 98.8836641103565 0.2939663160592873 0 0 0
5100 1 -9.637996754141156 100.1321411259483 1.5381163174145893 0 0 0
5041 1 -4.354792210454238 98.88366409609372 2.78226631608666 0 0 0
5043 1 -6.115860344061764 97.64189505466287 1.5381163174413408 0 0 0
5056 1 -4.354792210397854 98.88366409608356 0.29396631607413776 0 0 0
5058 1 -6.1158603906135225 100.13214112969318 1.5381163169568637 0 0 0
4999 1 -0.8326559314588168 98.88366406826628 2.782266317712106 0 0 0
5001 1 -2.5937240568361517 97.6418950211895 1.5381163190828695 0 0 0
5014 1 -0.8326559314310342 98.88366406834112 0.2939663178389345 0 0 0
5016 1 -2.593724073511604 100.13214111699502 1.5381163165940428 0 0 0
10812 1 -16.682269640156118 102.62518836150402 1.538116318672593 1 0 0
10841 1 -18.44333784878525 101.36562136384384 0.2939663173971691 1 0 0
10844 1 -18.443337848757885 101.36562136390056 2.782266317400445 1 0 0
10845 1 -18.443337868230543 103.84911912912965 2.7822663180063496 1 0 0
10858 1 -18.44333786828204 103.84911912905082 0.2939663179917784 1 0 0
5147 1 -13.160133204839704 102.625188398226 1.5381163189387033 0 0 0
5175 1 -14.921201405916385 101.36562139860226 0.2939663187758943 0 0 0
5176 1 -14.921201405932798 101.36562139859205 2.782266318731488 0 0 0
5177 1 -14.921201435382939 103.8491191612507 2.7822663191517196 0 0 0
5183 1 -14.921201435365576 103.84911916119846 0.29396631917250965 0 0 0
5141 1 -11.399064976022169 101.36562143290494 0.2939663188219089 0 0 0
5144 1 -11.399064976053511 101.3656214328754 2.782266318934092 0 0 0
5145 1 -11.399065008329227 103.8491192060883 2.782266319263472 0 0 0
5158 1 -11.399065008316747 103.849119206057 0.29396631930787076 0 0 0
5099 1 -7.876928584308433 101.36562145655147 0.29396631771707155 0 0 0
5102 1 -7.876928584274167 101.3656214565679 2.782266317747197 0 0 0
5103 1 -7.8769286079770255 103.84911924524893 2.7822663187225456 0 0 0
5105 1 -9.637996791161925 102.62518843165532 1.5381163200501164 0 0 0
5116 1 -7.876928608013638 103.84911924524103 0.2939663187387939 0 0 0
5057 1 -4.354792238573035 101.365621459518 0.29396631655345484 0 0 0
5060 1 -4.354792238550851 101.36562145946382 2.7822663165783372 0 0 0
5061 1 -4.354792244166857 103.84911926593716 2.782266317995327 0 0 0
5063 1 -6.115860415201467 102.62518844981301 1.5381163180476247 0 0 0
5074 1 -4.3547922442096825 103.849119265837 0.2939663180562159 0 0 0
5015 1 -0.8326559280641966 101.36562144510769 0.29396631624413233 0 0 0
5018 1 -0.8326559279703182 101.36562144511878 2.7822663162591517 0 0 0
5019 1 -0.8326559177932809 103.84911926585293 2.782266315875916 0 0 0
5021 1 -2.593724079536984 102.62518844628335 1.5381163161966294 0 0 0
5032 1 -0.8326559177800671 103.84911926582863 0.2939663158504165 0 0 0
10801 1 -16.682269579941593 97.64189504818057 6.514716316087657 1 0 0
10802 1 -16.682269579899998 97.6418950482773 4.026416316141625 1 0 0
10804 1 -16.682269612191515 100.13214106984537 6.514716316548712 1 0 0
10805 1 -16.68226961220027 100.13214106988656 4.026416316580701 1 0 0
10828 1 -18.44333783261811 98.88366405112693 5.2705663172332375 1 0 0
5122 1 -13.16013311205016 97.64189507092247 6.5147163144818565 0 0 0
5126 1 -13.160133112022049 97.64189507085766 4.026416314539716 0 0 0
5130 1 -13.16013316601746 100.13214110474662 6.514716317083846 0 0 0
5131 1 -13.16013316607485 100.1321411048021 4.0264163170705025 0 0 0
5167 1 -14.92120136517337 98.88366408419674 5.270566315883178 0 0 0
5128 1 -11.39906492756791 98.88366410533752 5.270566314794251 0 0 0
5080 1 -9.637996695670774 97.64189507300526 6.514716314820727 0 0 0
5084 1 -9.637996695708722 97.64189507292353 4.026416314788842 0 0 0
5086 1 -7.87692854122686 98.88366411042614 5.2705663160843175 0 0 0
5088 1 -9.637996754081463 100.13214112599012 6.514716317412813 0 0 0
5089 1 -9.637996754108924 100.13214112598523 4.026416317432516 0 0 0
5038 1 -6.115860344071829 97.6418950546399 6.5147163174333595 0 0 0
5042 1 -6.115860344058732 97.6418950546455 4.026416317525899 0 0 0
5044 1 -4.354792210436574 98.8836640961488 5.2705663161117595 0 0 0
5046 1 -6.115860390652366 100.13214112975689 6.5147163169513655 0 0 0
5047 1 -6.115860390567204 100.13214112971157 4.026416316944002 0 0 0
4996 1 -2.5937240568634756 97.64189502125255 6.5147163191112165 0 0 0
5000 1 -2.5937240568546533 97.64189502120715 4.026416319082922 0 0 0
5002 1 -0.8326559314721305 98.88366406828827 5.2705663178056525 0 0 0
5004 1 -2.593724073564496 100.13214111701768 6.514716316580175 0 0 0
5005 1 -2.593724073579007 100.13214111705851 4.026416316587476 0 0 0
10806 1 -16.68226964013903 102.62518836149201 6.514716318640077 1 0 0
10811 1 -16.68226964016259 102.62518836142185 4.026416318646907 1 0 0
10829 1 -18.443337848749017 101.3656213639105 5.270566317311617 1 0 0
10848 1 -18.443337868277947 103.84911912908592 5.270566318067153 1 0 0
5134 1 -13.160133204841308 102.62518839821568 6.514716318956365 0 0 0
5146 1 -13.160133204839 102.62518839821165 4.026416319017334 0 0 0
5168 1 -14.921201405904984 101.36562139858745 5.270566318717617 0 0 0
5178 1 -14.921201435406148 103.84911916121075 5.270566319182368 0 0 0
5129 1 -11.39906497603655 101.36562143291194 5.270566318896078 0 0 0
5148 1 -11.399065008353718 103.8491192060657 5.270566319335401 0 0 0
5087 1 -7.876928584185579 101.3656214565397 5.270566317706781 0 0 0
5092 1 -9.637996791162065 102.6251884316165 6.51471632003013 0 0 0
5104 1 -9.637996791106545 102.62518843159603 4.026416320077118 0 0 0
5106 1 -7.876928607990643 103.8491192452105 5.270566318662394 0 0 0
5045 1 -4.354792238589112 101.3656214595397 5.270566316533007 0 0 0
5050 1 -6.115860415200295 102.62518844980487 6.514716317981581 0 0 0
5062 1 -6.1158604152456375 102.6251884497504 4.026416318056747 0 0 0
5064 1 -4.354792244153672 103.84911926587775 5.270566318060337 0 0 0
5003 1 -0.8326559280337579 101.3656214451077 5.270566316279662 0 0 0
5008 1 -2.5937240795336947 102.62518844623412 6.514716316202951 0 0 0
5020 1 -2.593724079461851 102.62518844626695 4.026416316219213 0 0 0
5022 1 -0.8326559177721399 103.84911926586702 5.270566315880415 0 0 0
5344 1 2.085841301721078 -103.00986992581198 -4.029985165913647 0 0 0
5345 1 2.0858413016702646 -103.00986992573262 -6.518285165859708 0 0 0
5391 1 1.369741545622678 -100.96881575139564 -5.274135166988777 0 0 0
5289 1 6.390675069154037 -103.0098702487145 -4.029985163027741 0 0 0
5303 1 6.390675069137398 -103.0098702486243 -6.518285162916124 0 0 0
5343 1 4.238258188511751 -103.00987018351799 -5.274135163800943 0 0 0
5349 1 3.5221583556909604 -100.96881606912392 -4.029985165074383 0 0 0
5359 1 3.522158355648072 -100.96881606908346 -6.518285165125244 0 0 0
5360 1 5.674575159079585 -100.9688161968645 -5.274135162591718 0 0 0
5304 1 8.543091918313868 -103.00987011341586 -5.274135164622242 0 0 0
5306 1 7.826991936687872 -100.96881611686221 -4.029985164528621 0 0 0
5307 1 7.826991936597586 -100.96881611680732 -6.518285164577738 0 0 0
5247 1 12.847925436488334 -103.00986932445522 -5.274135169189738 0 0 0
5248 1 10.695508711792408 -103.00986979110081 -4.029985165490091 0 0 0
5249 1 10.695508711753424 -103.00986979104171 -6.518285165470873 0 0 0
5253 1 12.131825373581 -100.96881539213267 -4.029985166994409 0 0 0
5263 1 12.13182537355681 -100.9688153920552 -6.518285167089034 0 0 0
5305 1 9.979408677341 -100.96881583598571 -5.274135163183159 0 0 0
5204 1 15.00034208364436 -103.00986876996912 -4.0299851734684635 0 0 0
5214 1 15.000342083601033 -103.00986876987123 -6.518285173407221 0 0 0
5264 1 14.28424202011544 -100.96881483804275 -5.274135171694126 0 0 0
5189 1 19.305175169852596 -103.00986766324361 -4.029985186782792 0 0 0
5190 1 19.305175169915618 -103.00986766313866 -6.518285186791195 0 0 0
5215 1 17.152758658263593 -103.0098681936721 -5.274135180540689 0 0 0
5216 1 18.58907517807921 -100.96881367045002 -5.274135187172139 0 0 0
5217 1 16.436658619369236 -100.96881424102021 -4.0299851781838845 0 0 0
5218 1 16.43665861928902 -100.96881424103557 -6.5182851781654385 0 0 0
5395 1 0.6535497700243657 -98.93499409777627 -4.02998516653647 0 0 0
5401 1 0.6535497700289593 -98.93499409792855 -6.518285166615405 0 0 0
5402 1 2.805966556250412 -98.93499447723664 -5.274135165183275 0 0 0
5404 1 2.0897697016852645 -96.9027104593811 -4.02998516141746 0 0 0
5405 1 2.089769701748521 -96.90271045941681 -6.518285161414434 0 0 0
5362 1 4.958383329225333 -98.93499466763015 -4.029985161690982 0 0 0
5363 1 4.958383329269328 -98.9349946675788 -6.518285161707927 0 0 0
5367 1 6.394603223535681 -96.90271075180685 -4.029985156325237 0 0 0
5369 1 6.394603223524608 -96.90271075185682 -6.5182851563966455 0 0 0
5403 1 4.242186477109931 -96.9027107147705 -5.2741351592781465 0 0 0
5311 1 9.263216788057104 -98.93499441222053 -4.0299851595729175 0 0 0
5317 1 9.2632167881549 -98.93499441225289 -6.518285159670888 0 0 0
5361 1 7.110800076812173 -98.93499464533159 -5.27413516054187 0 0 0
5370 1 8.547019931415196 -96.90271056672046 -5.27413515692798 0 0 0
5318 1 11.41563346084325 -98.93499399703829 -5.274135163033526 0 0 0
5319 1 12.851853215352293 -96.90270963768737 -5.274135169001359 0 0 0
5320 1 10.699436595208372 -96.90271018008423 -4.029985162395416 0 0 0
5321 1 10.699436595223913 -96.90271018001744 -6.5182851623488975 0 0 0
5265 1 15.720466687038904 -98.9349928361458 -5.274135177555805 0 0 0
5266 1 13.568050091098934 -98.93499344936846 -4.02998516871175 0 0 0
5267 1 13.568050091088296 -98.93499344938016 -6.518285168662494 0 0 0
5271 1 15.00426979859353 -96.9027090057514 -4.029985177599635 0 0 0
5273 1 15.004269798642975 -96.90270900579192 -6.518285177635611 0 0 0
5221 1 17.87288325274585 -98.9349922289858 -4.029985185408218 0 0 0
5224 1 17.872883252793535 -98.93499222898491 -6.518285185397836 0 0 0
5225 1 19.30910289618512 -96.9027077784865 -4.029985190465585 0 0 0
5226 1 19.30910289624061 -96.90270777849683 -6.518285190421963 0 0 0
5274 1 17.156686355205178 -96.90270835877315 -5.274135184468414 0 0 0
5331 1 2.085841301721677 -103.00986992583918 -1.5416851658916597 0 0 0
5380 1 1.3697415456088755 -100.96881575127865 -0.29753516693275406 0 0 0
5392 1 1.369741545531257 -100.96881575133159 -2.7858351669184374 0 0 0
5288 1 6.390675069163745 -103.00987024868961 -1.5416851630297799 0 0 0
5329 1 4.238258188499313 -103.0098701834992 -0.29753516388241313 0 0 0
5346 1 4.238258188424069 -103.00987018342593 -2.785835163901709 0 0 0
5347 1 5.674575158959258 -100.96881619680909 -2.785835162633954 0 0 0
5348 1 3.5221583557167264 -100.96881606912487 -1.5416851651670662 0 0 0
5350 1 5.674575159010798 -100.96881619685122 -0.29753516259321033 0 0 0
5287 1 8.543091918274863 -103.00987011330662 -2.785835164689 0 0 0
5290 1 8.543091918323347 -103.00987011335638 -0.29753516463886776 0 0 0
5293 1 7.8269919366444825 -100.96881611689506 -1.5416851645752496 0 0 0
5233 1 12.847925436554824 -103.00986932443752 -0.29753516923234435 0 0 0
5235 1 10.695508711837627 -103.0098697910945 -1.5416851655090131 0 0 0
5250 1 12.84792543656695 -103.00986932435569 -2.7858351691827172 0 0 0
5252 1 12.131825373617913 -100.96881539209053 -1.5416851671073786 0 0 0
5291 1 9.97940867730758 -100.96881583592588 -0.29753516317979056 0 0 0
5308 1 9.979408677247008 -100.9688158359549 -2.7858351631696454 0 0 0
5203 1 15.000342083637873 -103.00986876999494 -1.5416851733741517 0 0 0
5251 1 14.284242020023953 -100.96881483814239 -2.7858351717041727 0 0 0
5254 1 14.284242020106923 -100.96881483802211 -0.29753517163988147 0 0 0
5188 1 19.30517516987764 -103.00986766325613 -1.541685186791885 0 0 0
5202 1 17.152758658241762 -103.00986819367263 -2.7858351805197383 0 0 0
5205 1 17.152758658233637 -103.0098681937144 -0.29753518055007255 0 0 0
5206 1 18.589075178062295 -100.9688136704043 -0.297535187026499 0 0 0
5208 1 16.43665861937629 -100.9688142411006 -1.5416851781755971 0 0 0
5219 1 18.589075178019698 -100.96881367042612 -2.7858351870998614 0 0 0
5393 1 2.805966556258667 -98.93499447721763 -2.7858351651911635 0 0 0
5394 1 0.6535497700784472 -98.93499409784272 -1.5416851665684792 0 0 0
5396 1 2.8059665563027445 -98.93499447725397 -0.29753516513864103 0 0 0
5399 1 2.0897697017394994 -96.90271045942349 -1.5416851613339175 0 0 0
5353 1 4.958383329272693 -98.93499466761146 -1.5416851616164944 0 0 0
5366 1 6.394603223552106 -96.9027107518274 -1.5416851564319314 0 0 0
5397 1 4.24218647706352 -96.90271071478965 -0.297535159234988 0 0 0
5406 1 4.242186477106801 -96.90271071475769 -2.7858351592586073 0 0 0
5310 1 9.263216788024685 -98.93499441232814 -1.54168515958662 0 0 0
5351 1 7.1108000767826525 -98.9349946452667 -0.2975351603940597 0 0 0
5364 1 7.1108000768399675 -98.93499464526248 -2.78583516044882 0 0 0
5365 1 8.547019931329338 -96.9027105667311 -2.7858351569891 0 0 0
5368 1 8.547019931414868 -96.90271056676792 -0.29753515694150123 0 0 0
5309 1 11.415633460917764 -98.93499399705821 -2.7858351629803915 0 0 0
5312 1 11.415633460863083 -98.934993997065 -0.29753516297585525 0 0 0
5313 1 12.851853215324509 -96.90270963774186 -0.2975351689859543 0 0 0
5315 1 10.699436595246777 -96.90271018009159 -1.541685162357391 0 0 0
5322 1 12.851853215385258 -96.90270963764996 -2.7858351689817002 0 0 0
5255 1 15.720466687017407 -98.93499283612395 -0.2975351775240433 0 0 0
5257 1 13.56805009109407 -98.93499344938962 -1.5416851686819517 0 0 0
5268 1 15.72046668716032 -98.9349928360699 -2.7858351775703745 0 0 0
5270 1 15.00426979863695 -96.90270900581392 -1.5416851776834042 0 0 0
5220 1 17.872883252777168 -98.93499222896482 -1.5416851855055396 0 0 0
5223 1 19.309102896221244 -96.90270777844215 -1.54168519040068 0 0 0
5269 1 17.15668635524718 -96.90270835877149 -2.7858351844966616 0 0 0
5272 1 17.156686355206784 -96.90270835876167 -0.29753518450820593 0 0 0
5325 1 2.0858413017395785 -103.00986992579263 3.4349148340919458 0 0 0
5330 1 2.0858413016733466 -103.00986992573546 0.9466148341163045 0 0 0
5381 1 1.3697415456714903 -100.96881575136547 2.1907648330085445 0 0 0
5278 1 6.39067506917025 -103.00987024869244 3.434914836966335 0 0 0
5279 1 6.390675069146623 -103.00987024861824 0.9466148370513212 0 0 0
5332 1 4.238258188526775 -103.00987018349274 2.1907648361931864 0 0 0
5333 1 5.674575159078909 -100.9688161968888 2.190764837369167 0 0 0
5334 1 3.522158355698242 -100.9688160691246 3.434914834886817 0 0 0
5335 1 3.5221583556775116 -100.96881606908272 0.9466148348657094 0 0 0
5277 1 8.54309191830125 -103.00987011340617 2.1907648353853646 0 0 0
5283 1 7.826991936707351 -100.96881611682596 3.434914835494619 0 0 0
5292 1 7.826991936581688 -100.96881611681073 0.9466148353732412 0 0 0
5229 1 10.695508711827458 -103.00986979108147 3.4349148345360625 0 0 0
5234 1 10.695508711751335 -103.00986979103212 0.9466148345162082 0 0 0
5236 1 12.847925436512554 -103.00986932442372 2.1907648308107937 0 0 0
5238 1 12.131825373565219 -100.96881539213419 3.434914832962282 0 0 0
5239 1 12.131825373547656 -100.9688153920469 0.9466148329388137 0 0 0
5294 1 9.979408677341967 -100.96881583596173 2.1907648368412898 0 0 0
5194 1 15.00034208362481 -103.00986876994472 3.4349148265117453 0 0 0
5195 1 15.000342083614772 -103.00986876985823 0.946614826631931 0 0 0
5237 1 14.28424202010381 -100.96881483807371 2.1907648282971963 0 0 0
5186 1 19.305175169862025 -103.00986766324596 3.434914813199902 0 0 0
5187 1 19.305175169897456 -103.0098676631489 0.9466148132078458 0 0 0
5193 1 17.15275865824623 -103.00986819370398 2.1907648194647167 0 0 0
5199 1 16.43665861939164 -100.96881424101913 3.434914821814564 0 0 0
5207 1 16.436658619295912 -100.96881424103043 0.9466148217827723 0 0 0
5209 1 18.58907517808096 -100.96881367044847 2.1907648128336823 0 0 0
5382 1 2.8059665562597376 -98.93499447725719 2.1907648347717057 0 0 0
5383 1 0.6535497700536416 -98.93499409778808 3.4349148334511708 0 0 0
5384 1 0.6535497700512093 -98.93499409789922 0.9466148334086036 0 0 0
5388 1 2.0897697017055505 -96.90271045937071 3.4349148386481443 0 0 0
5398 1 2.0897697017182493 -96.9027104594519 0.9466148385423417 0 0 0
5339 1 4.958383329223158 -98.93499466762322 3.4349148383412684 0 0 0
5352 1 4.958383329247799 -98.93499466761642 0.946614838238526 0 0 0
5356 1 6.394603223499266 -96.9027107518579 3.4349148435942616 0 0 0
5357 1 6.394603223524136 -96.90271075184359 0.9466148436483289 0 0 0
5400 1 4.242186477128301 -96.90271071473539 2.190764840770603 0 0 0
5296 1 9.263216788066854 -98.93499441223959 3.4349148403643945 0 0 0
5297 1 9.263216788161415 -98.93499441224127 0.946614840393528 0 0 0
5354 1 7.110800076829296 -98.93499464528647 2.1907648394862425 0 0 0
5355 1 8.54701993137218 -96.90271056679565 2.190764843023129 0 0 0
5295 1 11.41563346081774 -98.93499399710164 2.1907648369513524 0 0 0
5301 1 10.6994365952108 -96.9027101800694 3.4349148376835323 0 0 0
5314 1 10.699436595199357 -96.90271018003868 0.9466148375509827 0 0 0
5316 1 12.851853215406948 -96.90270963764789 2.1907648310096492 0 0 0
5243 1 13.568050091116959 -98.93499344939154 3.4349148313470352 0 0 0
5256 1 13.568050091079492 -98.93499344941455 0.9466148312656456 0 0 0
5258 1 15.72046668709284 -98.93499283609286 2.1907648224319023 0 0 0
5260 1 15.00426979856898 -96.90270900577798 3.4349148223089516 0 0 0
5261 1 15.004269798635292 -96.90270900579546 0.9466148224105618 0 0 0
5210 1 17.872883252767924 -98.93499222898157 3.4349148145467474 0 0 0
5211 1 17.87288325281578 -98.934992228971 0.9466148146242163 0 0 0
5213 1 19.30910289617897 -96.9027077784901 3.434914809576854 0 0 0
5222 1 19.3091028962531 -96.90270777848549 0.9466148095265084 0 0 0
5259 1 17.15668635515593 -96.9027083588275 2.1907648155206636 0 0 0
5324 1 2.0858413017268433 -103.00986992583509 5.923214834063915 0 0 0
5374 1 1.3697415455457038 -100.96881575133817 4.679064833072723 0 0 0
5375 1 1.3697415456252091 -100.96881575126363 7.16736483311506 0 0 0
5276 1 6.390675069189446 -103.0098702486575 5.9232148369878415 0 0 0
5323 1 4.238258188441405 -103.00987018342272 4.679064836093761 0 0 0
5326 1 4.238258188466608 -103.00987018348823 7.167364836130065 0 0 0
5327 1 5.674575158986945 -100.96881619687815 7.167364837390763 0 0 0
5328 1 3.5221583557365945 -100.96881606908043 5.923214834857318 0 0 0
5336 1 5.674575159002804 -100.96881619679382 4.6790648374011345 0 0 0
5275 1 8.543091918320572 -103.00987011335978 7.167364835349664 0 0 0
5280 1 8.543091918311704 -103.0098701132879 4.679064835312885 0 0 0
5282 1 7.82699193666558 -100.96881611689214 5.92321483539894 0 0 0
5227 1 12.847925436556892 -103.00986932436224 4.679064830802399 0 0 0
5228 1 10.695508711864116 -103.00986979110554 5.923214834483747 0 0 0
5230 1 12.847925436554965 -103.0098693244452 7.16736483076047 0 0 0
5232 1 12.131825373628063 -100.96881539206613 5.923214832939623 0 0 0
5281 1 9.979408677236215 -100.96881583598757 4.679064836828621 0 0 0
5284 1 9.97940867734157 -100.96881583591038 7.16736483681637 0 0 0
5192 1 15.000342083622495 -103.0098687699809 5.923214826655027 0 0 0
5231 1 14.28424202007585 -100.96881483805922 7.167364828339404 0 0 0
5240 1 14.284242020042221 -100.96881483810942 4.679064828289012 0 0 0
5185 1 19.305175169893914 -103.00986766325072 5.9232148132228275 0 0 0
5191 1 17.152758658243723 -103.00986819370947 7.167364819442644 0 0 0
5196 1 17.15275865823534 -103.00986819367648 4.679064819469977 0 0 0
5197 1 18.589075177989226 -100.96881367043507 4.679064812892478 0 0 0
5198 1 16.436658619378296 -100.96881424110492 5.923214821799636 0 0 0
5200 1 18.589075178085984 -100.96881367039288 7.167364812960217 0 0 0
5376 1 2.80596655628542 -98.93499447725861 7.1673648348559755 0 0 0
5377 1 0.6535497701058253 -98.93499409780895 5.923214833441961 0 0 0
5385 1 2.805966556294255 -98.93499447718018 4.6790648348338335 0 0 0
5387 1 2.089769701716946 -96.90271045945447 5.923214838605584 0 0 0
5338 1 4.958383329245644 -98.93499466763062 5.923214838346211 0 0 0
5342 1 6.3946032235684305 -96.90271075181789 5.9232148436319285 0 0 0
5386 1 4.242186477068849 -96.90271071480747 4.67906484070119 0 0 0
5389 1 4.242186477094421 -96.90271071474642 7.167364840775793 0 0 0
5286 1 9.263216788072784 -98.93499441231182 5.923214840429523 0 0 0
5337 1 7.110800076792722 -98.93499464531392 4.6790648395132814 0 0 0
5340 1 7.110800076820406 -98.93499464524012 7.167364839583976 0 0 0
5341 1 8.547019931377893 -96.90271056683322 7.167364843024807 0 0 0
5358 1 8.547019931342888 -96.90271056670525 4.679064843025097 0 0 0
5285 1 11.415633460843045 -98.93499399711966 7.167364836981642 0 0 0
5298 1 11.415633460972378 -98.93499399701369 4.679064837035477 0 0 0
5299 1 12.851853215327992 -96.90270963772059 4.6790648309881435 0 0 0
5300 1 10.699436595237355 -96.90271018011191 5.923214837560893 0 0 0
5302 1 12.851853215393904 -96.90270963768309 7.167364831017095 0 0 0
5241 1 15.720466687135566 -98.93499283612218 4.679064822428936 0 0 0
5242 1 13.568050091112195 -98.93499344939248 5.92321483127579 0 0 0
5244 1 15.720466687054268 -98.93499283607851 7.167364822490676 0 0 0
5246 1 15.004269798633807 -96.9027090058123 5.92321482242661 0 0 0
5201 1 17.87288325277633 -98.93499222896692 5.923214814529456 0 0 0
5212 1 19.309102896228303 -96.90270777844486 5.923214809537715 0 0 0
5245 1 17.156686355166766 -96.90270835882262 7.167364815486685 0 0 0
5262 1 17.1566863552571 -96.90270835872604 4.679064815509288 0 0 0
5681 1 1.3735690665380513 -94.86951304867618 -5.274135156826298 0 0 0
5685 1 0.6573686381881999 -92.83630590618897 -4.029985152839983 0 0 0
5701 1 0.6573686381602611 -92.83630590621381 -6.518285152914374 0 0 0
5702 1 2.809785466569297 -92.83630632154649 -5.274135152535688 0 0 0
5595 1 3.5259858643417017 -94.8695133783974 -4.0299851541195695 0 0 0
5611 1 3.5259858642865716 -94.86951337837952 -6.518285154243219 0 0 0
5612 1 5.678402630397107 -94.8695134799802 -5.274135154280416 0 0 0
5614 1 4.962202264835633 -92.83630649573692 -4.0299851536313565 0 0 0
5615 1 4.9622022648342385 -92.83630649569326 -6.5182851536615924 0 0 0
5518 1 7.830819351851145 -94.86951334355905 -4.02998515840827 0 0 0
5519 1 7.830819351815792 -94.8695133435164 -6.518285158319016 0 0 0
5523 1 9.267035707700652 -92.83630608121481 -4.029985169271512 0 0 0
5539 1 9.267035707646018 -92.83630608122948 -6.518285169344937 0 0 0
5613 1 7.11461901526976 -92.83630641255918 -5.274135160427678 0 0 0
5451 1 12.135652645060674 -94.86951244368461 -4.029985171937898 0 0 0
5466 1 12.135652644969351 -94.86951244363233 -6.51828517206571 0 0 0
5517 1 9.98323602373765 -94.86951298354845 -5.274135164544903 0 0 0
5540 1 11.419452339261717 -92.83630553791349 -5.274135178379459 0 0 0
5467 1 14.28806921986592 -94.86951178786472 -5.274135179786565 0 0 0
5468 1 15.724285442988133 -92.8363041003624 -5.274135192706546 0 0 0
5469 1 13.571868914067766 -92.83630485039123 -4.029985184629552 0 0 0
5470 1 13.571868914026817 -92.83630485035376 -6.518285184453757 0 0 0
5426 1 18.592902283659235 -94.86951044885991 -5.274135193504332 0 0 0
5427 1 16.440485761476836 -94.86951109399132 -4.029985186823122 0 0 0
5428 1 16.440485761464096 -94.86951109397054 -6.518285186801534 0 0 0
5431 1 17.87670194322755 -92.83630337722808 -4.029985198108795 0 0 0
5434 1 17.87670194325449 -92.8363033772109 -6.518285198252312 0 0 0
5704 1 2.0935850258615076 -90.8030840498644 -4.029985153328148 0 0 0
5705 1 2.09358502585028 -90.80308404980103 -6.518285153220007 0 0 0
5619 1 6.39841865223121 -90.80308429175433 -4.029985164486772 0 0 0
5635 1 6.398418652267296 -90.80308429176816 -6.518285164532202 0 0 0
5703 1 4.246001864101019 -90.80308431224223 -5.274135156157195 0 0 0
5636 1 8.550835376086674 -90.80308399093624 -5.274135174266452 0 0 0
5541 1 12.855668608455364 -90.80308271725067 -5.274135193900988 0 0 0
5542 1 10.703252027682138 -90.80308344425134 -4.029985185865728 0 0 0
5543 1 10.703252027631335 -90.80308344420686 -6.518285185745123 0 0 0
5474 1 15.008085129591255 -90.80308189909739 -4.029985199885794 0 0 0
5484 1 15.008085129536106 -90.80308189904632 -6.518285199938942 0 0 0
5435 1 19.31291807038438 -90.80308037617306 -4.029985205824663 0 0 0
5436 1 19.312918070345916 -90.8030803761795 -6.518285205779029 0 0 0
5485 1 17.16050160905581 -90.80308108417343 -5.274135203526658 0 0 0
5765 1 1.3773845787536765 -88.76986488997969 -5.274135155191713 0 0 0
5769 1 0.6611841079165306 -86.73664561439641 -4.02998516210001 0 0 0
5779 1 0.6611841079170687 -86.73664561438181 -6.5182851621607005 0 0 0
5780 1 2.8136010478635765 -86.73664611327041 -5.274135168755124 0 0 0
5709 1 3.529801464935747 -88.76986525762472 -4.029985161651159 0 0 0
5723 1 3.5298014648545823 -88.76986525758775 -6.518285161657725 0 0 0
5724 1 5.682218300516427 -88.7698653148705 -5.274135170451332 0 0 0
5726 1 4.966017937130934 -86.73664626637994 -4.0299851775387125 0 0 0
5727 1 4.966017937135039 -86.7366462663863 -6.518285177381806 0 0 0
5638 1 7.834635064488169 -88.76986505284353 -4.029985180564861 0 0 0
5639 1 7.834635064412751 -88.76986505289736 -6.51828518042151 0 0 0
5643 1 9.27085146782209 -86.73664550946744 -4.0299852017279685 0 0 0
5653 1 9.270851467891495 -86.7366455094492 -6.51828520193423 0 0 0
5725 1 7.118434749072557 -86.73664605713755 -5.2741351900071916 0 0 0
5547 1 12.139468340601882 -88.76986373197094 -4.029985204116723 0 0 0
5561 1 12.13946834053168 -88.76986373199858 -6.5182852041543216 0 0 0
5637 1 9.987051744938322 -88.76986450348778 -5.2741351945691965 0 0 0
5654 1 11.423268085698028 -86.73664469008278 -5.274135211733117 0 0 0
5562 1 14.291884859314019 -88.7698628313122 -5.274135208916737 0 0 0
5563 1 15.728101054348585 -86.73664264576304 -5.274135222307395 0 0 0
5564 1 13.575684608982511 -86.73664369606144 -4.0299852188092045 0 0 0
5565 1 13.575684608937921 -86.73664369601345 -6.518285218752204 0 0 0
5486 1 18.59671774784856 -88.76986107796466 -5.274135213624115 0 0 0
5487 1 16.444301320009387 -88.76986190776078 -4.029985211585497 0 0 0
5488 1 16.44430131991289 -88.76986190775084 -6.5182852113898715 0 0 0
5491 1 17.880517449801523 -86.7366416689449 -4.029985221732798 0 0 0
5494 1 17.880517449795935 -86.73664166887787 -6.518285221849901 0 0 0
5782 1 2.0974006091028943 -84.70342708625319 -4.029985176895191 0 0 0
5783 1 2.097400609191742 -84.70342708625074 -6.51828517675381 0 0 0
5801 1 1.3812001428610745 -82.67020807436245 -5.2741351844702 0 0 0
5731 1 6.402234431805094 -84.7034272237965 -4.029985197812656 0 0 0
5737 1 6.402234431754347 -84.70342722376645 -6.518285197875987 0 0 0
5781 1 4.249817560967615 -84.70342736185017 -5.274135186245262 0 0 0
5787 1 3.533617167821531 -82.67020850445289 -4.0299851961933655 0 0 0
5789 1 3.5336171677122814 -82.67020850441443 -6.518285196193463 0 0 0
5790 1 5.686034106671296 -82.67020846109651 -5.274135207459062 0 0 0
5738 1 8.55465119702721 -84.70342668745752 -5.274135209997566 0 0 0
5740 1 7.838450929143765 -82.67020795191758 -4.029985221065421 0 0 0
5741 1 7.838450929045597 -82.67020795189437 -6.51828522100708 0 0 0
5655 1 12.85948437676371 -84.70342472342368 -5.274135228668295 0 0 0
5656 1 10.707067843939072 -84.70342581948525 -4.029985220958211 0 0 0
5657 1 10.707067843958763 -84.70342581946757 -6.518285220839204 0 0 0
5661 1 12.14328416766322 -82.67020583214837 -4.029985239248737 0 0 0
5663 1 12.14328416766403 -82.670205832108 -6.518285239444925 0 0 0
5739 1 9.990867616781308 -82.67020703946147 -5.274135231123462 0 0 0
5569 1 15.011900811691618 -84.70342352654565 -4.02998523285692 0 0 0
5575 1 15.0119008116325 -84.70342352657455 -6.518285232991013 0 0 0
5664 1 14.295700596194028 -82.67020447040262 -5.274135243295065 0 0 0
5495 1 19.31673350400195 -84.70342140781558 -4.029985222451481 0 0 0
5496 1 19.316733504057645 -84.70342140781895 -6.518285222368026 0 0 0
5576 1 17.164317176019185 -84.70342237660836 -5.2741352309859675 0 0 0
5577 1 18.600533206357635 -82.67020193755039 -5.2741352321227675 0 0 0
5578 1 16.44811692915282 -82.67020311980632 -4.029985241555319 0 0 0
5579 1 16.44811692905061 -82.67020311980059 -6.518285241471107 0 0 0
5669 1 1.3735690664741835 -94.86951304868658 -0.29753515666153546 0 0 0
5682 1 1.3735690664754467 -94.86951304865441 -2.785835156727778 0 0 0
5683 1 2.8097854665463187 -92.8363063216012 -2.785835152464748 0 0 0
5684 1 0.6573686381774928 -92.83630590621708 -1.5416851528159232 0 0 0
5686 1 2.8097854665652773 -92.83630632154555 -0.2975351524353406 0 0 0
5593 1 5.678402630365485 -94.86951348005658 -2.785835154299312 0 0 0
5594 1 3.52598586431052 -94.86951337835897 -1.5416851542576304 0 0 0
5596 1 5.67840263049065 -94.86951347995341 -0.29753515420189 0 0 0
5599 1 4.962202264880082 -92.83630649574366 -1.5416851536937026 0 0 0
5505 1 7.830819351938301 -94.86951334350829 -1.5416851582635067 0 0 0
5522 1 9.267035707664123 -92.83630608123863 -1.5416851693698077 0 0 0
5597 1 7.114619015258974 -92.83630641256195 -0.2975351604482976 0 0 0
5616 1 7.114619015355298 -92.83630641250377 -2.7858351603989497 0 0 0
5450 1 12.13565264498467 -94.86951244369791 -1.5416851720603832 0 0 0
5503 1 9.983236023726707 -94.86951298352014 -0.2975351645051968 0 0 0
5520 1 9.983236023701837 -94.86951298339615 -2.7858351645179975 0 0 0
5521 1 11.419452339169288 -92.83630553794195 -2.7858351783080986 0 0 0
5524 1 11.419452339202152 -92.83630553790934 -0.297535178318075 0 0 0
5449 1 14.288069219695892 -94.86951178790613 -2.7858351798269845 0 0 0
5452 1 14.288069219838416 -94.86951178782179 -0.2975351798075386 0 0 0
5453 1 15.724285443048096 -92.83630410041553 -0.29753519260570105 0 0 0
5455 1 13.571868913988036 -92.83630485044885 -1.5416851844837334 0 0 0
5471 1 15.72428544314017 -92.83630410030287 -2.7858351926695715 0 0 0
5418 1 18.592902283752707 -94.86951044883618 -0.29753519343018375 0 0 0
5420 1 16.440485761474974 -94.86951109390603 -1.5416851868836927 0 0 0
5429 1 18.59290228370679 -94.86951044876722 -2.7858351935066 0 0 0
5430 1 17.87670194327405 -92.83630337722656 -1.5416851983065405 0 0 0
5689 1 2.0935850259218274 -90.80308404983052 -1.5416851532817475 0 0 0
5618 1 6.39841865226597 -90.80308429179398 -1.5416851644887588 0 0 0
5687 1 4.246001864085234 -90.80308431221667 -0.2975351560519829 0 0 0
5706 1 4.246001864180898 -90.80308431212956 -2.7858351560969545 0 0 0
5617 1 8.550835376083494 -90.80308399103191 -2.7858351742885756 0 0 0
5620 1 8.550835376129319 -90.8030839909426 -0.29753517424814424 0 0 0
5525 1 12.855668608473183 -90.80308271726584 -0.29753519388146654 0 0 0
5527 1 10.70325202766593 -90.80308344426959 -1.5416851857659148 0 0 0
5544 1 12.855668608522345 -90.8030827171911 -2.7858351939021433 0 0 0
5473 1 15.008085129550986 -90.80308189913868 -1.5416851999423997 0 0 0
5433 1 19.312918070300444 -90.80308037621744 -1.5416852057174075 0 0 0
5472 1 17.16050160910898 -90.80308108424741 -2.7858352035557723 0 0 0
5475 1 17.160501609065562 -90.80308108425689 -0.2975352035805032 0 0 0
5752 1 1.3773845787382992 -88.76986488995162 -0.29753515514762063 0 0 0
5766 1 1.3773845787580448 -88.76986488991257 -2.785835155073695 0 0 0
5767 1 2.8136010477548647 -86.73664611330865 -2.785835168707385 0 0 0
5768 1 0.6611841079042539 -86.73664561441318 -1.5416851621855918 0 0 0
5770 1 2.813601047813931 -86.73664611320632 -0.2975351686654128 0 0 0
5707 1 5.682218300403775 -88.76986531491102 -2.7858351704935522 0 0 0
5708 1 3.529801464844677 -88.76986525764319 -1.54168516170098 0 0 0
5710 1 5.682218300506559 -88.7698653148885 -0.2975351704461855 0 0 0
5713 1 4.966017937183373 -86.73664626649679 -1.541685177435153 0 0 0
5623 1 7.834635064516816 -88.76986505289808 -1.541685180426242 0 0 0
5642 1 9.270851467834834 -86.73664550944972 -1.5416852018809644 0 0 0
5711 1 7.118434749128775 -86.7366460571815 -0.29753518999325934 0 0 0
5728 1 7.118434749210246 -86.73664605706986 -2.7858351899423592 0 0 0
5546 1 12.139468340626399 -88.76986373197967 -1.5416852041470814 0 0 0
5621 1 9.987051744899347 -88.76986450352831 -0.2975351945132506 0 0 0
5640 1 9.9870517449336 -88.76986450340466 -2.7858351944908186 0 0 0
5641 1 11.42326808562871 -86.73664469018398 -2.7858352116688327 0 0 0
5644 1 11.423268085676677 -86.73664469004477 -0.2975352117656924 0 0 0
5545 1 14.291884859184128 -88.76986283136118 -2.7858352087965295 0 0 0
5548 1 14.29188485931635 -88.76986283128409 -0.297535208867802 0 0 0
5549 1 15.728101054332118 -86.73664264577462 -0.2975352223024021 0 0 0
5551 1 13.575684608917191 -86.73664369598944 -1.5416852187374637 0 0 0
5566 1 15.728101054412537 -86.73664264567644 -2.7858352223289313 0 0 0
5476 1 18.59671774782692 -88.76986107794805 -0.2975352136580415 0 0 0
5478 1 16.444301319970027 -88.76986190774102 -1.5416852114940032 0 0 0
5489 1 18.59671774786249 -88.76986107783021 -2.7858352136360454 0 0 0
5490 1 17.880517449708307 -86.73664166889607 -1.541685221826541 0 0 0
5773 1 2.097400609217539 -84.70342708625829 -1.5416851768064346 0 0 0
5798 1 1.3812001428305918 -82.67020807434771 -0.29753518438416504 0 0 0
5802 1 1.3812001428272593 -82.67020807437571 -2.785835184341354 0 0 0
5730 1 6.4022344317403235 -84.70342722379648 -1.541685197955123 0 0 0
5771 1 4.249817560956056 -84.7034273618609 -0.2975351862990728 0 0 0
5784 1 4.249817561059888 -84.70342736182053 -2.785835186328708 0 0 0
5785 1 5.686034106544974 -82.67020846110152 -2.785835207484961 0 0 0
5786 1 3.5336171678233113 -82.67020850443986 -1.5416851961785196 0 0 0
5788 1 5.686034106653636 -82.67020846101943 -0.29753520751401186 0 0 0
5729 1 8.554651196938078 -84.70342668758389 -2.7858352099726114 0 0 0
5732 1 8.554651197006658 -84.70342668753187 -0.29753520995478155 0 0 0
5735 1 7.838450929127544 -82.67020795191421 -1.5416852210719518 0 0 0
5645 1 12.859484376760202 -84.7034247234351 -0.297535228582523 0 0 0
5647 1 10.707067843936517 -84.7034258194892 -1.5416852208203058 0 0 0
5658 1 12.859484376814812 -84.70342472335126 -2.7858352286208907 0 0 0
5660 1 12.143284167661555 -82.67020583211013 -1.5416852394052996 0 0 0
5733 1 9.99086761670246 -82.67020703943608 -0.29753523105011176 0 0 0
5742 1 9.990867616742488 -82.67020703939751 -2.7858352310780283 0 0 0
5568 1 15.011900811629852 -84.7034235265186 -1.5416852329599415 0 0 0
5659 1 14.295700596119945 -82.67020447052478 -2.785835243327785 0 0 0
5662 1 14.295700596218111 -82.67020447038506 -0.29753524330464537 0 0 0
5493 1 19.31673350399797 -84.7034214077909 -1.5416852223169935 0 0 0
5567 1 17.16431717599856 -84.7034223766666 -2.7858352309110503 0 0 0
5570 1 17.164317176061274 -84.70342237659905 -0.29753523101881363 0 0 0
5571 1 18.600533206282726 -82.67020193757517 -0.29753523209882327 0 0 0
5573 1 16.448116929147215 -82.6702031198425 -1.5416852414923325 0 0 0
5580 1 18.600533206229372 -82.67020193747452 -2.7858352321613546 0 0 0
5670 1 1.3735690665663511 -94.86951304864266 2.1907648432872966 0 0 0
5671 1 2.8097854665254918 -92.83630632161295 2.1907648474566987 0 0 0
5672 1 0.6573686381584222 -92.8363059062214 3.434914847147317 0 0 0
5673 1 0.657368638191094 -92.83630590619808 0.9466148471990485 0 0 0
5583 1 5.678402630348772 -94.8695134800657 2.1907648456709987 0 0 0
5584 1 3.5259858643368833 -94.86951337843833 3.4349148457866994 0 0 0
5585 1 3.5259858642818585 -94.86951337834834 0.9466148457802703 0 0 0
5589 1 4.962202264861327 -92.83630649572974 3.4349148464193746 0 0 0
5598 1 4.962202264810269 -92.8363064957286 0.9466148462321969 0 0 0
5499 1 7.830819351850016 -94.8695133435616 3.4349148416844613 0 0 0
5504 1 7.830819351802301 -94.8695133435558 0.9466148415974648 0 0 0
5508 1 9.267035707674696 -92.8363060812227 3.4349148306369854 0 0 0
5509 1 9.267035707662748 -92.83630608121314 0.9466148307388664 0 0 0
5600 1 7.1146190153205024 -92.83630641250473 2.1907648396305905 0 0 0
5440 1 12.135652645025258 -94.86951244370792 3.434914827991394 0 0 0
5441 1 12.135652644954764 -94.86951244361504 0.9466148280032254 0 0 0
5506 1 9.983236023766377 -94.86951298347172 2.190764835513708 0 0 0
5507 1 11.419452339192814 -92.83630553798217 2.1907648216363214 0 0 0
5439 1 14.288069219832014 -94.86951178795049 2.1907648201938956 0 0 0
5445 1 13.57186891407156 -92.8363048504183 3.4349148154872475 0 0 0
5454 1 13.571868914023632 -92.83630485037243 0.946614815428697 0 0 0
5456 1 15.72428544306264 -92.83630410027715 2.190764807314759 0 0 0
5415 1 16.440485761487118 -94.86951109401339 3.43491481324142 0 0 0
5419 1 16.440485761456408 -94.86951109396333 0.9466148130855946 0 0 0
5421 1 18.592902283718345 -94.86951044879912 2.190764806531232 0 0 0
5422 1 17.876701943246317 -92.83630337723149 3.434914801799927 0 0 0
5423 1 17.876701943245454 -92.83630337720854 0.9466148018626422 0 0 0
5677 1 2.0935850258913806 -90.80308404982388 3.4349148467585318 0 0 0
5688 1 2.093585025853576 -90.80308404982839 0.9466148467108808 0 0 0
5602 1 6.398418652255265 -90.80308429178012 3.4349148354445185 0 0 0
5603 1 6.398418652280672 -90.80308429174752 0.9466148355451366 0 0 0
5690 1 4.246001864171859 -90.80308431216105 2.190764843899614 0 0 0
5601 1 8.550835376060695 -90.80308399101312 2.1907648257490124 0 0 0
5513 1 10.703252027695708 -90.80308344424506 3.4349148142219317 0 0 0
5526 1 10.703252027633603 -90.80308344421535 0.9466148141237156 0 0 0
5528 1 12.85566860854869 -90.80308271717836 2.1907648061302836 0 0 0
5458 1 15.008085129605364 -90.80308189910569 3.434914800006856 0 0 0
5459 1 15.008085129538477 -90.80308189903414 0.9466148001422738 0 0 0
5425 1 19.312918070378476 -90.80308037618097 3.4349147942670153 0 0 0
5432 1 19.312918070331573 -90.80308037615369 0.9466147941289594 0 0 0
5457 1 17.160501608995364 -90.80308108425561 2.1907647964720423 0 0 0
5753 1 1.3773845788021226 -88.76986488992878 2.1907648448502997 0 0 0
5754 1 2.813601047819269 -86.73664611331569 2.1907648313034755 0 0 0
5755 1 0.6611841078978709 -86.73664561441642 3.4349148378576566 0 0 0
5756 1 0.6611841079188728 -86.73664561437188 0.9466148378239867 0 0 0
5691 1 5.68221830047259 -88.76986531493444 2.190764829554982 0 0 0
5692 1 3.529801464933066 -88.76986525763489 3.4349148383010033 0 0 0
5693 1 3.529801464871152 -88.76986525755666 0.946614838429377 0 0 0
5697 1 4.966017937129798 -86.73664626638447 3.4349148225514634 0 0 0
5712 1 4.966017937131937 -86.73664626639075 0.9466148225061661 0 0 0
5607 1 7.834635064520068 -88.76986505284817 3.434914819550726 0 0 0
5622 1 7.834635064404947 -88.76986505289828 0.9466148194612775 0 0 0
5626 1 9.270851467834033 -86.73664550944316 3.4349147981806705 0 0 0
5627 1 9.270851467895158 -86.73664550947385 0.9466147981516763 0 0 0
5714 1 7.118434749116432 -86.73664605704101 2.1907648100423986 0 0 0
5530 1 12.139468340612707 -88.76986373198662 3.434914795769945 0 0 0
5531 1 12.139468340534137 -88.76986373201241 0.9466147959415112 0 0 0
5624 1 9.987051745026472 -88.76986450340216 2.190764805449278 0 0 0
5625 1 11.423268085658146 -86.73664469017088 2.1907647883072374 0 0 0
5529 1 14.29188485925393 -88.76986283139553 2.190764791104068 0 0 0
5535 1 13.575684608978943 -86.73664369607854 3.4349147812971905 0 0 0
5550 1 13.575684608925156 -86.73664369600306 0.9466147811373554 0 0 0
5552 1 15.728101054400938 -86.73664264566511 2.1907647776926913 0 0 0
5463 1 16.444301319995887 -88.76986190775399 3.43491478851063 0 0 0
5477 1 16.44430131990864 -88.76986190775084 0.9466147884696294 0 0 0
5479 1 18.596717747903657 -88.76986107787647 2.1907647863779443 0 0 0
5480 1 17.8805174498135 -86.73664166891695 3.434914778141832 0 0 0
5481 1 17.880517449778438 -86.7366416689151 0.9466147782580236 0 0 0
5760 1 2.097400609084761 -84.70342708624665 3.434914823186491 0 0 0
5772 1 2.0974006091909025 -84.70342708625783 0.9466148231564081 0 0 0
5799 1 1.3812001428716916 -82.6702080743198 2.190764815533897 0 0 0
5716 1 6.402234431777876 -84.70342722377106 3.4349148021138505 0 0 0
5717 1 6.402234431724366 -84.70342722376266 0.9466148022067089 0 0 0
5774 1 4.249817560987002 -84.70342736179339 2.1907648137690434 0 0 0
5775 1 5.686034106632029 -82.6702084611273 2.1907647925616347 0 0 0
5776 1 3.5336171678175763 -82.67020850442151 3.4349148037730868 0 0 0
5777 1 3.533617167695111 -82.67020850443052 0.9466148038536047 0 0 0
5715 1 8.554651196953273 -84.70342668752195 2.190764790046734 0 0 0
5721 1 7.838450929117739 -82.67020795194117 3.434914779030615 0 0 0
5734 1 7.838450929050075 -82.670207951882 0.9466147789214004 0 0 0
5631 1 10.707067843924651 -84.70342581949738 3.4349147791429946 0 0 0
5646 1 10.707067843947476 -84.70342581943977 0.946614779061001 0 0 0
5648 1 12.859484376813057 -84.70342472334707 2.190764771337314 0 0 0
5650 1 12.14328416767254 -82.67020583213507 3.434914760637538 0 0 0
5651 1 12.143284167632538 -82.67020583212768 0.9466147606401671 0 0 0
5736 1 9.99086761681977 -82.67020703936932 2.1907647688720697 0 0 0
5554 1 15.011900811691499 -84.70342352652834 3.4349147669876214 0 0 0
5555 1 15.011900811604852 -84.70342352659164 0.9466147670931752 0 0 0
5649 1 14.295700596134873 -82.6702044704969 2.1907647567502972 0 0 0
5483 1 19.316733503967388 -84.70342140784757 3.4349147776547624 0 0 0
5492 1 19.316733504084624 -84.70342140781263 0.9466147775657434 0 0 0
5553 1 17.164317175942756 -84.70342237670478 2.190764769058254 0 0 0
5559 1 16.448116929132265 -82.6702031198386 3.4349147585106645 0 0 0
5572 1 16.448116929066714 -82.67020311978162 0.9466147584290535 0 0 0
5574 1 18.6005332064138 -82.67020193748898 2.19076476785896 0 0 0
5665 1 1.373569066450501 -94.86951304872203 4.679064843245462 0 0 0
5666 1 1.373569066515698 -94.8695130486473 7.1673648432845605 0 0 0
5667 1 2.8097854665294255 -92.83630632162924 7.167364847501077 0 0 0
5668 1 0.6573686381823568 -92.83630590618527 5.9232148472236075 0 0 0
5674 1 2.8097854665789366 -92.83630632156442 4.67906484757954 0 0 0
5581 1 5.678402630434281 -94.86951348001381 7.167364845753213 0 0 0
5582 1 3.5259858643449253 -94.8695133783372 5.923214845825183 0 0 0
5586 1 5.678402630380699 -94.86951348004114 4.679064845728665 0 0 0
5588 1 4.962202264855917 -92.83630649576536 5.923214846212745 0 0 0
5498 1 7.830819351906118 -94.86951334354512 5.923214841648826 0 0 0
5502 1 9.267035707673793 -92.83630608120298 5.923214830744638 0 0 0
5587 1 7.114619015289997 -92.83630641259542 4.679064839581904 0 0 0
5590 1 7.114619015290805 -92.83630641250724 7.1673648395486085 0 0 0
5438 1 12.135652644994506 -94.869512443692 5.923214828007603 0 0 0
5497 1 9.983236023612806 -94.86951298347158 4.679064835475338 0 0 0
5500 1 9.983236023771488 -94.8695129834397 7.167364835494856 0 0 0
5501 1 11.419452339148265 -92.8363055379815 7.167364821644153 0 0 0
5510 1 11.419452339228743 -92.83630553784863 4.679064821719019 0 0 0
5437 1 14.288069219815169 -94.86951178789363 7.167364820186763 0 0 0
5442 1 14.28806921974494 -94.86951178783276 4.679064820185654 0 0 0
5443 1 15.724285443088581 -92.8363041003805 4.679064807323373 0 0 0
5444 1 13.571868914003739 -92.83630485046304 5.923214815403377 0 0 0
5446 1 15.724285443124943 -92.83630410034901 7.167364807368353 0 0 0
5413 1 18.59290228365299 -94.86951044884601 4.679064806503209 0 0 0
5414 1 16.440485761465546 -94.86951109392155 5.923214813031258 0 0 0
5416 1 18.592902283811007 -94.86951044878634 7.167364806528907 0 0 0
5417 1 17.87670194325487 -92.83630337722408 5.92321480178392 0 0 0
5676 1 2.0935850259053495 -90.8030840498616 5.9232148466719545 0 0 0
5592 1 6.398418652308937 -90.803084291782 5.923214835583966 0 0 0
5675 1 4.246001864139553 -90.80308431223253 4.679064843852685 0 0 0
5678 1 4.246001864144958 -90.8030843121578 7.167364843926276 0 0 0
5591 1 8.550835376104464 -90.80308399102267 7.167364825701993 0 0 0
5604 1 8.550835376153355 -90.80308399094066 4.679064825740068 0 0 0
5511 1 12.85566860847983 -90.80308271728312 4.679064806089829 0 0 0
5512 1 10.703252027670711 -90.80308344427797 5.923214814115597 0 0 0
5514 1 12.855668608532888 -90.80308271718125 7.1673648060961925 0 0 0
5448 1 15.008085129573452 -90.8030818991702 5.923214800159996 0 0 0
5424 1 19.312918070295503 -90.80308037620956 5.923214794183669 0 0 0
5447 1 17.160501609019867 -90.80308108432993 7.167364796431544 0 0 0
5460 1 17.160501609152124 -90.80308108414724 4.6790647964451555 0 0 0
5746 1 1.3773845787379504 -88.76986488994513 4.679064844906629 0 0 0
5747 1 1.3773845787782693 -88.76986488989607 7.167364844876659 0 0 0
5748 1 2.81360104778289 -86.73664611325779 7.167364831275048 0 0 0
5749 1 0.6611841078887907 -86.73664561439354 5.923214837870464 0 0 0
5757 1 2.813601047785074 -86.7366461132353 4.679064831312437 0 0 0
5679 1 5.682218300464219 -88.76986531495619 7.1673648295279895 0 0 0
5680 1 3.529801464878954 -88.76986525763543 5.923214838372423 0 0 0
5694 1 5.682218300492098 -88.76986531485939 4.679064829539032 0 0 0
5696 1 4.966017937180722 -86.7366462665032 5.923214822491927 0 0 0
5606 1 7.834635064544433 -88.76986505290192 5.923214819450343 0 0 0
5610 1 9.270851467837177 -86.73664550942384 5.923214798177357 0 0 0
5695 1 7.118434749163344 -86.73664605713532 4.6790648100634975 0 0 0
5698 1 7.118434749186313 -86.7366460571029 7.167364809953228 0 0 0
5516 1 12.139468340641834 -88.76986373201233 5.923214795954957 0 0 0
5605 1 9.987051744910675 -88.76986450345878 4.679064805501017 0 0 0
5608 1 9.98705174498092 -88.76986450343028 7.167364805452652 0 0 0
5609 1 11.423268085642137 -86.73664469013504 7.167364788202053 0 0 0
5628 1 11.423268085710498 -86.73664469008206 4.679064788314342 0 0 0
5515 1 14.291884859260499 -88.76986283141464 7.167364791139513 0 0 0
5532 1 14.29188485925295 -88.76986283129875 4.679064791188527 0 0 0
5533 1 15.728101054351567 -86.73664264577266 4.679064777676103 0 0 0
5534 1 13.575684608949384 -86.73664369602515 5.923214781165453 0 0 0
5536 1 15.728101054410814 -86.73664264568511 7.167364777673043 0 0 0
5461 1 18.596717747788386 -88.76986107792521 4.679064786381016 0 0 0
5462 1 16.444301319972357 -88.76986190773545 5.923214788423325 0 0 0
5464 1 18.596717747897166 -88.7698610778515 7.167364786301196 0 0 0
5465 1 17.880517449693226 -86.73664166891359 5.923214778284459 0 0 0
5759 1 2.0974006092019026 -84.70342708625412 5.923214823118771 0 0 0
5794 1 1.3812001428293876 -82.67020807438188 4.679064815653008 0 0 0
5795 1 1.381200142842503 -82.67020807429756 7.167364815588292 0 0 0
5700 1 6.402234431707718 -84.70342722381052 5.923214802149492 0 0 0
5758 1 4.24981756100975 -84.70342736183699 4.679064813693488 0 0 0
5761 1 4.249817560975886 -84.70342736180412 7.1673648136625765 0 0 0
5762 1 5.686034106633933 -82.67020846108257 7.167364792489911 0 0 0
5763 1 3.5336171678082597 -82.67020850443404 5.923214803887179 0 0 0
5778 1 5.686034106576938 -82.67020846103735 4.6790647925034206 0 0 0
5699 1 8.554651196966734 -84.70342668757799 7.16736479002997 0 0 0
5718 1 8.554651196972921 -84.70342668749284 4.679064790000852 0 0 0
5720 1 7.838450929131201 -82.67020795188992 5.9232147788553995 0 0 0
5629 1 12.859484376782286 -84.70342472343219 4.6790647714029285 0 0 0
5630 1 10.707067843966671 -84.70342581948714 5.923214779051998 0 0 0
5632 1 12.859484376854232 -84.70342472335936 7.167364771370233 0 0 0
5634 1 12.14328416766931 -82.67020583214867 5.923214760688853 0 0 0
5719 1 9.990867616683174 -82.67020703951054 4.679064768961037 0 0 0
5722 1 9.990867616787018 -82.67020703936379 7.167364768916675 0 0 0
5538 1 15.011900811616812 -84.70342352653344 5.923214767166706 0 0 0
5633 1 14.295700596172802 -82.67020447046187 7.167364756707151 0 0 0
5652 1 14.295700596185279 -82.67020447043572 4.679064756646545 0 0 0
5482 1 19.316733503984977 -84.70342140776418 5.923214777574239 0 0 0
5537 1 17.1643171759795 -84.70342237668092 7.16736476899979 0 0 0
5556 1 17.164317176023953 -84.70342237658411 4.67906476904411 0 0 0
5557 1 18.600533206179843 -82.67020193755997 4.679064767862512 0 0 0
5558 1 16.448116929164968 -82.6702031198084 5.923214758439701 0 0 0
5560 1 18.600533206329327 -82.67020193748938 7.167364767850462 0 0 0
6039 1 0.6649996480526899 -80.63698908183177 -4.029985190086726 0 0 0
6055 1 0.6649996480944763 -80.63698908182926 -6.518285190111873 0 0 0
6056 1 2.8174167539914436 -80.63698970681502 -5.2741352037462566 0 0 0
5962 1 4.969833774358834 -80.63698979189617 -4.02998521907543 0 0 0
5963 1 4.969833774360005 -80.63698979195169 -6.5182852190218545 0 0 0
5877 1 9.274667405448989 -80.6369883815974 -4.029985244917224 0 0 0
5893 1 9.274667405427854 -80.63698838165354 -6.518285245017051 0 0 0
5961 1 7.122250666675038 -80.63698933164825 -5.274135233002196 0 0 0
5894 1 11.427083983412965 -80.63698705866285 -5.27413525427399 0 0 0
5834 1 15.731916713522326 -80.63698393092137 -5.274135250736675 0 0 0
5835 1 13.579500409306771 -80.63698551281638 -4.0299852560595815 0 0 0
5836 1 13.579500409304291 -80.63698551278834 -6.518285256076282 0 0 0
5809 1 17.884332935834873 -80.63698249846873 -4.029985240589394 0 0 0
5812 1 17.884332935864066 -80.63698249840917 -6.51828524072905 0 0 0
6058 1 2.1012163196806117 -78.603770964019 -4.029985212070034 0 0 0
6059 1 2.1012163196728246 -78.60377096406644 -6.5182852119956785 0 0 0
6131 1 1.38501585047659 -76.57055227152003 -5.27413522391605 0 0 0
5967 1 6.406050411218145 -78.6037708363082 -4.02998524861633 0 0 0
5983 1 6.406050411278827 -78.60377083637633 -6.51828524868685 0 0 0
6057 1 4.253633434534409 -78.60377122060272 -5.274135231234599 0 0 0
6063 1 3.537433077257545 -76.57055274994573 -4.029985248122907 0 0 0
6079 1 3.5374330771843456 -76.57055274988026 -6.51828524809739 0 0 0
6080 1 5.689850157430587 -76.57055248375838 -5.274135270443709 0 0 0
5984 1 8.558467214158252 -78.6037698664425 -5.274135263113487 0 0 0
5986 1 7.842267043529656 -76.57055151336044 -4.029985285594688 0 0 0
5987 1 7.8422670434185635 -76.57055151338926 -6.518285285589935 0 0 0
5895 1 12.863300261797859 -78.60376667756012 -5.2741352701837 0 0 0
5896 1 10.710883829047512 -78.60376842445704 -4.029985271418283 0 0 0
5897 1 10.710883829056584 -78.60376842448949 -6.518285271359782 0 0 0
5901 1 12.147100157466891 -76.57054799443148 -4.029985287528034 0 0 0
5916 1 12.147100157484754 -76.57054799433334 -6.518285287548568 0 0 0
5985 1 9.994683709470875 -76.57054995714614 -5.274135291921658 0 0 0
5840 1 15.01571653792147 -78.60376483272358 -4.029985261880943 0 0 0
5850 1 15.015716537961628 -78.60376483263347 -6.518285261927771 0 0 0
5917 1 14.299516412239555 -76.57054585424868 -5.274135275815361 0 0 0
5813 1 19.320548818878166 -78.60376170706445 -4.029985234799032 0 0 0
5814 1 19.32054881880673 -78.60376170701407 -6.518285234806311 0 0 0
5851 1 17.168132704379524 -78.60376310673165 -5.274135249962207 0 0 0
5852 1 18.60434854854476 -76.57054203915159 -5.274135239568428 0 0 0
5853 1 16.451932521216435 -76.57054378616671 -4.029985259305907 0 0 0
5854 1 16.45193252112864 -76.57054378617029 -6.518285259247139 0 0 0
6135 1 0.6688153412351437 -74.53733362105909 -4.029985239930752 0 0 0
6149 1 0.6688153412540616 -74.53733362108872 -6.518285240023684 0 0 0
6150 1 2.8212326997020942 -74.5373343851856 -5.274135272561195 0 0 0
6152 1 2.105032292607435 -72.50411612761637 -4.029985302951601 0 0 0
6153 1 2.105032292587392 -72.50411612756965 -6.518285302918965 0 0 0
6082 1 4.973649902948165 -74.5373342878101 -4.0299852989187785 0 0 0
6083 1 4.97364990297153 -74.53733428776667 -6.5182852989611675 0 0 0
6087 1 6.409866755578525 -72.50411539578411 -4.029985357277896 0 0 0
6097 1 6.409866755580148 -72.50411539581556 -6.518285357294915 0 0 0
6151 1 4.25744964241146 -72.5041162595809 -5.27413533657764 0 0 0
5991 1 9.278483626405903 -74.53733168699877 -4.029985320505475 0 0 0
6005 1 9.278483626417037 -74.53733168692314 -6.518285320594693 0 0 0
6081 1 7.126066889954684 -74.5373333481004 -5.274135316716058 0 0 0
6098 1 8.56228358375139 -72.50411364877571 -5.274135359091449 0 0 0
6006 1 11.430900103842472 -74.53732949664892 -5.274135312030099 0 0 0
6007 1 12.867116345428856 -72.50410839503773 -5.274135318256306 0 0 0
6008 1 10.714700107462063 -72.50411122132884 -4.02998534543018 0 0 0
6009 1 10.714700107465774 -72.50411122133865 -6.518285345449343 0 0 0
5918 1 15.73573239787617 -74.53732456959281 -5.2741352705125015 0 0 0
5919 1 13.583316345336735 -74.53732702820565 -4.029985293329985 0 0 0
5920 1 13.583316345344844 -74.53732702825104 -6.5182852932476445 0 0 0
5924 1 15.019532345216042 -72.50410549148037 -4.0299852819528486 0 0 0
5932 1 15.019532345227312 -72.50410549141453 -6.518285281937007 0 0 0
5857 1 17.888148331081712 -74.53732240973488 -4.029985242635234 0 0 0
5860 1 17.888148331148788 -74.5373224097781 -6.518285242673733 0 0 0
5861 1 19.324363945151514 -72.50410078235167 -4.029985191172323 0 0 0
5862 1 19.324363945114953 -72.50410078238076 -6.51828519119848 0 0 0
5933 1 17.171948178903257 -72.5041028482464 -5.274135237523783 0 0 0
6185 1 1.3888318482194835 -70.47089797083707 -5.27413534583778 0 0 0
6157 1 3.5412493725286884 -70.47089841253594 -4.029985389697137 0 0 0
6163 1 3.5412493724774117 -70.47089841265452 -6.5182853897007815 0 0 0
6164 1 5.693666637995031 -70.47089768071065 -5.274135411304533 0 0 0
6100 1 7.846083582697504 -70.47089587802058 -4.029985410581285 0 0 0
6101 1 7.8460835826785615 -70.47089587799749 -6.518285410541814 0 0 0
6013 1 12.150916424544658 -70.47089000079987 -4.029985346382277 0 0 0
6019 1 12.15091642451039 -70.47089000088242 -6.518285346376183 0 0 0
6099 1 9.998500175320727 -70.47089321563749 -5.274135387669528 0 0 0
6020 1 14.303332376726583 -70.4708865955531 -5.274135289274516 0 0 0
5934 1 18.608163727670263 -70.47088076664552 -5.274135160005923 0 0 0
5935 1 16.455748108663503 -70.47088338945944 -4.029985223822709 0 0 0
5936 1 16.455748108554147 -70.47088338953381 -6.518285223841319 0 0 0
6037 1 2.817416753968563 -80.63698970681389 -2.7858352036520677 0 0 0
6038 1 0.6649996480568324 -80.63698908180393 -1.5416851900716637 0 0 0
6040 1 2.8174167539575032 -80.63698970677248 -0.2975352037159035 0 0 0
5949 1 4.969833774301658 -80.63698979197464 -1.5416852190253063 0 0 0
5876 1 9.274667405485122 -80.63698838159068 -1.5416852449516933 0 0 0
5947 1 7.1222506666362575 -80.63698933160467 -0.29753523295734036 0 0 0
5964 1 7.122250666664422 -80.63698933160985 -2.785835233032332 0 0 0
5875 1 11.42708398339168 -80.63698705872288 -2.785835254244441 0 0 0
5878 1 11.427083983366877 -80.63698705870247 -0.297535254322673 0 0 0
5821 1 15.731916713621713 -80.6369839308672 -0.2975352507464149 0 0 0
5823 1 13.579500409311182 -80.63698551280923 -1.5416852560226777 0 0 0
5837 1 15.731916713608037 -80.63698393085802 -2.785835250738618 0 0 0
5808 1 17.884332935877588 -80.63698249841444 -1.5416852407700692 0 0 0
6043 1 2.1012163196584885 -78.60377096402273 -1.5416852120756892 0 0 0
6118 1 1.385015850484109 -76.5705522715203 -0.2975352238811804 0 0 0
6132 1 1.3850158503809664 -76.57055227146031 -2.7858352238971626 0 0 0
5966 1 6.406050411234453 -78.60377083633853 -1.541685248706011 0 0 0
6041 1 4.2536334345200855 -78.60377122056433 -0.2975352311814761 0 0 0
6060 1 4.253633434524735 -78.60377122045766 -2.785835231231613 0 0 0
6061 1 5.6898501573058615 -76.57055248388214 -2.785835270399421 0 0 0
6062 1 3.5374330772437186 -76.5705527499838 -1.5416852481940344 0 0 0
6064 1 5.6898501574080464 -76.57055248380327 -0.29753527034688115 0 0 0
5965 1 8.558467214137792 -78.60376986640927 -2.7858352629998984 0 0 0
5968 1 8.55846721417932 -78.60376986640333 -0.29753526307857386 0 0 0
5971 1 7.842267043549829 -76.57055151335055 -1.5416852855867047 0 0 0
5879 1 12.863300261815109 -78.60376667750711 -0.29753527012544145 0 0 0
5881 1 10.710883828979108 -78.60376842450782 -1.5416852713336264 0 0 0
5898 1 12.863300261868613 -78.60376667747356 -2.785835270224257 0 0 0
5900 1 12.14710015748576 -76.57054799436523 -1.5416852875492684 0 0 0
5969 1 9.994683709478835 -76.57054995714441 -0.2975352919403788 0 0 0
5988 1 9.994683709389717 -76.57054995709464 -2.785835291806495 0 0 0
5839 1 15.015716538028727 -78.60376483261918 -1.5416852618855925 0 0 0
5899 1 14.29951641221929 -76.57054585427846 -2.7858352757731986 0 0 0
5902 1 14.299516412336 -76.57054585424234 -0.2975352756922939 0 0 0
5811 1 19.320548818724983 -78.60376170708494 -1.5416852347179955 0 0 0
5838 1 17.168132704470484 -78.60376310676025 -2.7858352499290886 0 0 0
5841 1 17.16813270442128 -78.60376310673472 -0.2975352499165615 0 0 0
5842 1 18.604348548442424 -76.57054203913289 -0.29753523956296285 0 0 0
5844 1 16.4519325212071 -76.57054378621157 -1.5416852591599235 0 0 0
5855 1 18.604348548490325 -76.57054203913333 -2.785835239525343 0 0 0
6133 1 2.821232699801095 -74.53733438519441 -2.7858352726013575 0 0 0
6134 1 0.6688153412448377 -74.53733362108191 -1.541685239972817 0 0 0
6136 1 2.821232699709993 -74.53733438519178 -0.2975352725720333 0 0 0
6139 1 2.1050322926014875 -72.50411612758498 -1.541685302897672 0 0 0
6067 1 4.973649902956453 -74.53733428775895 -1.541685298899333 0 0 0
6086 1 6.409866755653509 -72.50411539580222 -1.541685357138651 0 0 0
6137 1 4.257449642396516 -72.50411625955786 -0.297535336541592 0 0 0
6154 1 4.257449642328668 -72.50411625952582 -2.7858353366061164 0 0 0
5990 1 9.278483626389677 -74.53733168698466 -1.5416853204927203 0 0 0
6065 1 7.126066889956918 -74.53733334804467 -0.29753531667544075 0 0 0
6084 1 7.126066889959595 -74.53733334799732 -2.7858353166898087 0 0 0
6085 1 8.562283583776306 -72.50411364882595 -2.7858353590498375 0 0 0
6088 1 8.562283583787915 -72.50411364878816 -0.297535359106909 0 0 0
5989 1 11.430900103801674 -74.53732949665851 -2.7858353120008905 0 0 0
5992 1 11.430900103807208 -74.53732949668522 -0.29753531197737954 0 0 0
5993 1 12.867116345392168 -72.50410839503746 -0.2975353182006158 0 0 0
5995 1 10.71470010740463 -72.5041112212911 -1.541685345405495 0 0 0
6010 1 12.867116345403627 -72.50410839501828 -2.785835318277952 0 0 0
5903 1 15.735732397875466 -74.53732456962005 -0.2975352704736703 0 0 0
5905 1 13.583316345341803 -74.53732702829645 -1.5416852932332579 0 0 0
5921 1 15.735732397887501 -74.5373245695322 -2.785835270538473 0 0 0
5923 1 15.019532345185407 -72.50410549143595 -1.5416852819092643 0 0 0
5856 1 17.888148331109676 -74.53732240972334 -1.5416852425881171 0 0 0
5859 1 19.324363945094333 -72.5041007823626 -1.5416851912444347 0 0 0
5922 1 17.17194817902079 -72.50410284826455 -2.7858352375243745 0 0 0
5925 1 17.171948178916264 -72.50410284825153 -0.2975352375233501 0 0 0
6178 1 1.3888318482012556 -70.47089797081942 -0.29753534585989877 0 0 0
6186 1 1.388831848124041 -70.4708979708434 -2.78583534582439 0 0 0
6155 1 5.693666637963171 -70.4708976807427 -2.7858354112752854 0 0 0
6156 1 3.541249372538369 -70.47089841259043 -1.5416853896998735 0 0 0
6158 1 5.69366663802827 -70.47089768071343 -0.2975354113557014 0 0 0
6091 1 7.846083582738159 -70.47089587798361 -1.541685410489636 0 0 0
6012 1 12.150916424578492 -70.47089000079986 -1.5416853463971971 0 0 0
6089 1 9.99850017528596 -70.47089321562208 -0.2975353876099129 0 0 0
6102 1 9.99850017525136 -70.4708932156306 -2.785835387663418 0 0 0
6011 1 14.303332376649655 -70.47088659564312 -2.785835289197809 0 0 0
6014 1 14.303332376710067 -70.47088659561675 -0.2975352893586661 0 0 0
5926 1 18.608163727598956 -70.4708807666517 -0.2975351599404393 0 0 0
5928 1 16.455748108663528 -70.47088338945434 -1.5416852237906444 0 0 0
5937 1 18.608163727608034 -70.47088076667823 -2.7858351599734084 0 0 0
6027 1 2.817416753967001 -80.63698970682525 2.190764796252845 0 0 0
6028 1 0.6649996480843333 -80.63698908181057 3.4349148098606346 0 0 0
6029 1 0.6649996481053688 -80.6369890818234 0.9466148098908023 0 0 0
5943 1 4.969833774315849 -80.63698979191669 3.43491478097537 0 0 0
5948 1 4.969833774369319 -80.63698979192075 0.9466147809178992 0 0 0
5866 1 9.274667405477269 -80.63698838159638 3.4349147549725343 0 0 0
5867 1 9.274667405408215 -80.63698838166714 0.9466147550267456 0 0 0
5950 1 7.12225066671138 -80.6369893315987 2.1907647670124537 0 0 0
5865 1 11.427083983381205 -80.63698705872787 2.1907647457420287 0 0 0
5817 1 13.579500409296811 -80.63698551283773 3.434914744035794 0 0 0
5822 1 13.579500409341069 -80.63698551278371 0.9466147438458764 0 0 0
5824 1 15.731916713595892 -80.6369839308654 2.1907647492603615 0 0 0
5804 1 17.884332935872244 -80.63698249846242 3.4349147592970724 0 0 0
5805 1 17.88433293584716 -80.63698249844 0.9466147593077676 0 0 0
6033 1 2.1012163196846094 -78.60377096399591 3.4349147879352735 0 0 0
6042 1 2.1012163196706783 -78.60377096404935 0.9466147879420325 0 0 0
6119 1 1.3850158504715762 -76.57055227149209 2.1907647761044498 0 0 0
5952 1 6.406050411214697 -78.60377083631161 3.4349147513492193 0 0 0
5953 1 6.406050411266913 -78.6037708363895 0.9466147513289686 0 0 0
6044 1 4.2536334345623645 -78.60377122056082 2.190764768786886 0 0 0
6045 1 5.689850157419175 -76.57055248379395 2.1907647295954336 0 0 0
6046 1 3.537433077266071 -76.57055274993625 3.4349147518370726 0 0 0
6047 1 3.5374330771685107 -76.57055274989945 0.9466147518962823 0 0 0
5951 1 8.558467214122537 -78.60376986648089 2.1907647369381538 0 0 0
5957 1 7.842267043505379 -76.57055151340465 3.434914714433112 0 0 0
5970 1 7.842267043428033 -76.5705515133538 0.9466147143314292 0 0 0
5871 1 10.710883829028829 -78.60376842449516 3.4349147286350745 0 0 0
5880 1 10.710883829064654 -78.60376842445788 0.9466147285676167 0 0 0
5882 1 12.863300261845936 -78.60376667750293 2.1907647297893953 0 0 0
5884 1 12.147100157468817 -76.57054799441894 3.4349147123876707 0 0 0
5885 1 12.1471001574674 -76.57054799435629 0.9466147124736659 0 0 0
5972 1 9.994683709484894 -76.57054995711857 2.1907647080652155 0 0 0
5826 1 15.015716537960461 -78.60376483268769 3.434914738009611 0 0 0
5827 1 15.01571653794161 -78.60376483267972 0.9466147381334253 0 0 0
5883 1 14.299516412205156 -76.57054585429817 2.19076472427073 0 0 0
5807 1 19.320548818878628 -78.60376170709395 3.4349147652771097 0 0 0
5810 1 19.32054881881388 -78.60376170697982 0.9466147651568193 0 0 0
5825 1 17.168132704342938 -78.60376310679835 2.190764750121821 0 0 0
5831 1 16.451932521183632 -76.57054378617556 3.434914740741738 0 0 0
5843 1 16.451932521136293 -76.57054378612835 0.9466147407026686 0 0 0
5845 1 18.604348548571732 -76.57054203911852 2.190764760440911 0 0 0
6120 1 2.821232699657719 -74.53733438519163 2.1907647274848534 0 0 0
6121 1 0.6688153412046832 -74.53733362106419 3.4349147600800074 0 0 0
6122 1 0.6688153412392377 -74.53733362109531 0.9466147599953395 0 0 0
6126 1 2.1050322925680405 -72.50411612760762 3.4349146971008375 0 0 0
6138 1 2.1050322925766944 -72.50411612757244 0.9466146970387999 0 0 0
6051 1 4.973649902904551 -74.53733428782667 3.434914701104048 0 0 0
6066 1 4.9736499029645485 -74.53733428775611 0.9466147010275461 0 0 0
6070 1 6.409866755595832 -72.50411539581575 3.434914642708858 0 0 0
6071 1 6.409866755594943 -72.504115395835 0.9466146427543395 0 0 0
6140 1 4.257449642388392 -72.50411625957155 2.190764663463714 0 0 0
5974 1 9.278483626410836 -74.5373316870043 3.4349146794412815 0 0 0
5975 1 9.278483626398753 -74.53733168694744 0.9466146794610018 0 0 0
6068 1 7.1260668899549495 -74.53733334811565 2.1907646833101873 0 0 0
6069 1 8.562283583759363 -72.50411364880998 2.190764640929365 0 0 0
5973 1 11.430900103807112 -74.53732949669464 2.1907646880034974 0 0 0
5979 1 10.714700107461406 -72.50411122135013 3.434914654565374 0 0 0
5994 1 10.714700107473634 -72.50411122130895 0.9466146545389089 0 0 0
5996 1 12.867116345429851 -72.50410839502591 2.190764681729605 0 0 0
5889 1 13.583316345299284 -74.53732702820443 3.4349147066971573 0 0 0
5904 1 13.583316345382846 -74.53732702825066 0.9466147067053015 0 0 0
5906 1 15.735732397889278 -74.53732456955899 2.1907647294952657 0 0 0
5908 1 15.019532345209477 -72.5041054914541 3.434914718021536 0 0 0
5909 1 15.019532345227312 -72.50410549142893 0.9466147180356709 0 0 0
5846 1 17.888148331109715 -74.53732240971627 3.434914757315328 0 0 0
5847 1 17.888148331126306 -74.5373224097874 0.9466147573768664 0 0 0
5849 1 19.3243639451477 -72.5041007823832 3.434914808826845 0 0 0
5858 1 19.32436394513689 -72.50410078236541 0.9466148087968962 0 0 0
5907 1 17.171948178887764 -72.50410284825256 2.190764762509033 0 0 0
6179 1 1.3888318482672033 -70.47089797081517 2.190764654199303 0 0 0
6141 1 5.693666637980417 -70.4708976807412 2.1907645887147886 0 0 0
6142 1 3.5412493725213796 -70.4708984125419 3.4349146102711825 0 0 0
6143 1 3.541249372503044 -70.47089841266461 0.9466146103234515 0 0 0
6075 1 7.846083582713186 -70.47089587803526 3.4349145894505875 0 0 0
6090 1 7.846083582678204 -70.47089587800755 0.9466145894603232 0 0 0
5998 1 12.150916424582217 -70.47089000077013 3.4349146535979758 0 0 0
5999 1 12.150916424526606 -70.47089000087388 0.9466146536674173 0 0 0
6092 1 9.998500175341979 -70.47089321561435 2.1907646123714977 0 0 0
5997 1 14.30333237673184 -70.4708865955538 2.190764710716275 0 0 0
5913 1 16.455748108662785 -70.4708833894632 3.4349147761661802 0 0 0
5927 1 16.455748108550157 -70.47088338952275 0.9466147761599493 0 0 0
5929 1 18.60816372767428 -70.47088076667679 2.19076484003925 0 0 0
6025 1 2.8174167539291672 -80.63698970677912 7.167364796323151 0 0 0
6026 1 0.664999648066477 -80.63698908179207 5.92321480996048 0 0 0
6030 1 2.8174167539949884 -80.63698970675176 4.679064796344163 0 0 0
5942 1 4.969833774293924 -80.63698979198728 5.923214780930402 0 0 0
5864 1 9.274667405483926 -80.63698838163427 5.9232147551368834 0 0 0
5941 1 7.1222506666111824 -80.63698933166019 4.679064766994172 0 0 0
5944 1 7.1222506666772425 -80.63698933155217 7.167364766972965 0 0 0
5863 1 11.427083983325357 -80.63698705878069 7.167364745723918 0 0 0
5868 1 11.427083983436649 -80.63698705868218 4.679064745724071 0 0 0
5815 1 15.731916713570733 -80.63698393091454 4.679064749304851 0 0 0
5816 1 13.579500409338959 -80.63698551277507 5.923214743877848 0 0 0
5818 1 15.731916713674298 -80.63698393079343 7.167364749203892 0 0 0
5803 1 17.884332935893337 -80.63698249844698 5.923214759348181 0 0 0
6032 1 2.101216319671214 -78.60377096398497 5.9232147879063906 0 0 0
6112 1 1.385015850362165 -76.57055227147688 4.679064776125271 0 0 0
6113 1 1.3850158505048393 -76.57055227149633 7.167364776088686 0 0 0
5946 1 6.406050411196416 -78.60377083637384 5.923214751344572 0 0 0
6031 1 4.253633434508725 -78.60377122049384 4.679064768774533 0 0 0
6034 1 4.253633434535624 -78.60377122051587 7.16736476876202 0 0 0
6035 1 5.689850157399528 -76.57055248383581 7.167364729651831 0 0 0
6036 1 3.5374330772391356 -76.57055274997236 5.923214751837183 0 0 0
6048 1 5.689850157322516 -76.5705524838631 4.679064729573122 0 0 0
5945 1 8.558467214162151 -78.60376986645957 7.167364736921316 0 0 0
5954 1 8.558467214155508 -78.60376986640671 4.6790647369614495 0 0 0
5956 1 7.842267043558898 -76.57055151334811 5.923214714392656 0 0 0
5869 1 12.863300261838504 -78.60376667751838 4.679064729799561 0 0 0
5870 1 10.710883829015447 -78.60376842447806 5.923214728639306 0 0 0
5872 1 12.863300261873531 -78.60376667744563 7.167364729809732 0 0 0
5874 1 12.147100157453222 -76.57054799440031 5.923214712522556 0 0 0
5955 1 9.994683709349374 -76.5705499571526 4.679064708234483 0 0 0
5958 1 9.994683709494753 -76.57054995711256 7.167364708008556 0 0 0
5820 1 15.01571653802347 -78.6037648326443 5.923214738194174 0 0 0
5873 1 14.299516412297814 -76.57054585428732 7.16736472430034 0 0 0
5886 1 14.2995164122385 -76.57054585423892 4.6790647241978 0 0 0
5806 1 19.3205488187942 -78.60376170706931 5.9232147652128715 0 0 0
5819 1 17.168132704400037 -78.60376310681806 7.167364750069318 0 0 0
5828 1 17.168132704511333 -78.60376310672974 4.67906475004891 0 0 0
5829 1 18.60434854844448 -76.57054203920575 4.679064760524669 0 0 0
5830 1 16.45193252121933 -76.57054378618834 5.923214740800591 0 0 0
5832 1 18.604348548481944 -76.57054203912058 7.1673647603576445 0 0 0
6114 1 2.821232699689994 -74.53733438519554 7.16736472741823 0 0 0
6115 1 0.6688153412225948 -74.53733362107369 5.9232147600400715 0 0 0
6123 1 2.8212326997841455 -74.53733438516983 4.6790647274042865 0 0 0
6125 1 2.105032292567171 -72.50411612758644 5.923214697106173 0 0 0
6050 1 4.97364990294436 -74.53733428774406 5.923214701091748 0 0 0
6054 1 6.409866755643252 -72.50411539581887 5.92321464285057 0 0 0
6124 1 4.257449642300165 -72.5041162595371 4.679064663408088 0 0 0
6127 1 4.257449642372996 -72.50411625952735 7.167364663418784 0 0 0
5960 1 9.278483626372509 -74.53733168704053 5.923214679550559 0 0 0
6049 1 7.126066889919283 -74.53733334803158 4.679064683346662 0 0 0
6052 1 7.1260668899735515 -74.53733334803837 7.1673646832808515 0 0 0
6053 1 8.562283583777425 -72.50411364882925 7.1673646408878895 0 0 0
6072 1 8.562283583804488 -72.50411364883561 4.679064640940276 0 0 0
5959 1 11.430900103769952 -74.53732949673174 7.167364688024294 0 0 0
5976 1 11.430900103830602 -74.53732949666777 4.679064687948432 0 0 0
5977 1 12.867116345387824 -72.50410839502287 4.67906468173533 0 0 0
5978 1 10.71470010742258 -72.50411122130392 5.923214654576853 0 0 0
5980 1 12.867116345385966 -72.50410839500712 7.167364681764484 0 0 0
5887 1 15.7357323978519 -74.53732456955295 4.679064729516817 0 0 0
5888 1 13.583316345339004 -74.5373270282669 5.9232147067760925 0 0 0
5890 1 15.735732397885938 -74.5373245696051 7.1673647294732445 0 0 0
5892 1 15.01953234515707 -72.50410549144581 5.923214718119232 0 0 0
5833 1 17.888148331088047 -74.53732240978266 5.923214757458719 0 0 0
5848 1 19.32436394510089 -72.50410078235176 5.923214808764243 0 0 0
5891 1 17.171948178906476 -72.50410284828735 7.167364762475544 0 0 0
5910 1 17.171948179035482 -72.50410284826395 4.6790647624735335 0 0 0
6172 1 1.3888318481408393 -70.47089797083628 4.6790646541570835 0 0 0
6173 1 1.3888318482199655 -70.47089797081281 7.167364654126057 0 0 0
6128 1 5.693666638004129 -70.47089768072729 7.167364588613169 0 0 0
6129 1 3.5412493725321466 -70.4708984125621 5.9232146103312795 0 0 0
6144 1 5.693666637965177 -70.47089768074085 4.679064588738443 0 0 0
6074 1 7.846083582739722 -70.4708958779977 5.923214589491934 0 0 0
5982 1 12.150916424585766 -70.47089000077747 5.923214653594358 0 0 0
6073 1 9.998500175262073 -70.47089321563996 4.679064612329021 0 0 0
6076 1 9.998500175282388 -70.47089321562501 7.167364612343264 0 0 0
5981 1 14.303332376707514 -70.47088659562628 7.167364710656461 0 0 0
6000 1 14.303332376675574 -70.47088659562749 4.679064710795826 0 0 0
5911 1 18.608163727649536 -70.47088076667144 4.679064840031627 0 0 0
5912 1 16.455748108678325 -70.47088338947461 5.923214776220777 0 0 0
5914 1 18.608163727621594 -70.47088076664814 7.167364840002728 0 0 0
6189 1 0.6726313506631243 -68.43767990800553 -4.029985405102248 0 0 0
6191 1 0.6726313507047635 -68.43767990805489 -6.518285405183211 0 0 0
6192 1 2.8250490801860924 -68.4376807569477 -5.2741354611775 0 0 0
6412 1 2.108848754516135 -66.40446329967028 -4.029985558560096 0 0 0
6413 1 2.108848754550862 -66.40446329952394 -6.518285558435804 0 0 0
6166 1 4.977466532134432 -68.43768022901583 -4.029985484621641 0 0 0
6167 1 4.977466532176795 -68.43768022901769 -6.518285484514529 0 0 0
6321 1 6.4136837067134564 -66.40446129728369 -4.029985568819175 0 0 0
6337 1 6.413683706673829 -66.40446129737062 -6.5182855687417565 0 0 0
6411 1 4.261266431899104 -66.40446306928402 -5.274135585366022 0 0 0
6105 1 9.282300311106447 -68.43767552592614 -4.029985441414841 0 0 0
6107 1 9.282300311142771 -68.43767552593887 -6.518285441438804 0 0 0
6165 1 7.129883623856071 -68.43767841300804 -5.274135478659283 0 0 0
6338 1 8.566100519019168 -66.4044582081445 -5.274135511599169 0 0 0
6108 1 11.434716591393748 -68.437671899012 -5.2741353769659485 0 0 0
6255 1 12.87093274463746 -66.40444956819555 -5.274135298361905 0 0 0
6256 1 10.718516854211854 -66.40445414929671 -4.029985417062603 0 0 0
6257 1 10.718516854210758 -66.40445414919385 -6.5182854169936775 0 0 0
6021 1 15.739548133173809 -68.43766407965641 -5.274135202720238 0 0 0
6022 1 13.587132504778777 -68.43766793372477 -4.02998529413072 0 0 0
6023 1 13.587132504856282 -68.43766793368809 -6.5182852942084795 0 0 0
6212 1 15.023348271746311 -66.40444497668271 -4.029985169114023 0 0 0
6222 1 15.023348271704021 -66.40444497675614 -6.518285169069739 0 0 0
5939 1 17.891963592535237 -68.43766079110016 -4.029985113705467 0 0 0
5940 1 17.891963592586947 -68.43766079107193 -6.518285113775021 0 0 0
6197 1 19.32817876761838 -66.40443785133267 -4.029984943813662 0 0 0
6198 1 19.328178767662884 -66.40443785130454 -6.5182849438703006 0 0 0
6223 1 17.17576355971618 -66.40444090412194 -5.274135046276508 0 0 0
6493 1 1.3926483787778885 -64.37124604774375 -5.274135697092283 0 0 0
6497 1 0.676447935518196 -62.33802899837537 -4.029985899671254 0 0 0
6513 1 0.6764479354770272 -62.33802899841199 -6.518285899728269 0 0 0
6514 1 2.828866203704929 -62.33802972265723 -5.274135927602672 0 0 0
6417 1 3.5450663257734343 -64.37124622418264 -4.0299857265092145 0 0 0
6433 1 3.545066325739181 -64.37124622424628 -6.5182857265646375 0 0 0
6434 1 5.697483829289335 -64.37124457390617 -5.274135694939204 0 0 0
6436 1 4.981283985318238 -62.338028292540834 -4.029985867789293 0 0 0
6437 1 4.9812839854770345 -62.33802829244215 -6.518285867642128 0 0 0
6340 1 7.849900805454491 -64.37124131714465 -4.029985605433703 0 0 0
6341 1 7.849900805522888 -64.37124131714185 -6.518285605403962 0 0 0
6345 1 9.286117716297854 -62.33801998785558 -4.02998552481338 0 0 0
6361 1 9.286117716282229 -62.33801998797319 -6.5182855248071885 0 0 0
6435 1 7.133701172536953 -62.33802491930881 -5.274135728632281 0 0 0
6261 1 12.154733114723783 -64.37123157235163 -4.029985297143057 0 0 0
6276 1 12.154733114613407 -64.3712315724945 -6.518285297177993 0 0 0
6339 1 10.002317226355185 -64.37123681995088 -5.274135467442446 0 0 0
6362 1 11.43853362936992 -62.33801402821001 -5.274135283538964 0 0 0
6277 1 14.307148547186157 -64.37122614707967 -5.27413511704828 0 0 0
6278 1 15.743363908857129 -62.338001630562914 -5.274134806479081 0 0 0
6279 1 13.590948982787355 -62.33800767373145 -4.0299850349713005 0 0 0
6280 1 13.590948982929538 -62.33800767362932 -6.518285035050727 0 0 0
6224 1 18.61197861481104 -64.37121721371085 -5.2741348129241965 0 0 0
6225 1 16.459563655638245 -64.37122116009897 -4.02998494968163 0 0 0
6226 1 16.459563655680814 -64.37122116001073 -6.518284949731014 0 0 0
6229 1 17.895778594710873 -62.33799661428566 -4.0299846280349385 0 0 0
6232 1 17.895778594771055 -62.33799661426829 -6.5182846280185265 0 0 0
6516 1 2.1126660481357065 -60.304813591128394 -4.02998620692254 0 0 0
6517 1 2.1126660482301722 -60.30481359107108 -6.518286206849844 0 0 0
6563 1 1.3964658411337543 -58.271597847710666 -5.27413659239822 0 0 0
6441 1 6.417501618584753 -60.30480908299897 -4.0299858890265865 0 0 0
6455 1 6.417501618560547 -60.30480908302984 -6.518285889094273 0 0 0
6515 1 4.265084166596997 -60.30481250180427 -5.2741361011668815 0 0 0
6521 1 3.548884364851196 -58.27159725158411 -4.029986417031593 0 0 0
6531 1 3.548884364679912 -58.27159725178507 -6.518286417197654 0 0 0
6532 1 5.701302143756543 -58.271593882717305 -5.274136096442847 0 0 0
6456 1 8.569918332277345 -60.304803736612904 -5.274135592623105 0 0 0
6458 1 7.853719083359791 -58.27158815895348 -4.029985667347368 0 0 0
6459 1 7.8537190834227335 -58.2715881588686 -6.518285667341721 0 0 0
6363 1 12.874749600658982 -60.304789654229225 -5.274134903047087 0 0 0
6364 1 10.722334306263114 -60.30479702866527 -4.029985251333739 0 0 0
6365 1 10.722334306363695 -60.304797028517484 -6.518285251193073 0 0 0
6369 1 12.158550427304775 -58.27157220184186 -4.029984698860123 0 0 0
6379 1 12.158550427177 -58.271572202091896 -6.518284698829151 0 0 0
6457 1 10.006135162367402 -58.2715806812122 -5.27413518146388 0 0 0
6284 1 15.027164344887504 -60.304782406705975 -4.029984593428947 0 0 0
6294 1 15.02716434479573 -60.30478240684801 -6.51828459337458 0 0 0
6380 1 14.310965002434376 -58.271563594856 -5.274134278504779 0 0 0
6233 1 19.331993041474234 -60.304771594025645 -4.029984229438346 0 0 0
6234 1 19.33199304159871 -60.304771593839035 -6.518284229540468 0 0 0
6295 1 17.179578739268624 -60.30477612053709 -5.274134360820941 0 0 0
6296 1 18.615792972122854 -58.27154986044385 -5.274133815257198 0 0 0
6297 1 16.46337908946593 -58.27155582672693 -4.029983973623655 0 0 0
6298 1 16.46337908947625 -58.27155582659272 -6.518283973782569 0 0 0
6567 1 0.6802655562477872 -56.23838251263143 -4.029987124203879 0 0 0
6573 1 0.6802655562119124 -56.23838251272514 -6.518287124252546 0 0 0
6574 1 2.8326845651158306 -56.2383825966981 -5.274136838516674 0 0 0
6534 1 4.985102745164665 -56.23837939710209 -4.02998635793329 0 0 0
6535 1 4.985102745257871 -56.238379396948105 -6.518286357839705 0 0 0
6463 1 9.28993621442833 -56.23836510225053 -4.029985051361699 0 0 0
6469 1 9.289936214374153 -56.2383651023893 -6.518285051278016 0 0 0
6533 1 7.137519974939996 -56.238373353866635 -5.274135737936633 0 0 0
6470 1 11.442351490374579 -56.23835544241828 -5.274134384566878 0 0 0
6381 1 15.747179689871848 -56.23833584685795 -5.27413341865903 0 0 0
6382 1 13.594765914987278 -56.238345328240435 -4.029983817717618 0 0 0
6383 1 13.594765915135115 -56.23834532816506 -6.518283817714578 0 0 0
6301 1 17.899593113666878 -56.23832814779515 -4.02998323319109 0 0 0
6304 1 17.899593113532497 -56.238328147905534 -6.518283233076721 0 0 0
6187 1 2.825049080161977 -68.43768075700909 -2.785835461159753 0 0 0
6188 1 0.6726313506529421 -68.43767990800647 -1.5416854051593945 0 0 0
6190 1 2.8250490801292094 -68.43768075692279 -0.2975354611068094 0 0 0
6399 1 2.1088487544783665 -66.40446329959337 -1.541685558457986 0 0 0
6161 1 4.977466532178882 -68.43768022896492 -1.541685484548375 0 0 0
6320 1 6.413683706699541 -66.40446129740268 -1.541685568762248 0 0 0
6397 1 4.261266431943695 -66.4044630692249 -0.29753558542693154 0 0 0
6414 1 4.261266431887212 -66.4044630693128 -2.7858355853091723 0 0 0
6104 1 9.28230031109745 -68.43767552595016 -1.5416854413243415 0 0 0
6159 1 7.129883623908712 -68.43767841301428 -0.29753547866188385 0 0 0
6168 1 7.12988362396106 -68.43767841296236 -2.7858354785737323 0 0 0
6319 1 8.566100519017741 -66.40445820807975 -2.7858355115984947 0 0 0
6322 1 8.5661005190135 -66.40445820817595 -0.29753551155005303 0 0 0
6103 1 11.434716591437105 -68.43767189905554 -2.7858353768785586 0 0 0
6106 1 11.434716591352842 -68.43767189903258 -0.29753537687613524 0 0 0
6241 1 12.87093274466881 -66.40444956816373 -0.2975352984207146 0 0 0
6243 1 10.718516854204841 -66.40445414921376 -1.5416854169656504 0 0 0
6258 1 12.870932744683456 -66.40444956813275 -2.7858352983347747 0 0 0
6015 1 15.739548133133994 -68.43766407965236 -0.297535202694949 0 0 0
6017 1 13.587132504814491 -68.4376679336525 -1.5416852941026078 0 0 0
6024 1 15.739548133161787 -68.43766407967229 -2.7858352026697 0 0 0
6211 1 15.023348271655856 -66.4044449767187 -1.5416851690019773 0 0 0
5938 1 17.891963592522554 -68.43766079117447 -1.5416851137047198 0 0 0
6196 1 19.328178767619473 -66.4044378512943 -1.5416849438119424 0 0 0
6210 1 17.175763559767677 -66.40444090410547 -2.7858350463521715 0 0 0
6213 1 17.175763559685183 -66.40444090417282 -0.2975350464044898 0 0 0
6481 1 1.3926483787769441 -64.37124604780212 -0.29753569702072385 0 0 0
6494 1 1.3926483788092299 -64.371246047772 -2.7858356970153073 0 0 0
6495 1 2.8288662037123316 -62.33802972275531 -2.785835927684567 0 0 0
6496 1 0.6764479354463039 -62.338028998436805 -1.5416858997093148 0 0 0
6498 1 2.8288662037453585 -62.33802972268654 -0.29753592758959635 0 0 0
6415 1 5.697483829236083 -64.37124457400515 -2.785835695080092 0 0 0
6416 1 3.5450663258126665 -64.37124622428202 -1.5416857265617931 0 0 0
6418 1 5.697483829302673 -64.37124457399064 -0.2975356949545005 0 0 0
6421 1 4.981283985430374 -62.3380282925599 -1.5416858676638647 0 0 0
6325 1 7.8499008055487405 -64.37124131712406 -1.5416856054268064 0 0 0
6344 1 9.286117716228574 -62.33801998797483 -1.5416855248219123 0 0 0
6419 1 7.1337011725867425 -62.33802491931167 -0.29753572870144696 0 0 0
6438 1 7.133701172579455 -62.338024919336696 -2.7858357285189603 0 0 0
6260 1 12.154733114667764 -64.37123157240471 -1.5416852972283415 0 0 0
6323 1 10.002317226325664 -64.3712368199336 -0.29753546758404936 0 0 0
6342 1 10.002317226304068 -64.37123681987933 -2.7858354674442722 0 0 0
6343 1 11.438533629392964 -62.338014028176126 -2.7858352836791367 0 0 0
6346 1 11.438533629332195 -62.33801402819719 -0.29753528367507187 0 0 0
6259 1 14.307148547207289 -64.37122614701133 -2.78583511711162 0 0 0
6262 1 14.307148547172533 -64.37122614704381 -0.297535117091129 0 0 0
6263 1 15.743363908820424 -62.338001630595436 -0.2975348064938762 0 0 0
6265 1 13.590948982907065 -62.338007673614726 -1.5416850350304347 0 0 0
6281 1 15.743363908775018 -62.338001630668 -2.78583480632492 0 0 0
6214 1 18.611978614736877 -64.37121721367824 -0.2975348129143026 0 0 0
6216 1 16.459563655725457 -64.37122115993606 -1.541684949747104 0 0 0
6227 1 18.61197861469365 -64.3712172137098 -2.7858348128446893 0 0 0
6228 1 17.895778594716106 -62.337996614308096 -1.5416846279683851 0 0 0
6501 1 2.112666048197915 -60.304813591072346 -1.5416862068033022 0 0 0
6552 1 1.3964658411407183 -58.27159784766297 -0.2975365924423806 0 0 0
6564 1 1.3964658411600255 -58.271597847632705 -2.785836592305748 0 0 0
6440 1 6.417501618587862 -60.30480908311895 -1.541685889150866 0 0 0
6499 1 4.265084166630356 -60.30481250179761 -0.29753610114737145 0 0 0
6518 1 4.265084166639242 -60.30481250177034 -2.7858361010247465 0 0 0
6519 1 5.70130214373504 -58.27159388281051 -2.7858360964328748 0 0 0
6520 1 3.5488843647704447 -58.27159725166601 -1.5416864171213698 0 0 0
6522 1 5.701302143755143 -58.27159388278932 -0.2975360963978812 0 0 0
6439 1 8.569918332305033 -60.30480373659891 -2.785835592755912 0 0 0
6442 1 8.56991833234858 -60.30480373654647 -0.297535592602577 0 0 0
6445 1 7.8537190834589214 -58.271588158827036 -1.5416856673201744 0 0 0
6347 1 12.874749600698387 -60.304789654226276 -0.2975349030429384 0 0 0
6349 1 10.72233430633254 -60.30479702853549 -1.541685251285001 0 0 0
6366 1 12.874749600619058 -60.304789654189754 -2.785834902902799 0 0 0
6368 1 12.158550427241689 -58.271572202008464 -1.541684698817893 0 0 0
6443 1 10.00613516239356 -58.27158068119202 -0.29753518150714015 0 0 0
6460 1 10.006135162314543 -58.27158068114831 -2.785835181367407 0 0 0
6283 1 15.027164344805804 -60.30478240685741 -1.5416845934064254 0 0 0
6367 1 14.310965002431152 -58.271563594882274 -2.7858342786285575 0 0 0
6370 1 14.310965002448896 -58.27156359490366 -0.29753427847783326 0 0 0
6231 1 19.33199304158714 -60.304771593835426 -1.5416842295942843 0 0 0
6282 1 17.17957873929083 -60.30477612048367 -2.785834360886508 0 0 0
6285 1 17.179578739221625 -60.30477612056871 -0.2975343607439129 0 0 0
6286 1 18.615792972096454 -58.27154986043757 -0.29753381521080696 0 0 0
6288 1 16.463379089564707 -58.27155582657544 -1.5416839737402166 0 0 0
6299 1 18.615792972037333 -58.2715498605274 -2.7858338150700326 0 0 0
6565 1 2.8326845650511645 -56.23838259668786 -2.7858368385470804 0 0 0
6566 1 0.6802655561567632 -56.23838251267074 -1.541687124279249 0 0 0
6568 1 2.832684565091618 -56.238382596606954 -0.29753683846790296 0 0 0
6525 1 4.985102745307896 -56.23837939697406 -1.541686357728894 0 0 0
6462 1 9.289936214311375 -56.23836510237303 -1.5416850512745615 0 0 0
6523 1 7.137519974902473 -56.2383733538789 -0.29753573793494653 0 0 0
6536 1 7.137519974919627 -56.23837335388085 -2.7858357377364666 0 0 0
6461 1 11.442351490363205 -56.23835544242999 -2.785834384835893 0 0 0
6464 1 11.442351490355966 -56.23835544249205 -0.2975343846039297 0 0 0
6371 1 15.747179689869448 -56.23833584693225 -0.2975334187143396 0 0 0
6373 1 13.594765915139382 -56.238345328215544 -1.5416838176971164 0 0 0
6384 1 15.747179689832352 -56.23833584697704 -2.7858334184911984 0 0 0
6300 1 17.89959311355766 -56.238328147943335 -1.5416832330567602 0 0 0
6180 1 2.8250490801627928 -68.4376807569798 2.1907645388055697 0 0 0
6181 1 0.672631350654581 -68.43767990801886 3.4349145948701687 0 0 0
6182 1 0.672631350713786 -68.4376799080063 0.9466145948758937 0 0 0
6393 1 2.1088487545577554 -66.40446329962542 3.434914441503788 0 0 0
6398 1 2.108848754502923 -66.40446329955822 0.9466144414972443 0 0 0
6147 1 4.977466532156224 -68.43768022900126 3.434914515367547 0 0 0
6160 1 4.977466532141352 -68.4376802290528 0.9466145154005458 0 0 0
6310 1 6.413683706676998 -66.40446129736189 3.434914431127568 0 0 0
6311 1 6.41368370670222 -66.4044612973264 0.9466144312473281 0 0 0
6400 1 4.261266431902138 -66.40446306927974 2.1907644146669987 0 0 0
6094 1 9.282300311061793 -68.43767552594741 3.434914558574458 0 0 0
6095 1 9.282300311157742 -68.43767552592477 0.9466145585872772 0 0 0
6162 1 7.129883623848631 -68.43767841302322 2.190764521383799 0 0 0
6309 1 8.566100518995599 -66.40445820817025 2.190764488344254 0 0 0
6093 1 11.434716591390728 -68.43767189899494 2.19076462304625 0 0 0
6237 1 10.71851685421288 -66.40445414926272 3.4349145829076053 0 0 0
6242 1 10.71851685416107 -66.40445414926862 0.9466145829858846 0 0 0
6244 1 12.870932744604929 -66.40444956818186 2.190764701709108 0 0 0
6003 1 13.587132504832914 -68.4376679336897 3.4349147058133127 0 0 0
6016 1 13.587132504837074 -68.4376679336904 0.9466147058144311 0 0 0
6018 1 15.739548133179206 -68.43766407966278 2.1907647973366524 0 0 0
6202 1 15.02334827173441 -66.40444497673072 3.434914830879271 0 0 0
6203 1 15.023348271717902 -66.40444497672756 0.9466148309052335 0 0 0
5930 1 17.89196359253502 -68.43766079111235 3.43491488629025 0 0 0
5931 1 17.891963592614086 -68.43766079106345 0.9466148862122076 0 0 0
6194 1 19.328178767618205 -66.4044378512849 3.434915056138462 0 0 0
6195 1 19.328178767623655 -66.40443785133027 0.9466150561681873 0 0 0
6201 1 17.175763559720576 -66.40444090409311 2.1907649536738263 0 0 0
6482 1 1.3926483788283222 -64.37124604770105 2.190764303028514 0 0 0
6483 1 2.828866203689253 -62.33802972271897 2.190764072343339 0 0 0
6484 1 0.6764479354757722 -62.33802899844234 3.4349141002312455 0 0 0
6485 1 0.6764479355213013 -62.33802899836865 0.9466141003662701 0 0 0
6401 1 5.697483829284796 -64.3712445739659 2.190764304973704 0 0 0
6402 1 3.5450663257614194 -64.37124622425954 3.43491427339551 0 0 0
6403 1 3.545066325777583 -64.37124622417949 0.946614273460237 0 0 0
6407 1 4.981283985429339 -62.33802829248894 3.434914132228135 0 0 0
6420 1 4.981283985423707 -62.338028292544195 0.9466141322948498 0 0 0
6315 1 7.849900805538739 -64.37124131708518 3.4349143945364786 0 0 0
6324 1 7.8499008054635135 -64.37124131721814 0.9466143945432669 0 0 0
6328 1 9.286117716264675 -62.33801998796488 3.434914475168549 0 0 0
6329 1 9.28611771635843 -62.33801998788192 0.9466144751930929 0 0 0
6422 1 7.133701172577037 -62.33802491929733 2.190764271491196 0 0 0
6246 1 12.15473311466747 -64.37123157241602 3.4349147028315237 0 0 0
6247 1 12.154733114674546 -64.3712315724218 0.9466147028134442 0 0 0
6326 1 10.002317226373497 -64.37123681997423 2.190764532645849 0 0 0
6327 1 11.438533629376444 -62.33801402820052 2.1907647163685016 0 0 0
6245 1 14.307148547197485 -64.37122614706229 2.190764882895109 0 0 0
6251 1 13.590948982836172 -62.3380076736784 3.4349149649776387 0 0 0
6264 1 13.590948982849278 -62.33800767371879 0.9466149649794157 0 0 0
6266 1 15.743363908813217 -62.338001630636896 2.1907651936689345 0 0 0
6207 1 16.459563655680505 -64.3712211600515 3.4349150502463925 0 0 0
6215 1 16.45956365562365 -64.37122116006995 0.9466150502912506 0 0 0
6217 1 18.611978614755134 -64.37121721372941 2.190765187169307 0 0 0
6218 1 17.89577859467977 -62.337996614357586 3.434915372027151 0 0 0
6219 1 17.89577859483355 -62.3379966141863 0.9466153718851246 0 0 0
6489 1 2.1126660481885433 -60.3048135910745 3.4349137931518023 0 0 0
6500 1 2.112666048171553 -60.30481359115569 0.9466137930867224 0 0 0
6553 1 1.3964658412020516 -58.2715978476249 2.1907634077349667 0 0 0
6424 1 6.417501618499003 -60.304809083099016 3.434914110906559 0 0 0
6425 1 6.41750161863036 -60.30480908293764 0.9466141109485179 0 0 0
6502 1 4.265084166629721 -60.30481250174 2.190763898970697 0 0 0
6503 1 5.701302143713165 -58.27159388276409 2.1907639034883672 0 0 0
6504 1 3.54888436475537 -58.27159725168275 3.4349135828899775 0 0 0
6505 1 3.54888436475428 -58.27159725167826 0.9466135829160357 0 0 0
6423 1 8.569918332274662 -60.304803736626894 2.1907644072708212 0 0 0
6429 1 7.853719083461544 -58.2715881588207 3.434914332688018 0 0 0
6444 1 7.853719083338154 -58.27158815898555 0.9466143326349024 0 0 0
6333 1 10.722334306343331 -60.30479702856215 3.4349147486460048 0 0 0
6348 1 10.72233430628239 -60.30479702862453 0.9466147487863747 0 0 0
6350 1 12.874749600650345 -60.30478965426199 2.190765097141916 0 0 0
6352 1 12.158550427218918 -58.27157220199476 3.4349153011755 0 0 0
6353 1 12.15855042727547 -58.27157220196746 0.9466153011931614 0 0 0
6446 1 10.006135162397992 -58.271580681216314 2.19076481871424 0 0 0
6268 1 15.027164344800003 -60.30478240684407 3.434915406602023 0 0 0
6269 1 15.027164344863472 -60.30478240673783 0.9466154065832548 0 0 0
6351 1 14.310965002460705 -58.27156359482591 2.190765721371309 0 0 0
6221 1 19.33199304156146 -60.30477159393535 3.4349157704401505 0 0 0
6230 1 19.331993041554515 -60.30477159394183 0.9466157705155841 0 0 0
6267 1 17.179578739319844 -60.3047761205035 2.190765639087657 0 0 0
6273 1 16.463379089526843 -58.271555826608925 3.434916026246072 0 0 0
6287 1 16.46337908938952 -58.27155582672349 0.9466160262585727 0 0 0
6289 1 18.61579297204875 -58.27154986055561 2.190766184914199 0 0 0
6554 1 2.832684565023241 -56.238382596775665 2.1907631613894543 0 0 0
6555 1 0.6802655561968797 -56.238382512694066 3.4349128756732545 0 0 0
6556 1 0.680265556254591 -56.23838251264081 0.946612875914718 0 0 0
6509 1 4.985102745241225 -56.23837939697057 3.434913642161482 0 0 0
6524 1 4.9851027451707886 -56.23837939706379 0.9466136420859809 0 0 0
6448 1 9.289936214340104 -56.23836510238216 3.4349149486252206 0 0 0
6449 1 9.28993621448126 -56.23836510225688 0.9466149487607123 0 0 0
6526 1 7.137519974965896 -56.238373353799346 2.190764262282258 0 0 0
6447 1 11.442351490391356 -56.238355442404604 2.1907656152790533 0 0 0
6357 1 13.594765915104782 -56.23834532810628 3.4349161822681435 0 0 0
6372 1 13.594765915035676 -56.238345328322005 0.9466161823383057 0 0 0
6374 1 15.747179689845382 -56.23833584689899 2.1907665815038877 0 0 0
6290 1 17.899593113559575 -56.238328147950526 3.4349167668749385 0 0 0
6291 1 17.899593113630836 -56.23832814777219 0.9466167668005443 0 0 0
6174 1 2.8250490801284425 -68.43768075695587 7.1673645388117695 0 0 0
6175 1 0.6726313507037713 -68.43767990797127 5.923214594868828 0 0 0
6183 1 2.8250490801928603 -68.43768075694823 4.679064538858724 0 0 0
6392 1 2.1088487544888137 -66.40446329963915 5.9232144414895505 0 0 0
6146 1 4.9774665321551215 -68.43768022900663 5.923214515481161 0 0 0
6308 1 6.413683706726963 -66.40446129738211 5.92321443126563 0 0 0
6391 1 4.261266431881303 -66.4044630693615 4.679064414620019 0 0 0
6394 1 4.261266431979506 -66.40446306920894 7.1673644146605255 0 0 0
6078 1 9.282300311102972 -68.43767552590286 5.923214558678737 0 0 0
6145 1 7.129883623924302 -68.43767841298104 4.679064521400983 0 0 0
6148 1 7.129883623918 -68.43767841299963 7.167364521357568 0 0 0
6307 1 8.566100519001754 -66.4044582081805 7.167364488392465 0 0 0
6312 1 8.566100518995446 -66.40445820807527 4.679064488447109 0 0 0
6077 1 11.434716591339809 -68.43767189901955 7.167364623045999 0 0 0
6096 1 11.434716591444769 -68.43767189903886 4.679064623143118 0 0 0
6235 1 12.870932744671917 -66.40444956814213 4.679064701592962 0 0 0
6236 1 10.7185168541662 -66.40445414925415 5.923214583049562 0 0 0
6238 1 12.870932744682307 -66.40444956818712 7.167364701598202 0 0 0
6001 1 15.73954813321497 -68.43766407965752 4.67906479729843 0 0 0
6002 1 13.587132504835873 -68.43766793368339 5.923214705919211 0 0 0
6004 1 15.739548133134432 -68.43766407965872 7.167364797301641 0 0 0
6200 1 15.0233482716993 -66.40444497668155 5.923214830989651 0 0 0
5915 1 17.891963592546055 -68.43766079114836 5.923214886277418 0 0 0
6193 1 19.32817876757186 -66.40443785132314 5.923215056258342 0 0 0
6199 1 17.175763559703974 -66.40444090412701 7.167364953549849 0 0 0
6204 1 17.175763559754973 -66.40444090413064 4.679064953687057 0 0 0
6476 1 1.3926483787923807 -64.37124604783003 4.679064302934177 0 0 0
6477 1 1.392648378825256 -64.37124604774824 7.167364303005073 0 0 0
6478 1 2.828866203737169 -62.33802972275428 7.167364072295679 0 0 0
6479 1 0.6764479355082431 -62.33802899834293 5.923214100410802 0 0 0
6486 1 2.8288662038040893 -62.33802972270343 4.679064072391153 0 0 0
6395 1 5.697483829323083 -64.37124457403874 7.167364304949435 0 0 0
6396 1 3.545066325907956 -64.37124622423802 5.923214273516798 0 0 0
6404 1 5.697483829292819 -64.37124457402929 4.67906430500692 0 0 0
6406 1 4.981283985408918 -62.33802829267316 5.923214132312871 0 0 0
6314 1 7.8499008055185735 -64.37124131720375 5.923214394580058 0 0 0
6318 1 9.286117716319284 -62.338019987889275 5.92321447521235 0 0 0
6405 1 7.133701172594026 -62.3380249193599 4.679064271378959 0 0 0
6408 1 7.133701172601203 -62.33802491929859 7.167364271392284 0 0 0
6240 1 12.154733114716283 -64.3712315723429 5.923214702794197 0 0 0
6313 1 10.002317226318963 -64.37123681990974 4.679064532441282 0 0 0
6316 1 10.002317226316336 -64.37123681993535 7.16736453248859 0 0 0
6317 1 11.438533629349173 -62.33801402819674 7.167364716191634 0 0 0
6330 1 11.438533629392113 -62.338014028184894 4.679064716436174 0 0 0
6239 1 14.307148547189502 -64.37122614701953 7.167364882810102 0 0 0
6248 1 14.30714854717976 -64.3712261470892 4.679064882981535 0 0 0
6249 1 15.743363908810624 -62.33800163065142 4.67906519354572 0 0 0
6250 1 13.59094898284348 -62.33800767375432 5.923214965014018 0 0 0
6252 1 15.743363908802545 -62.33800163067181 7.167365193555994 0 0 0
6205 1 18.611978614717426 -64.37121721366312 4.679065187104341 0 0 0
6206 1 16.459563655685244 -64.37122115999873 5.923215050321077 0 0 0
6208 1 18.61197861472646 -64.37121721370146 7.167365187145473 0 0 0
6209 1 17.895778594807563 -62.33799661423126 5.923215371976885 0 0 0
6488 1 2.112666048135516 -60.30481359116672 5.923213793116847 0 0 0
6546 1 1.3964658410760682 -58.27159784776848 4.679063407578622 0 0 0
6547 1 1.3964658412079995 -58.271597847586264 7.167363407646959 0 0 0
6410 1 6.41750161864496 -60.304809083027365 5.923214110939608 0 0 0
6487 1 4.26508416660199 -60.30481250184122 4.679063898870294 0 0 0
6490 1 4.265084166665451 -60.30481250173021 7.167363898950831 0 0 0
6491 1 5.701302143718625 -58.2715938828238 7.167363903419101 0 0 0
6492 1 3.5488843648230888 -58.27159725157661 5.92321358299393 0 0 0
6506 1 5.701302143789097 -58.27159388275591 4.679063903725282 0 0 0
6409 1 8.569918332343896 -60.30480373656561 7.167364407237549 0 0 0
6426 1 8.569918332321468 -60.30480373657802 4.679064407384217 0 0 0
6428 1 7.853719083400927 -58.271588158957904 5.923214332651923 0 0 0
6331 1 12.874749600643671 -60.30478965420968 4.679065096965725 0 0 0
6332 1 10.722334306259455 -60.304797028670336 5.923214748755828 0 0 0
6334 1 12.874749600706496 -60.30478965426417 7.167365097048219 0 0 0
6336 1 12.158550427341948 -58.27157220190731 5.923215301170088 0 0 0
6427 1 10.006135162328375 -58.271580681154454 4.679064818480364 0 0 0
6430 1 10.00613516241609 -58.27158068119584 7.167364818645938 0 0 0
6254 1 15.027164344881868 -60.304782406785144 5.9232154065637825 0 0 0
6335 1 14.310965002479575 -58.27156359487821 7.167365721319736 0 0 0
6354 1 14.310965002415541 -58.27156359492015 4.679065721536457 0 0 0
6220 1 19.331993041522907 -60.30477159394186 5.923215770524369 0 0 0
6253 1 17.179578739277602 -60.30477612051081 7.167365639068297 0 0 0
6270 1 17.179578739248647 -60.30477612054153 4.6790656392344525 0 0 0
6271 1 18.615792972076747 -58.271549860451415 4.679066184785226 0 0 0
6272 1 16.46337908943846 -58.27155582670976 5.923216026332801 0 0 0
6274 1 18.615792972028494 -58.27154986050472 7.167366184924271 0 0 0
6548 1 2.8326845650307035 -56.23838259669134 7.16736316139952 0 0 0
6549 1 0.680265556216091 -56.238382512619346 5.923212875876904 0 0 0
6557 1 2.832684565101688 -56.23838259656545 4.679063161560956 0 0 0
6508 1 4.985102745212319 -56.23837939705755 5.923213642153358 0 0 0
6432 1 9.28993621444337 -56.23836510223378 5.923214948726532 0 0 0
6507 1 7.137519974905202 -56.2383733539042 4.679064262098431 0 0 0
6510 1 7.137519974925987 -56.238373353830795 7.1673642621946225 0 0 0
6431 1 11.44235149036495 -56.23835544247839 7.1673656151731056 0 0 0
6450 1 11.44235149038394 -56.23835544242289 4.679065615350413 0 0 0
6355 1 15.74717968986531 -56.2383358469456 4.67906658130032 0 0 0
6356 1 13.59476591503758 -56.23834532835679 5.923216182320021 0 0 0
6358 1 15.747179689825439 -56.23833584697634 7.167366581460936 0 0 0
6275 1 17.899593113640403 -56.23832814781135 5.923216766862395 0 0 0
6576 1 2.116484747785964 -54.20516859170016 -4.029987400439024 0 0 0
6577 1 2.1164847478861484 -54.20516859158837 -6.5182874002454545 0 0 0
6826 1 1.4002848958537386 -52.17195529255913 -5.274138142992109 0 0 0
6539 1 6.421321009713322 -54.205159429412 -4.029985789320387 0 0 0
6541 1 6.421321009669317 -54.20515942948704 -6.518285789438399 0 0 0
6575 1 4.268903412292252 -54.20516570889374 -5.274136683456986 0 0 0
6752 1 3.5527041403626565 -52.171952908073195 -4.02998708213481 0 0 0
6768 1 3.5527041402131596 -52.17195290817545 -6.518287082346496 0 0 0
6769 1 5.705122187885125 -52.171946495528054 -5.274135797786755 0 0 0
6542 1 8.57373747374404 -54.20515042007679 -5.274134823715083 0 0 0
6687 1 7.85753895466698 -52.171936769975616 -4.029984442300238 0 0 0
6688 1 7.857538954798956 -52.17193676986609 -6.518284442263242 0 0 0
6471 1 12.87856712152341 -54.20512775840782 -5.27413314109901 0 0 0
6472 1 10.726152814353009 -54.205139524085936 -4.029983903343391 0 0 0
6473 1 10.726152814520162 -54.20513952389702 -6.518283903347607 0 0 0
6620 1 12.162368664510332 -52.17191106496616 -4.029982153135261 0 0 0
6635 1 12.162368664439045 -52.17191106518886 -6.518282153091451 0 0 0
6686 1 10.009954425768692 -52.17192460531005 -5.274133176192077 0 0 0
6387 1 15.030980587665956 -54.205116329115235 -4.029982624756965 0 0 0
6389 1 15.030980587531912 -54.205116329193544 -6.518282624643553 0 0 0
6636 1 14.31478184100809 -52.1718974521395 -5.274131498451926 0 0 0
6305 1 19.335806344151084 -54.20509980702694 -4.029982552332415 0 0 0
6306 1 19.335806344277238 -54.20509980687944 -6.518282552396358 0 0 0
6390 1 17.183393520204703 -54.20510657016815 -5.274132419224492 0 0 0
6595 1 18.619606375478337 -52.17187616175967 -5.274131554098631 0 0 0
6596 1 16.467194260791235 -52.171885283159256 -4.029981289728126 0 0 0
6597 1 16.46719426079901 -52.17188528296455 -6.518281289848527 0 0 0
6830 1 0.6840849804344916 -50.138742763802234 -4.029989117591031 0 0 0
6846 1 0.6840849804084289 -50.13874276387188 -6.518289117733356 0 0 0
6847 1 2.836504915974245 -50.13874108923368 -5.2741375593093895 0 0 0
6849 1 2.1203057260862708 -48.10553035634066 -4.029988105376299 0 0 0
6850 1 2.1203057261075315 -48.10553035622931 -6.51828810511368 0 0 0
6771 1 4.988923510010655 -50.138734671015754 -4.029985721604969 0 0 0
6772 1 4.988923510145596 -50.13873467095084 -6.5182857213304874 0 0 0
6776 1 6.425142609733578 -48.10551313765358 -4.029982829777676 0 0 0
6790 1 6.425142609667798 -48.10551313769895 -6.5182828298939395 0 0 0
6848 1 4.272724970934495 -48.10552407760164 -5.274135484130989 0 0 0
6692 1 9.293756344044736 -50.1387108581428 -4.029982084950368 0 0 0
6708 1 9.293756343929903 -50.1387108582522 -6.518282084917242 0 0 0
6770 1 7.141340663070294 -50.13872429304215 -5.274133820373255 0 0 0
6791 1 8.577558588885095 -48.105498462725606 -5.274130461585724 0 0 0
6709 1 11.446170579972346 -50.138695448788006 -5.274130723892926 0 0 0
6710 1 12.882385641303303 -48.10546251849274 -5.274127643814496 0 0 0
6711 1 10.72997290443409 -48.10548112771507 -4.029978659619251 0 0 0
6712 1 10.729972904536359 -48.10548112753782 -6.518278659518457 0 0 0
6637 1 15.750995407823915 -50.13866448514853 -5.274129720362447 0 0 0
6638 1 13.598583507276974 -50.13867943318389 -4.029979902430084 0 0 0
6639 1 13.598583507395691 -50.13867943305762 -6.5182799023979126 0 0 0
6643 1 15.034797042723993 -48.10544443264999 -4.029977542271055 0 0 0
6653 1 15.034797042555493 -48.10544443281082 -6.518277542263148 0 0 0
6600 1 17.90340675075014 -50.13865250485437 -4.029980199631558 0 0 0
6603 1 17.903406750627624 -50.13865250499724 -6.518280199507316 0 0 0
6604 1 19.339617912491004 -48.105418701941375 -4.029980023975354 0 0 0
6605 1 19.33961791251774 -48.10541870177205 -6.518280024078108 0 0 0
6654 1 17.18720756314528 -48.105429041859225 -5.274128366649918 0 0 0
6896 1 1.4041065544886118 -46.07232083043936 -5.274138691071152 0 0 0
6854 1 3.556526566627952 -46.07231484715676 -4.0299849702058275 0 0 0
6864 1 3.556526566521249 -46.072314847189766 -6.518284970352311 0 0 0
6865 1 5.708944792377818 -46.072303448666865 -5.274131277221164 0 0 0
6793 1 7.861361176361519 -46.072287603310535 -4.0299780542048556 0 0 0
6794 1 7.8613611763751186 -46.07228760319132 -6.518278054233012 0 0 0
6716 1 12.166188305881391 -46.07224699399698 -4.029974455995813 0 0 0
6726 1 12.166188305792186 -46.072246994137615 -6.518274456038808 0 0 0
6792 1 10.013775671145785 -46.072268334043116 -5.274125684094669 0 0 0
6727 1 14.318599254156403 -46.07222543246237 -5.274124528373731 0 0 0
6655 1 18.623418059918148 -46.07219171195536 -5.274128393557376 0 0 0
6656 1 16.47100892836779 -46.07220605618144 -4.029975894352866 0 0 0
6657 1 16.471008928371553 -46.07220605614863 -6.5182758944356065 0 0 0
6900 1 0.6879073994100904 -44.03911265741671 -4.029989257895386 0 0 0
6906 1 0.6879073993296454 -44.03911265738655 -6.518289257988747 0 0 0
6907 1 2.8403283008186286 -44.03910711395408 -5.2741339911258045 0 0 0
6909 1 2.124130187812127 -42.00590103671166 -4.029982260124688 0 0 0
6910 1 2.124130187788205 -42.00590103668267 -6.518282259962524 0 0 0
6867 1 4.992747216673491 -44.039095371216035 -4.029978870013542 0 0 0
6868 1 4.992747216790399 -44.039095371204645 -6.518278869875853 0 0 0
6872 1 6.428967424602608 -42.00587119692844 -4.029969294337224 0 0 0
6874 1 6.42896742448995 -42.005871196953684 -6.518269294376772 0 0 0
6908 1 4.276549899591108 -42.00588903953594 -5.274125185199562 0 0 0
6798 1 9.297578908728696 -44.03905730765176 -4.029971408729619 0 0 0
6804 1 9.297578908600432 -44.03905730770526 -6.518271408852123 0 0 0
6866 1 7.145164114541848 -44.03907845778279 -5.274124500494398 0 0 0
6875 1 8.581382645831502 -42.005848282986555 -5.274115294492727 0 0 0
6805 1 11.449991552089198 -44.03903316557896 -5.274119971339723 0 0 0
6806 1 12.886205780435407 -42.00579211706117 -5.274114662924876 0 0 0
6807 1 10.733795438150832 -42.005821359422214 -4.02996368136669 0 0 0
6808 1 10.733795438237852 -42.005821359353796 -6.5182636811764665 0 0 0
6728 1 15.754810976686146 -44.03898391936773 -5.2741225750784215 0 0 0
6729 1 13.602402135002798 -44.03900785368738 -4.029970373305929 0 0 0
6730 1 13.602402135119254 -44.039007853631155 -6.518270373313536 0 0 0
6734 1 15.038613857671601 -42.00576310679495 -4.02996814410513 0 0 0
6736 1 15.038613857616081 -42.00576310690519 -6.518268144142352 0 0 0
6660 1 17.9072187843062 -44.03896467693629 -4.029976319295764 0 0 0
6663 1 17.907218784215857 -44.03896467707657 -6.518276319299754 0 0 0
6664 1 19.343426256658383 -42.00572140270327 -4.029980718675732 0 0 0
6665 1 19.343426256748113 -42.00572140261675 -6.518280718687487 0 0 0
6737 1 17.19102027109228 -42.0057380060731 -5.274123720505206 0 0 0
6571 1 2.1164847478571405 -54.20516859158111 -1.5416874002721523 0 0 0
6814 1 1.4002848958228151 -52.171955292488036 -0.2975381430157595 0 0 0
6827 1 1.4002848959055276 -52.17195529239348 -2.78583814291977 0 0 0
6538 1 6.421321009623746 -54.20515942956645 -1.5416857894288303 0 0 0
6569 1 4.268903412235267 -54.20516570886929 -0.29753668353829066 0 0 0
6578 1 4.268903412300074 -54.205165708777606 -2.785836683307712 0 0 0
6750 1 5.70512218787314 -52.17194649564007 -2.7858357978828163 0 0 0
6751 1 3.552704140280779 -52.171952908162496 -1.541687082298997 0 0 0
6753 1 5.705122187936449 -52.17194649559825 -0.2975357978399583 0 0 0
6537 1 8.573737473709745 -54.20515042015414 -2.785834823869219 0 0 0
6540 1 8.573737473686732 -54.20515042006921 -0.297534823630809 0 0 0
6674 1 7.857538954734627 -52.17193676989744 -1.5416844422331477 0 0 0
6465 1 12.878567121531391 -54.20512775836516 -0.2975331410065292 0 0 0
6467 1 10.726152814501793 -54.205139523900044 -1.5416839032873693 0 0 0
6474 1 12.87856712149023 -54.20512775835674 -2.78583314091856 0 0 0
6619 1 12.162368664379683 -52.17191106509358 -1.5416821531823366 0 0 0
6672 1 10.009954425856797 -52.17192460530743 -0.29753317610571384 0 0 0
6689 1 10.009954425832092 -52.17192460531911 -2.7858331759574915 0 0 0
6386 1 15.030980587508058 -54.2051163292814 -1.5416826245831037 0 0 0
6618 1 14.31478184102552 -52.171897452079904 -2.785831498650151 0 0 0
6621 1 14.314781841029243 -52.171897452140215 -0.29753149844335025 0 0 0
6303 1 19.335806344224938 -54.205099806917346 -1.5416825523991504 0 0 0
6385 1 17.18339352031723 -54.205106570081064 -2.785832419449703 0 0 0
6388 1 17.183393520222765 -54.20510657014076 -0.2975324191518131 0 0 0
6587 1 18.619606375515204 -52.17187616171906 -0.2975315540946981 0 0 0
6589 1 16.46719426077669 -52.17188528299014 -1.5416812898001155 0 0 0
6598 1 18.619606375478583 -52.171876161779984 -2.78583155390231 0 0 0
6828 1 2.8365049159354982 -50.13874108928489 -2.7858375594484377 0 0 0
6829 1 0.6840849804289642 -50.13874276384137 -1.5416891177035736 0 0 0
6831 1 2.8365049159781908 -50.13874108922007 -0.2975375593198508 0 0 0
6834 1 2.1203057260551623 -48.105530356261234 -1.5416881051976514 0 0 0
6756 1 4.988923510131041 -50.1387346708885 -1.5416857213640958 0 0 0
6775 1 6.4251426096456346 -48.10551313773238 -1.5416828298847045 0 0 0
6832 1 4.2727249709308435 -48.10552407763762 -0.2975354841396578 0 0 0
6851 1 4.27272497104536 -48.105524077437266 -2.7858354840652777 0 0 0
6691 1 9.293756343904723 -50.13871085830698 -1.541682084964527 0 0 0
6754 1 7.1413406630601415 -50.13872429305389 -0.2975338203665526 0 0 0
6773 1 7.14134066307106 -50.13872429303054 -2.7858338202526 0 0 0
6774 1 8.577558588832712 -48.10549846275494 -2.785830461696716 0 0 0
6777 1 8.577558588895837 -48.10549846270056 -0.29753046150870927 0 0 0
6690 1 11.446170579986616 -50.138695448696126 -2.785830724114735 0 0 0
6693 1 11.446170579954572 -50.13869544881083 -0.29753072389372365 0 0 0
6694 1 12.882385641276294 -48.10546251851798 -0.29752764378125673 0 0 0
6696 1 10.729972904512115 -48.10548112759594 -1.541678659475281 0 0 0
6713 1 12.882385641300003 -48.1054625184433 -2.785827643642946 0 0 0
6622 1 15.750995407822998 -50.138664485143856 -0.2975297203720353 0 0 0
6624 1 13.598583507393258 -50.13867943301739 -1.541679902420687 0 0 0
6640 1 15.750995407785714 -50.13866448520505 -2.785829720162306 0 0 0
6642 1 15.034797042585115 -48.105444432763264 -1.5416775422560205 0 0 0
6599 1 17.903406750619233 -50.138652505059284 -1.5416801995084597 0 0 0
6602 1 19.339617912622938 -48.10541870182246 -1.5416800240886541 0 0 0
6641 1 17.187207563202943 -48.105429041807945 -2.7858283668414763 0 0 0
6644 1 17.187207563165508 -48.10542904187647 -0.2975283666383096 0 0 0
6885 1 1.4041065544532765 -46.07232083042893 -0.29753869102800895 0 0 0
6897 1 1.4041065546060432 -46.07232083029927 -2.7858386909930344 0 0 0
6852 1 5.7089447923612475 -46.07230344870627 -2.7858312773286706 0 0 0
6853 1 3.5565265665803065 -46.07231484726381 -1.5416849703499023 0 0 0
6855 1 5.708944792444574 -46.07230344860326 -0.29753127720651423 0 0 0
6780 1 7.861361176478627 -46.07228760325267 -1.5416780541494024 0 0 0
6715 1 12.166188305776588 -46.072246994050566 -1.5416744560231272 0 0 0
6778 1 10.013775671182286 -46.07226833410066 -0.2975256840872275 0 0 0
6795 1 10.013775671222984 -46.07226833395347 -2.7858256839177487 0 0 0
6714 1 14.318599254052701 -46.072225432368775 -2.7858245285055223 0 0 0
6717 1 14.318599254145315 -46.072225432509335 -0.29752452833393594 0 0 0
6645 1 18.62341805995379 -46.072191711953636 -0.2975283935506054 0 0 0
6647 1 16.471008928348294 -46.072206056084525 -1.5416758944313274 0 0 0
6658 1 18.623418059950662 -46.07219171196346 -2.7858283933560024 0 0 0
6898 1 2.8403283006832245 -44.03910711401837 -2.7858339911997554 0 0 0
6899 1 0.6879073993523743 -44.0391126574175 -1.5416892580157946 0 0 0
6901 1 2.8403283007779336 -44.039107113966914 -0.2975339911303361 0 0 0
6904 1 2.124130187812462 -42.00590103670881 -1.5416822599692646 0 0 0
6858 1 4.992747216764688 -44.03909537118996 -1.5416788699080468 0 0 0
6871 1 6.428967424535816 -42.005871196898745 -1.5416692944047494 0 0 0
6902 1 4.276549899588505 -42.005889039532335 -0.2975251851075003 0 0 0
6911 1 4.276549899666634 -42.005889039440625 -2.785825185187359 0 0 0
6797 1 9.297578908711332 -44.03905730775909 -1.5416714088128258 0 0 0
6856 1 7.145164114615798 -44.039078457808856 -0.2975245004993479 0 0 0
6869 1 7.145164114605538 -44.039078457660096 -2.7858245003291784 0 0 0
6870 1 8.581382645851807 -42.00584828305583 -2.7858152945605132 0 0 0
6873 1 8.58138264582286 -42.00584828303227 -0.2975152944942919 0 0 0
6796 1 11.449991552069807 -44.03903316570513 -2.7858199715103447 0 0 0
6799 1 11.449991552102519 -44.039033165630464 -0.2975199713359891 0 0 0
6800 1 12.88620578049337 -42.00579211707093 -0.2975146629326988 0 0 0
6802 1 10.733795438242279 -42.0058213594394 -1.541663681246967 0 0 0
6809 1 12.886205780453064 -42.00579211705128 -2.7858146628107425 0 0 0
6718 1 15.754810976672417 -44.038983919368825 -0.29752257506273416 0 0 0
6720 1 13.602402135072126 -44.039007853556264 -1.5416703733116648 0 0 0
6731 1 15.754810976613209 -44.038983919352575 -2.78582257491025 0 0 0
6733 1 15.038613857625185 -42.00576310681372 -1.541668144112049 0 0 0
6659 1 17.90721878423946 -44.038964677067426 -1.5416763192885368 0 0 0
6662 1 19.343426256734716 -42.00572140266502 -1.5416807187016601 0 0 0
6732 1 17.19102027104162 -42.00573800603404 -2.7858237205716625 0 0 0
6735 1 17.19102027108202 -42.005738006097474 -0.29752372042719333 0 0 0
6560 1 2.1164847478710294 -54.20516859155877 3.4349125996725065 0 0 0
6570 1 2.116484747844237 -54.205168591664766 0.9466125995772785 0 0 0
6815 1 1.4002848959641518 -52.17195529242912 2.1907618570803447 0 0 0
6528 1 6.421321009622226 -54.20515942949234 3.434914210600558 0 0 0
6529 1 6.4213210097633455 -54.20515942935645 0.9466142106853419 0 0 0
6572 1 4.268903412358144 -54.20516570877922 2.1907633166930935 0 0 0
6740 1 5.7051221878404474 -52.171946495596124 2.190764202056285 0 0 0
6741 1 3.5527041403309703 -52.1719529081191 3.4349129176974764 0 0 0
6742 1 3.5527041403038866 -52.17195290807131 0.9466129177499113 0 0 0
6527 1 8.573737473726998 -54.2051504200986 2.1907651761602387 0 0 0
6668 1 7.8575389547951 -52.171936769820725 3.434915557789008 0 0 0
6673 1 7.857538954713049 -52.17193676999965 0.9466155576835814 0 0 0
6453 1 10.726152814461948 -54.20513952392463 3.4349160966890606 0 0 0
6466 1 10.726152814410218 -54.205139524042885 0.9466160966520488 0 0 0
6468 1 12.878567121540863 -54.205127758418136 2.1907668591224865 0 0 0
6609 1 12.162368664425282 -52.171911065093326 3.4349178468397352 0 0 0
6610 1 12.162368664549518 -52.171911065042806 0.9466178468701114 0 0 0
6675 1 10.009954425805024 -52.17192460527301 2.1907668240145424 0 0 0
6376 1 15.030980587579664 -54.20511632926294 3.4349173753058513 0 0 0
6377 1 15.030980587663091 -54.20511632904438 0.9466173752875282 0 0 0
6608 1 14.314781841045937 -52.17189745209958 2.1907685013411284 0 0 0
6293 1 19.33580634424573 -54.20509980690283 3.434917447570896 0 0 0
6302 1 19.335806344173776 -54.205099807017774 0.946617447721008 0 0 0
6375 1 17.183393520259155 -54.205106570096234 2.190767580615068 0 0 0
6584 1 16.46719426090124 -52.17188528298919 3.4349187102022887 0 0 0
6588 1 16.467194260696147 -52.171885283100956 0.946618710209304 0 0 0
6590 1 18.619606375448075 -52.171876161836174 2.190768446066839 0 0 0
6816 1 2.8365049158943116 -50.13874108934503 2.1907624405849657 0 0 0
6817 1 0.6840849803990329 -50.13874276387569 3.4349108822368497 0 0 0
6818 1 0.6840849804464371 -50.13874276380012 0.9466108824435403 0 0 0
6822 1 2.120305726103304 -48.105530356283104 3.4349118947711896 0 0 0
6833 1 2.120305726069013 -48.10553035630533 0.9466118946872464 0 0 0
6746 1 4.988923510099997 -50.13873467087745 3.434914278520499 0 0 0
6755 1 4.988923510070213 -50.13873467104148 0.9466142785276395 0 0 0
6759 1 6.425142609681635 -48.10551313773857 3.4349171701321453 0 0 0
6760 1 6.425142609762857 -48.10551313759558 0.9466171701955417 0 0 0
6835 1 4.272724970999676 -48.10552407749423 2.190764515962359 0 0 0
6677 1 9.293756343948049 -50.138710858277165 3.4349179150032945 0 0 0
6678 1 9.293756344022437 -50.13871085811835 0.946617915118169 0 0 0
6757 1 7.141340663123894 -50.13872429296269 2.1907661798110505 0 0 0
6758 1 8.57755858888262 -48.10549846279116 2.190769538309391 0 0 0
6676 1 11.4461705799705 -50.13869544879689 2.1907692759091213 0 0 0
6682 1 10.72997290455076 -48.10548112759823 3.434921340432477 0 0 0
6695 1 10.72997290444723 -48.105481127687476 0.9466213404077303 0 0 0
6697 1 12.882385641302916 -48.10546251849605 2.1907723563774484 0 0 0
6614 1 13.59858350738204 -50.138679433001975 3.434920097545188 0 0 0
6623 1 13.598583507276903 -50.138679433226734 0.9466200975735483 0 0 0
6625 1 15.750995407765378 -50.13866448515703 2.1907702798568773 0 0 0
6627 1 15.034797042600568 -48.10544443277041 3.434922457731573 0 0 0
6628 1 15.034797042644003 -48.10544443265824 0.9466224577042215 0 0 0
6591 1 17.9034067506231 -50.138652505031914 3.4349198004158814 0 0 0
6592 1 17.90340675072937 -50.138652504852224 0.9466198004062102 0 0 0
6594 1 19.339617912565675 -48.10541870179294 3.434919975919275 0 0 0
6601 1 19.339617912404368 -48.105418701897825 0.9466199760115384 0 0 0
6626 1 17.18720756316563 -48.1054290418493 2.19077163319662 0 0 0
6886 1 1.4041065545794515 -46.07232083032471 2.190761308999034 0 0 0
6836 1 5.7089447923370775 -46.07230344875357 2.190768722691973 0 0 0
6837 1 3.5565265665910517 -46.07231484722495 3.4349150296669584 0 0 0
6838 1 3.5565265665688175 -46.072314847128055 0.9466150297828236 0 0 0
6764 1 7.861361176448148 -46.072287603217646 3.434921945899609 0 0 0
6779 1 7.861361176326801 -46.07228760329051 0.9466219456612254 0 0 0
6699 1 12.166188305794918 -46.072246994104546 3.434925543938829 0 0 0
6700 1 12.166188305874169 -46.072246994020254 0.9466255439470241 0 0 0
6781 1 10.013775671215704 -46.072268333989406 2.190774316085616 0 0 0
6698 1 14.318599254162017 -46.072225432453024 2.1907754714806824 0 0 0
6632 1 16.471008928474063 -46.072206056049225 3.4349241056058024 0 0 0
6646 1 16.47100892828413 -46.07220605631375 0.9466241056274802 0 0 0
6648 1 18.623418059895084 -46.072191712026616 2.190771606628966 0 0 0
6887 1 2.840328300715171 -44.03910711407686 2.1907660088646552 0 0 0
6888 1 0.6879073993966095 -44.03911265744747 3.434910741936245 0 0 0
6889 1 0.6879073993298205 -44.03911265737756 0.9466107421514618 0 0 0
6893 1 2.1241301878383854 -42.00590103672612 3.4349177400454263 0 0 0
6903 1 2.124130187790612 -42.005901036704785 0.9466177399152076 0 0 0
6842 1 4.992747216706732 -44.03909537116588 3.4349211301069547 0 0 0
6857 1 4.992747216758836 -44.03909537125134 0.9466211299867832 0 0 0
6861 1 6.4289674245488575 -42.00587119698733 3.4349307055724747 0 0 0
6862 1 6.428967424530694 -42.00587119688994 0.9466307057110698 0 0 0
6905 1 4.276549899664054 -42.00588903945781 2.1907748148447377 0 0 0
6783 1 9.297578908644601 -44.03905730774809 3.4349285911856597 0 0 0
6784 1 9.297578908659908 -44.039057307615764 0.9466285912118128 0 0 0
6859 1 7.145164114599098 -44.03907845770309 2.1907754996215605 0 0 0
6860 1 8.5813826457923 -42.005848283041836 2.1907847054416463 0 0 0
6782 1 11.449991552065601 -44.03903316558775 2.1907800285489603 0 0 0
6788 1 10.73379543819427 -42.005821359344495 3.434936318686643 0 0 0
6801 1 10.733795438196465 -42.00582135941344 0.9466363187464968 0 0 0
6803 1 12.886205780463895 -42.00579211701846 2.1907853372064783 0 0 0
6704 1 13.602402135064617 -44.03900785358564 3.434929626708195 0 0 0
6719 1 13.602402135039844 -44.0390078537268 0.9466296266555783 0 0 0
6721 1 15.754810976646933 -44.03898391937351 2.1907774250774974 0 0 0
6723 1 15.038613857578595 -42.0057631068986 3.434931855891516 0 0 0
6724 1 15.038613857678959 -42.00576310680011 0.9466318558660779 0 0 0
6649 1 17.907218784193763 -44.03896467710431 3.4349236807288936 0 0 0
6650 1 17.907218784291114 -44.03896467697782 0.9466236806988411 0 0 0
6652 1 19.343426256692858 -42.0057214026123 3.4349192812833302 0 0 0
6661 1 19.343426256679795 -42.0057214027221 0.9466192813300859 0 0 0
6722 1 17.191020271097152 -42.00573800604424 2.1907762794062298 0 0 0
6559 1 2.116484747793725 -54.20516859163755 5.923212599615608 0 0 0
6810 1 1.4002848958566423 -52.171955292509665 4.679061856959177 0 0 0
6811 1 1.4002848959291583 -52.17195529236822 7.167361857073523 0 0 0
6512 1 6.421321009704275 -54.20515942937956 5.923214210655667 0 0 0
6558 1 4.268903412230873 -54.2051657088211 4.679063316551083 0 0 0
6561 1 4.268903412286149 -54.20516570875583 7.167363316615852 0 0 0
6738 1 5.705122187872636 -52.17194649566332 7.167364201987902 0 0 0
6739 1 3.552704140382841 -52.17195290802267 5.92321291786361 0 0 0
6743 1 5.705122187948246 -52.171946495508394 4.679064202265163 0 0 0
6511 1 8.573737473652148 -54.20515042010803 7.167365176163318 0 0 0
6530 1 8.573737473738825 -54.2051504200992 4.679065176313795 0 0 0
6667 1 7.857538954648863 -52.17193677000769 5.923215557707421 0 0 0
6451 1 12.878567121510544 -54.20512775832176 4.679066858874174 0 0 0
6452 1 10.726152814403472 -54.20513952404275 5.923216096673494 0 0 0
6454 1 12.878567121520732 -54.20512775836462 7.167366859116829 0 0 0
6607 1 12.162368664515592 -52.171911064927436 5.923217846831776 0 0 0
6666 1 10.00995442585526 -52.17192460533669 4.679066823865769 0 0 0
6669 1 10.009954425889669 -52.17192460529202 7.167366824060084 0 0 0
6360 1 15.030980587629973 -54.20511632912452 5.923217375356091 0 0 0
6606 1 14.314781841053277 -52.17189745210544 7.167368501358275 0 0 0
6611 1 14.314781840997197 -52.17189745207265 4.679068501561585 0 0 0
6292 1 19.33580634412152 -54.20509980705014 5.923217447686038 0 0 0
6359 1 17.18339352027024 -54.20510657008629 7.167367580667878 0 0 0
6378 1 17.183393520271075 -54.20510657015052 4.679067580716476 0 0 0
6582 1 18.619606375532307 -52.171876161708354 4.679068445920435 0 0 0
6583 1 16.467194260663046 -52.1718852831395 5.923218710253293 0 0 0
6585 1 18.619606375460272 -52.171876161799034 7.167368446086078 0 0 0
6812 1 2.836504915901636 -50.13874108931897 7.167362440586046 0 0 0
6813 1 0.6840849804684241 -50.13874276380987 5.923210882441317 0 0 0
6819 1 2.8365049160149916 -50.13874108915854 4.679062440654374 0 0 0
6821 1 2.120305725989223 -48.10553035633375 5.923211894671801 0 0 0
6745 1 4.9889235100591796 -50.138734670969235 5.923214278504601 0 0 0
6749 1 6.425142609714667 -48.10551313763031 5.923217170203523 0 0 0
6820 1 4.272724970963767 -48.10552407753309 4.679064515833364 0 0 0
6823 1 4.272724971003674 -48.105524077531626 7.167364515944248 0 0 0
6671 1 9.293756344010045 -50.138710858178186 5.923217915076293 0 0 0
6744 1 7.141340663017633 -50.13872429307856 4.679066179617336 0 0 0
6747 1 7.141340663116238 -50.13872429296829 7.1673661797671295 0 0 0
6748 1 8.577558588851472 -48.1054984627575 7.167369538308508 0 0 0
6761 1 8.577558588900184 -48.10549846267896 4.679069538448057 0 0 0
6670 1 11.446170579953112 -50.138695448813564 7.167369275946206 0 0 0
6679 1 11.446170580013344 -50.138695448697256 4.679069276068294 0 0 0
6680 1 12.882385641272917 -48.10546251843805 4.6790723561685565 0 0 0
6681 1 10.72997290442341 -48.105481127735814 5.923221340499996 0 0 0
6683 1 12.882385641282214 -48.10546251849717 7.167372356367543 0 0 0
6612 1 15.750995407798454 -50.13866448513579 4.679070279622707 0 0 0
6613 1 13.598583507292211 -50.13867943313441 5.923220097614445 0 0 0
6615 1 15.750995407798209 -50.13866448518987 7.1673702798026175 0 0 0
6617 1 15.034797042681328 -48.10544443260163 5.923222457706268 0 0 0
6586 1 17.903406750714744 -50.13865250491482 5.923219800436442 0 0 0
6593 1 19.339617912518733 -48.10541870195906 5.9232199760398005 0 0 0
6616 1 17.187207563174812 -48.105429041827755 7.1673716331576385 0 0 0
6629 1 17.187207563138493 -48.10542904186694 4.679071633344217 0 0 0
6879 1 1.4041065544987954 -46.07232083045473 4.679061308956915 0 0 0
6880 1 1.4041065545457274 -46.07232083029592 7.167361309017935 0 0 0
6824 1 5.708944792380502 -46.07230344868211 7.167368722683749 0 0 0
6825 1 3.556526566612837 -46.07231484721969 5.923215029779475 0 0 0
6839 1 5.70894479242686 -46.07230344860311 4.679068722775148 0 0 0
6763 1 7.861361176407043 -46.072287603358426 5.923221945754563 0 0 0
6685 1 12.166188305881708 -46.07224699392255 5.923225544020852 0 0 0
6762 1 10.01377567120689 -46.07226833399973 4.6790743159552335 0 0 0
6765 1 10.013775671248249 -46.07226833403349 7.167374316056972 0 0 0
6684 1 14.318599254149218 -46.07222543251508 7.1673754714978175 0 0 0
6701 1 14.318599254044175 -46.07222543239119 4.679075471640069 0 0 0
6630 1 18.62341805997608 -46.0721917119725 4.6790716064820606 0 0 0
6631 1 16.471008928242927 -46.072206056208145 5.923224105594123 0 0 0
6633 1 18.62341805992653 -46.07219171200933 7.1673716066249105 0 0 0
6881 1 2.8403283006796216 -44.03910711408642 7.167366008812822 0 0 0
6882 1 0.6879073993620332 -44.03911265741031 5.923210742142656 0 0 0
6890 1 2.840328300775862 -44.03910711393582 4.679066008827091 0 0 0
6892 1 2.124130187820491 -42.00590103673852 5.9232177398741 0 0 0
6841 1 4.992747216716155 -44.0390953712381 5.923221129989908 0 0 0
6845 1 6.428967424568391 -42.00587119687075 5.923230705694124 0 0 0
6891 1 4.276549899598452 -42.00588903954767 4.67907481479171 0 0 0
6894 1 4.27654989965217 -42.005889039440504 7.1673748149417005 0 0 0
6767 1 9.297578908739153 -44.03905730767642 5.923228591262564 0 0 0
6840 1 7.1451641145377005 -44.03907845773454 4.679075499595609 0 0 0
6843 1 7.145164114669791 -44.039078457728095 7.16737549958186 0 0 0
6844 1 8.581382645794722 -42.00584828309529 7.167384705404311 0 0 0
6863 1 8.581382645883483 -42.005848282993156 4.67908470549761 0 0 0
6766 1 11.44999155207686 -44.03903316565615 7.167380028521603 0 0 0
6785 1 11.449991552072039 -44.03903316565172 4.679080028596923 0 0 0
6786 1 12.886205780400596 -42.00579211706299 4.6790853370866765 0 0 0
6787 1 10.733795438178877 -42.00582135949899 5.923236318688474 0 0 0
6789 1 12.886205780506385 -42.005792117042354 7.167385337183512 0 0 0
6702 1 15.754810976607274 -44.038983919335806 4.679077424947602 0 0 0
6703 1 13.60240213497715 -44.03900785367737 5.923229626721289 0 0 0
6705 1 15.75481097664528 -44.038983919389906 7.1673774250605495 0 0 0
6707 1 15.03861385766532 -42.00576310675646 5.923231855912032 0 0 0
6634 1 17.90721878430924 -44.0389646769953 5.923223680673464 0 0 0
6651 1 19.343426256636427 -42.005721402760535 5.923219281341659 0 0 0
6706 1 17.19102027109193 -42.00573800609327 7.167376279453459 0 0 0
6725 1 17.191020271031388 -42.00573800606289 4.679076279527256 0 0 0
7186 1 1.4079322489983934 -39.9726968029285 -5.274129342751031 0 0 0
7190 1 0.6917345209677482 -37.939494658359536 -4.0299745885031 0 0 0
7206 1 0.6917345209703086 -37.9394946583031 -6.518274588632502 0 0 0
7207 1 2.844156102140219 -37.93948210764454 -5.274111261005097 0 0 0
7100 1 3.5603528537333005 -39.972684580237576 -4.029969609995619 0 0 0
7116 1 3.5603528536529945 -39.97268458024581 -6.518269610028282 0 0 0
7117 1 5.712771123042921 -39.97266596153536 -5.2741117087824625 0 0 0
7119 1 4.996575237202314 -37.939462868613674 -4.029950712471645 0 0 0
7120 1 4.996575237192375 -37.9394628686015 -6.5182507124005875 0 0 0
7023 1 7.8651869169746025 -39.972641475348205 -4.029956584120533 0 0 0
7024 1 7.8651869169427275 -39.97264147523222 -6.518256584015888 0 0 0
7028 1 9.301405347932677 -37.93940505943881 -4.029942591668825 0 0 0
7044 1 9.301405347915301 -37.939405059356574 -6.518242591789145 0 0 0
7118 1 7.14899176196985 -37.939437072964346 -5.274094211540596 0 0 0
6956 1 12.170010288317062 -39.9725786792038 -4.029956833333278 0 0 0
6971 1 12.170010288273357 -39.97257867924531 -6.518256833387634 0 0 0
7022 1 10.017600015425975 -39.972611894152436 -5.274104878095414 0 0 0
7045 1 11.453815756886526 -37.93936800559389 -5.274096131391944 0 0 0
6972 1 14.32241773718578 -39.972544199357834 -5.274112257752482 0 0 0
6973 1 15.75862652083406 -37.939288257910796 -5.274116670623304 0 0 0
6974 1 13.606222799929885 -37.93932788020639 -4.029954480781999 0 0 0
6975 1 13.606222799949263 -37.9393278801656 -6.518254480767905 0 0 0
6931 1 18.627226533510747 -39.97248842074089 -5.274130615493456 0 0 0
6932 1 16.474822754315593 -39.97251227320582 -4.029970519040772 0 0 0
6933 1 16.47482275441997 -39.97251227323504 -6.51827051899153 0 0 0
6936 1 17.911027887670734 -37.939255401818755 -4.029981205207197 0 0 0
6939 1 17.911027887639523 -37.939255401814464 -6.518281205232411 0 0 0
7209 1 2.127959667869959 -35.90628172433874 -4.029948866156754 0 0 0
7210 1 2.127959667818005 -35.90628172429052 -6.518248866143265 0 0 0
7124 1 6.432797247804179 -35.90623523386615 -4.029926695458154 0 0 0
7140 1 6.4327972477974855 -35.90623523380611 -6.518226695542016 0 0 0
7208 1 4.280379791439702 -35.906261993154274 -5.274084852880043 0 0 0
7141 1 8.585211516455924 -35.90620110381049 -5.274075488585442 0 0 0
7046 1 12.890029248105678 -35.90611489487932 -5.2740942736173295 0 0 0
7047 1 10.737622299410083 -35.90616051581669 -4.029931544331276 0 0 0
7048 1 10.73762229944876 -35.90616051578957 -6.518231544279245 0 0 0
6979 1 15.042431929820212 -35.906066980308374 -4.029962196391756 0 0 0
6989 1 15.042431929747867 -35.90606698032775 -6.518262196440188 0 0 0
6940 1 19.347228285479574 -35.9059942754913 -4.030004271094143 0 0 0
6941 1 19.347228285461934 -35.90599427540118 -6.518304271169873 0 0 0
6990 1 17.194830778557442 -35.90602323852184 -5.274133084896557 0 0 0
7270 1 1.4117635451051427 -33.873083506484534 -5.2740806250935375 0 0 0
7274 1 0.6955676385905241 -31.839887492436997 -4.029904025395881 0 0 0
7284 1 0.6955676385739764 -31.839887492396493 -6.518204025460065 0 0 0
7285 1 2.8479901290593155 -31.83986684161965 -5.274029594475005 0 0 0
7214 1 3.5641847899539565 -33.873063349575325 -4.029912094119492 0 0 0
7228 1 3.5641847900034462 -33.87306334959645 -6.518212094067337 0 0 0
7229 1 5.716603445817147 -33.873036097889305 -5.274051971499191 0 0 0
7231 1 5.0004104197988655 -31.83983981517043 -4.029867148906779 0 0 0
7232 1 5.000410419828268 -31.839839815236978 -6.5181671488879385 0 0 0
7143 1 7.869018640832979 -33.87300021802926 -4.029901718939025 0 0 0
7144 1 7.86901864080912 -33.873000218000584 -6.518201718855215 0 0 0
7148 1 9.305239165347084 -31.83975620907063 -4.029884714764874 0 0 0
7158 1 9.30523916529934 -31.839756209041482 -6.518184714914933 0 0 0
7230 1 7.152826890200012 -31.839802580142933 -5.274018707030457 0 0 0
7052 1 12.173837307489253 -33.872905978843285 -4.029930959081938 0 0 0
7066 1 12.173837307468338 -33.87290597880223 -6.518230959063373 0 0 0
7142 1 10.021430045204447 -33.87295653220659 -5.274061696852128 0 0 0
7159 1 11.457647209050965 -31.839701724684506 -5.274063695108313 0 0 0
7067 1 14.326239432572253 -33.87284971226606 -5.274107247140871 0 0 0
7068 1 15.762444018726985 -31.839567393889833 -5.27414524741306 0 0 0
7069 1 13.610049583279729 -31.839637966375594 -4.029952208117481 0 0 0
7070 1 13.610049583236583 -31.83963796639254 -6.518252208071323 0 0 0
6991 1 18.631028811077417 -33.87274972597223 -5.27416699704787 0 0 0
6992 1 16.47863584929538 -33.872793262471184 -4.029987233723839 0 0 0
6993 1 16.47863584925735 -33.87279326251521 -6.518287233688022 0 0 0
6996 1 17.914831823767475 -31.83950502856504 -4.030037008595001 0 0 0
6999 1 17.91483182376179 -31.839505028473862 -6.518337008552624 0 0 0
7287 1 2.131795447891304 -29.806672164295207 -4.02983339534296 0 0 0
7288 1 2.1317954478788668 -29.806672164206603 -6.518133395435752 0 0 0
7306 1 1.415599774813705 -27.773478552204768 -5.273917984229522 0 0 0
7236 1 6.43663648258354 -29.80660846076508 -4.029822819357781 0 0 0
7242 1 6.436636482704365 -29.80660846070631 -6.518122819426025 0 0 0
7286 1 4.284218121545598 -29.806646596215955 -5.273968168417022 0 0 0
7292 1 3.5680261183186324 -27.773456777527745 -4.02974926092629 0 0 0
7294 1 3.568026118275055 -27.77345677755569 -6.5180492609148635 0 0 0
7295 1 5.720447565493512 -27.77341847124812 -5.273908852510446 0 0 0
7243 1 8.589049900761657 -29.806559501362035 -5.273997998500251 0 0 0
7245 1 7.872862560852162 -27.77336627158293 -4.029797882330167 0 0 0
7246 1 7.8728625608217 -27.773366271598785 -6.51809788234651 0 0 0
7160 1 12.893863043519437 -29.80643338284669 -5.274097888881583 0 0 0
7161 1 10.741459179992876 -29.806502347160613 -4.029891442179608 0 0 0
7162 1 10.741459179917795 -29.806502347193504 -6.518191442256939 0 0 0
7166 1 12.177680507171523 -27.773237470942828 -4.029945856824473 0 0 0
7168 1 12.177680507144212 -27.773237471009352 -6.518245856726711 0 0 0
7244 1 10.025273357732386 -27.773307333468082 -5.2740129345617275 0 0 0
7074 1 15.046256595193938 -29.80634835153578 -4.030009724944019 0 0 0
7080 1 15.04625659524811 -29.806348351519254 -6.518309724968544 0 0 0
7169 1 14.33007542361295 -27.773139899242697 -5.2741848934756135 0 0 0
7000 1 19.35101743836669 -29.806206855118777 -4.03011539030014 0 0 0
7001 1 19.351017438363122 -29.8062068550054 -6.518415390282266 0 0 0
7081 1 17.198638839280143 -29.80626219537405 -5.274218265247416 0 0 0
7082 1 18.63481956195209 -27.77293614677379 -5.274330056530402 0 0 0
7083 1 16.48245225100887 -27.773024494830302 -4.030116893272523 0 0 0
7084 1 16.482452251008286 -27.773024494818845 -6.518416893216861 0 0 0
7174 1 1.4079322489146837 -39.972696802920446 -0.2975293426993165 0 0 0
7187 1 1.4079322490156014 -39.972696802832466 -2.7858293427962133 0 0 0
7188 1 2.844156102001151 -37.93948210772645 -2.785811261092479 0 0 0
7189 1 0.6917345209813602 -37.939494658264856 -1.5416745886344398 0 0 0
7191 1 2.844156102134275 -37.9394821076598 -0.2975112609793071 0 0 0
7098 1 5.712771122877814 -39.97266596165882 -2.785811708787688 0 0 0
7099 1 3.5603528536829354 -39.97268458019792 -1.5416696100771743 0 0 0
7101 1 5.71277112298055 -39.97266596150442 -0.2975117087020346 0 0 0
7104 1 4.996575237213296 -37.939462868604565 -1.5416507123514025 0 0 0
7010 1 7.865186916992499 -39.97264147522763 -1.5416565839569918 0 0 0
7027 1 9.301405347907783 -37.93940505942495 -1.5416425916970329 0 0 0
7102 1 7.148991761979009 -37.93943707294563 -0.2974942114963638 0 0 0
7121 1 7.148991762035182 -37.93943707287761 -2.7857942114329672 0 0 0
6955 1 12.170010288321837 -39.9725786792553 -1.5416568334110252 0 0 0
7008 1 10.01760001558152 -39.97261189417957 -0.2975048781127012 0 0 0
7025 1 10.017600015601229 -39.972611894162974 -2.785804878102397 0 0 0
7026 1 11.453815756946696 -37.9393680056446 -2.7857961313295196 0 0 0
7029 1 11.45381575695993 -37.939368005562486 -0.2974961313190627 0 0 0
6954 1 14.322417737201263 -39.972544199412226 -2.7858122578386646 0 0 0
6957 1 14.322417737194504 -39.97254419936953 -0.2975122578066443 0 0 0
6958 1 15.758626520883562 -37.93928825791433 -0.2975166706618579 0 0 0
6960 1 13.606222799956793 -37.93932788018017 -1.5416544807984995 0 0 0
6976 1 15.758626520896264 -37.93928825790599 -2.785816670602487 0 0 0
6923 1 18.62722653344748 -39.9724884207828 -0.2975306154888693 0 0 0
6925 1 16.474822754387915 -39.972512273167666 -1.5416705190854414 0 0 0
6934 1 18.627226533412493 -39.972488420721035 -2.785830615436616 0 0 0
6935 1 17.911027887653837 -37.93925540187649 -1.5416812052329754 0 0 0
7194 1 2.127959667827446 -35.90628172433571 -1.541648866153211 0 0 0
7123 1 6.4327972478407 -35.90623523383087 -1.5416266955363105 0 0 0
7192 1 4.280379791501312 -35.90626199310139 -0.297484852901899 0 0 0
7211 1 4.280379791509374 -35.90626199306761 -2.7857848529595484 0 0 0
7122 1 8.585211516394551 -35.90620110386667 -2.785775488620522 0 0 0
7125 1 8.58521151642753 -35.906201103844886 -0.29747548859669315 0 0 0
7030 1 12.89002924805389 -35.90611489490376 -0.2974942735866519 0 0 0
7032 1 10.737622299409416 -35.9061605157799 -1.541631544239234 0 0 0
7049 1 12.890029248070212 -35.906114894863066 -2.7857942736166685 0 0 0
6978 1 15.042431929786416 -35.90606698034991 -1.541662196405875 0 0 0
6938 1 19.34722828545859 -35.905994275478996 -1.541704271109533 0 0 0
6977 1 17.194830778585867 -35.90602323851065 -2.7858330848641972 0 0 0
6980 1 17.194830778522793 -35.90602323849292 -0.29753308481185364 0 0 0
7257 1 1.4117635450970196 -33.87308350647915 -0.2974806250548257 0 0 0
7271 1 1.4117635450930281 -33.873083506446655 -2.78578062518684 0 0 0
7272 1 2.847990129032274 -31.839866841611503 -2.785729594571601 0 0 0
7273 1 0.6955676385798515 -31.839887492430375 -1.541604025447271 0 0 0
7275 1 2.8479901290923464 -31.83986684159985 -0.2974295945189965 0 0 0
7212 1 5.716603445714959 -33.873036097913484 -2.785751971563294 0 0 0
7213 1 3.56418478998913 -33.87306334962099 -1.5416120941707292 0 0 0
7215 1 5.716603445814443 -33.87303609792205 -0.29745197149538066 0 0 0
7218 1 5.00041041982255 -31.83983981514244 -1.5415671489622051 0 0 0
7128 1 7.869018640824073 -33.873000218073166 -1.5416017189461617 0 0 0
7147 1 9.305239165358712 -31.839756209103946 -1.5415847148669615 0 0 0
7216 1 7.152826890241092 -31.839802580200224 -0.29741870704039325 0 0 0
7233 1 7.152826890203739 -31.839802580083738 -2.7857187070855143 0 0 0
7051 1 12.173837307467858 -33.87290597877673 -1.5416309591405712 0 0 0
7126 1 10.021430045206312 -33.8729565322045 -0.29746169674742556 0 0 0
7145 1 10.021430045204749 -33.87295653218941 -2.7857616968188608 0 0 0
7146 1 11.457647208920742 -31.8397017246379 -2.7857636950692712 0 0 0
7149 1 11.457647209011226 -31.83970172465654 -0.29746369499763314 0 0 0
7050 1 14.326239432461097 -33.8728497122595 -2.7858072471693167 0 0 0
7053 1 14.326239432511798 -33.87284971226726 -0.29750724723878014 0 0 0
7054 1 15.76244401871946 -31.83956739393312 -0.2975452473953238 0 0 0
7056 1 13.61004958318371 -31.839637966416994 -1.541652208053202 0 0 0
7071 1 15.762444018662633 -31.839567393852196 -2.785845247448851 0 0 0
6981 1 18.631028810984194 -33.87274972595654 -0.2975669970627237 0 0 0
6983 1 16.478635849282664 -33.87279326251937 -1.541687233709743 0 0 0
6994 1 18.631028811040082 -33.87274972593568 -2.785866997037646 0 0 0
6995 1 17.914831823718252 -31.83950502859993 -1.5417370085694095 0 0 0
7278 1 2.1317954478500307 -29.806672164284237 -1.5415333954460548 0 0 0
7303 1 1.4155997748259956 -27.773478552188603 -0.2973179842222894 0 0 0
7307 1 1.4155997747984275 -27.773478552226415 -2.78561798427027 0 0 0
7235 1 6.436636482699751 -29.806608460715424 -1.541522819509528 0 0 0
7276 1 4.284218121568014 -29.80664659623741 -0.29736816836970975 0 0 0
7289 1 4.284218121548572 -29.80664659619269 -2.7856681684027365 0 0 0
7290 1 5.720447565477551 -27.773418471225483 -2.7856088525063343 0 0 0
7291 1 3.568026118380237 -27.773456777577756 -1.5414492609469868 0 0 0
7293 1 5.720447565448714 -27.773418471260186 -0.29730885251285494 0 0 0
7234 1 8.589049900765454 -29.806559501425113 -2.7856979984883985 0 0 0
7237 1 8.589049900741797 -29.806559501444568 -0.2973979984959735 0 0 0
7240 1 7.872862560883484 -27.773366271637855 -1.5414978823200205 0 0 0
7150 1 12.89386304346631 -29.80643338284583 -0.2974978888522859 0 0 0
7152 1 10.741459179970763 -29.806502347203068 -1.5415914422554016 0 0 0
7163 1 12.893863043555857 -29.806433382791372 -2.7857978889264063 0 0 0
7165 1 12.177680507191788 -27.773237470952157 -1.541645856805249 0 0 0
7238 1 10.025273357746954 -27.773307333535286 -0.29741293450833123 0 0 0
7247 1 10.025273357739463 -27.773307333507816 -2.785712934532657 0 0 0
7073 1 15.04625659518059 -29.806348351533778 -1.5417097249975191 0 0 0
7164 1 14.330075423601176 -27.773139899305615 -2.785884893444662 0 0 0
7167 1 14.33007542364827 -27.77313989924274 -0.297584893454314 0 0 0
6998 1 19.351017438309555 -29.806206855083488 -1.5418153903552956 0 0 0
7072 1 17.198638839147062 -29.80626219545089 -2.785918265182387 0 0 0
7075 1 17.198638839227147 -29.806262195363995 -0.297618265137233 0 0 0
7076 1 18.63481956188404 -27.772936146810896 -0.29773005649927703 0 0 0
7078 1 16.48245225098334 -27.773024494809604 -1.5418168932644112 0 0 0
7085 1 18.634819562009973 -27.772936146790173 -2.7860300565563927 0 0 0
7175 1 1.4079322490736859 -39.97269680285406 2.190770657271271 0 0 0
7176 1 2.8441561020702544 -37.93948210776231 2.1907887390098413 0 0 0
7177 1 0.6917345209574088 -37.93949465833612 3.43492541140922 0 0 0
7178 1 0.691734520958272 -37.93949465831777 0.9466254114709899 0 0 0
7088 1 5.712771122971347 -39.972665961639755 2.1907882911950054 0 0 0
7089 1 3.560352853753007 -39.97268458029022 3.4349303899191583 0 0 0
7090 1 3.5603528536680713 -39.97268458025737 0.9466303900788341 0 0 0
7094 1 4.996575237168345 -37.93946286862341 3.434949287636838 0 0 0
7103 1 4.996575237184763 -37.9394628686128 0.94664928753854 0 0 0
7004 1 7.8651869169860085 -39.97264147531199 3.4349434159520884 0 0 0
7009 1 7.8651869169114486 -39.97264147523995 0.9466434158895426 0 0 0
7013 1 9.301405347874324 -37.93940505945784 3.4349574082844834 0 0 0
7014 1 9.301405347926638 -37.93940505933862 0.9466574083133027 0 0 0
7105 1 7.148991761981958 -37.93943707290322 2.190805788516096 0 0 0
6945 1 12.170010288249275 -39.97257867925789 3.434943166608991 0 0 0
6946 1 12.170010288305818 -39.972578679184096 0.9466431666812608 0 0 0
7011 1 10.017600015457658 -39.972611894114706 2.1907951219355546 0 0 0
7012 1 11.453815756834896 -37.93936800564345 2.190803868611012 0 0 0
6944 1 14.322417737171701 -39.972544199386704 2.190787742203321 0 0 0
6950 1 13.606222799934214 -37.93932788019053 3.434945519264739 0 0 0
6959 1 13.606222799917834 -37.939327880212545 0.9466455192574061 0 0 0
6961 1 15.75862652084242 -37.939288257875894 2.1907833294544266 0 0 0
6920 1 16.474822754335317 -39.972512273130775 3.4349294809507893 0 0 0
6924 1 16.474822754374742 -39.972512273275406 0.9466294810179184 0 0 0
6926 1 18.627226533483288 -39.97248842074882 2.1907693846168246 0 0 0
6927 1 17.91102788762952 -37.93925540185522 3.4349187947921047 0 0 0
6928 1 17.911027887664748 -37.939255401769 0.9466187948057329 0 0 0
7182 1 2.1279596678387205 -35.906281724371034 3.434951133925997 0 0 0
7193 1 2.127959667827907 -35.90628172429282 0.946651133784314 0 0 0
7107 1 6.432797247800318 -35.90623523387948 3.434973304471966 0 0 0
7108 1 6.432797247781756 -35.906235233815735 0.9466733045348447 0 0 0
7195 1 4.28037979144724 -35.906261993107385 2.1908151471277004 0 0 0
7106 1 8.585211516406446 -35.906201103872895 2.1908245114246894 0 0 0
7018 1 10.73762229939847 -35.906160515817106 3.4349684557293254 0 0 0
7031 1 10.737622299441348 -35.90616051579434 0.9466684556761463 0 0 0
7033 1 12.890029248130109 -35.90611489485829 2.190805726417066 0 0 0
6963 1 15.04243192980011 -35.90606698030669 3.434937803590569 0 0 0
6964 1 15.042431929746815 -35.90606698033411 0.9466378036341206 0 0 0
6930 1 19.347228285474667 -35.90599427547962 3.4348957288961675 0 0 0
6937 1 19.347228285461572 -35.90599427543504 0.9465957288320489 0 0 0
6962 1 17.194830778532648 -35.9060232385412 2.190766915087911 0 0 0
7258 1 1.4117635451590256 -33.873083506470444 2.1908193749050167 0 0 0
7259 1 2.847990129038394 -31.839866841663127 2.1908704055641723 0 0 0
7260 1 0.6955676385804224 -31.839887492443474 3.4349959745726926 0 0 0
7261 1 0.6955676385556354 -31.839887492434254 0.946695974542415 0 0 0
7196 1 5.716603445795008 -33.87303609794863 2.190848028533764 0 0 0
7197 1 3.5641847899945813 -33.87306334957278 3.434987905840812 0 0 0
7198 1 3.564184789998664 -33.873063349597786 0.9466879059751481 0 0 0
7202 1 5.00041041982588 -31.83983981518531 3.4350328511258406 0 0 0
7217 1 5.000410419845437 -31.839839815223762 0.9467328510902125 0 0 0
7112 1 7.8690186408436755 -33.87300021802841 3.434998281096596 0 0 0
7127 1 7.869018640818156 -33.873000217989734 0.9466982810870347 0 0 0
7131 1 9.305239165398442 -31.839756209061047 3.435015285185352 0 0 0
7132 1 9.305239165305288 -31.83975620905301 0.9467152851229754 0 0 0
7219 1 7.152826890244626 -31.83980258010261 2.190881292961782 0 0 0
7035 1 12.173837307531329 -33.87290597886144 3.434969040862682 0 0 0
7036 1 12.17383730747427 -33.872905978816924 0.9466690409735223 0 0 0
7129 1 10.02143004526073 -33.87295653216557 2.1908383031814083 0 0 0
7130 1 11.457647209039257 -31.83970172475267 2.190836304924884 0 0 0
7034 1 14.326239432578832 -33.87284971229154 2.1907927528306974 0 0 0
7040 1 13.610049583314387 -31.83963796637827 3.434947791909731 0 0 0
7055 1 13.610049583228504 -31.839637966386377 0.9466477918971389 0 0 0
7057 1 15.762444018759053 -31.839567393866485 2.1907547525735587 0 0 0
6968 1 16.478635849310727 -33.872793262448454 3.434912766290368 0 0 0
6982 1 16.478635849265316 -33.87279326253777 0.9466127662658619 0 0 0
6984 1 18.63102881110822 -33.87274972595682 2.190733002906667 0 0 0
6985 1 17.914831823792017 -31.83950502854796 3.4348629913743998 0 0 0
6986 1 17.914831823740176 -31.83950502847887 0.9465629914723374 0 0 0
7265 1 2.131795447874609 -29.806672164319444 3.4350666046507303 0 0 0
7277 1 2.1317954478642616 -29.80667216421585 0.9467666046075573 0 0 0
7304 1 1.4155997748175577 -27.77347855224363 2.1909820157789675 0 0 0
7221 1 6.436636482591138 -29.806608460731834 3.435077180594303 0 0 0
7222 1 6.436636482704498 -29.80660846073304 0.946777180553982 0 0 0
7279 1 4.2842181215519455 -29.806646596226276 2.190931831562609 0 0 0
7280 1 5.72044756549819 -27.773418471248764 2.190991147501822 0 0 0
7281 1 3.5680261183198865 -27.773456777525027 3.4351507391040075 0 0 0
7282 1 3.568026118288666 -27.773456777576957 0.946850739039379 0 0 0
7220 1 8.589049900769758 -29.806559501400987 2.1909020015376504 0 0 0
7226 1 7.872862560829869 -27.77336627162673 3.43510211769227 0 0 0
7239 1 7.87286256084178 -27.773366271606434 0.9468021176542195 0 0 0
7136 1 10.741459179992544 -29.80650234719565 3.435008557850334 0 0 0
7151 1 10.741459179943211 -29.806502347168628 0.9467085577675072 0 0 0
7153 1 12.893863043536399 -29.80643338281552 2.1908021111107727 0 0 0
7155 1 12.177680507148663 -27.773237470913006 3.4349541431464465 0 0 0
7156 1 12.177680507117081 -27.773237471001654 0.9466541432997488 0 0 0
7241 1 10.025273357728047 -27.77330733344991 2.1908870654097354 0 0 0
7059 1 15.046256595210256 -29.806348351504177 3.434890275046583 0 0 0
7060 1 15.046256595222207 -29.80634835154503 0.9465902750877364 0 0 0
7154 1 14.33007542357078 -27.773139899276885 2.1907151065995936 0 0 0
6988 1 19.351017438352354 -29.806206855143234 3.434784609762488 0 0 0
6997 1 19.351017438361566 -29.806206854977017 0.9464846096709822 0 0 0
7058 1 17.19863883924585 -29.80626219539947 2.1906817348221987 0 0 0
7064 1 16.48245225097443 -27.77302449485635 3.4347831067854298 0 0 0
7077 1 16.48245225103127 -27.773024494805007 0.9464831067400682 0 0 0
7079 1 18.63481956199317 -27.772936146733176 2.190569943464031 0 0 0
7170 1 1.4079322489302009 -39.97269680293923 4.6790706572058305 0 0 0
7171 1 1.4079322489837194 -39.97269680281837 7.1673706572880045 0 0 0
7172 1 2.844156102067653 -37.939482107719144 7.1673887389906765 0 0 0
7173 1 0.6917345209744504 -37.93949465825728 5.923225411452478 0 0 0
7179 1 2.8441561020307464 -37.939482107682764 4.679088738889211 0 0 0
7086 1 5.712771122916776 -39.97266596161761 7.167388291291474 0 0 0
7087 1 3.5603528536913696 -39.97268458020369 5.923230390023752 0 0 0
7091 1 5.712771122969226 -39.972665961598 4.6790882912509755 0 0 0
7093 1 4.996575237181293 -37.93946286862225 5.923249287539931 0 0 0
7003 1 7.865186916965601 -39.972641475278685 5.9232434159544844 0 0 0
7007 1 9.301405347883271 -37.93940505940638 5.9232574083421925 0 0 0
7092 1 7.148991761935401 -37.9394370729546 4.679105788552791 0 0 0
7095 1 7.1489917620101755 -37.93943707288748 7.167405788519784 0 0 0
6943 1 12.170010288325676 -39.97257867919668 5.92324316666286 0 0 0
7002 1 10.017600015531002 -39.972611894203595 4.6790951218595085 0 0 0
7005 1 10.017600015627243 -39.97261189412948 7.167395121953261 0 0 0
7006 1 11.45381575691859 -37.93936800562146 7.167403868639626 0 0 0
7015 1 11.453815756948513 -37.93936800561079 4.679103868697545 0 0 0
6942 1 14.322417737168209 -39.97254419940366 7.1673877420979855 0 0 0
6947 1 14.322417737194431 -39.97254419937988 4.679087742233982 0 0 0
6948 1 15.75862652086878 -37.939288257906405 4.679083329368391 0 0 0
6949 1 13.606222799914391 -37.939327880207344 5.923245519162149 0 0 0
6951 1 15.758626520905931 -37.93928825791678 7.167383329413771 0 0 0
6918 1 18.62722653342994 -39.97248842068512 4.679069384492073 0 0 0
6919 1 16.47482275432929 -39.97251227325695 5.92322948093769 0 0 0
6921 1 18.62722653342431 -39.972488420801746 7.167369384561768 0 0 0
6922 1 17.9110278876736 -37.93925540183384 5.923218794787964 0 0 0
7181 1 2.127959667827681 -35.906281724319456 5.923251133744459 0 0 0
7097 1 6.432797247829372 -35.90623523382342 5.923273304531269 0 0 0
7180 1 4.2803797914380874 -35.906261993127806 4.679115147045584 0 0 0
7183 1 4.280379791542432 -35.90626199305027 7.1674151470599945 0 0 0
7096 1 8.585211516388297 -35.906201103888726 7.167424511400251 0 0 0
7109 1 8.58521151640866 -35.906201103805714 4.6791245113767115 0 0 0
7016 1 12.890029248025265 -35.90611489489488 4.679105726378599 0 0 0
7017 1 10.737622299391287 -35.9061605158108 5.923268455705744 0 0 0
7019 1 12.890029248069588 -35.90611489487899 7.16740572640822 0 0 0
6953 1 15.042431929791103 -35.906066980317796 5.923237803647455 0 0 0
6929 1 19.347228285429402 -35.90599427550173 5.923195728873595 0 0 0
6952 1 17.19483077849258 -35.90602323850814 7.16736691517333 0 0 0
6965 1 17.194830778596423 -35.906023238449535 4.6790669151699245 0 0 0
7251 1 1.4117635450884012 -33.87308350649558 4.679119374833457 0 0 0
7252 1 1.4117635451140078 -33.873083506450264 7.167419374902838 0 0 0
7253 1 2.847990129091595 -31.839866841641467 7.167470405444436 0 0 0
7254 1 0.6955676385705607 -31.83988749244642 5.9232959745771385 0 0 0
7262 1 2.8479901290692293 -31.839866841605982 4.679170405414309 0 0 0
7184 1 5.716603445806084 -33.87303609795447 7.167448028510065 0 0 0
7185 1 3.564184790011496 -33.873063349647175 5.923287905915048 0 0 0
7199 1 5.716603445762671 -33.87303609789103 4.679148028430176 0 0 0
7201 1 5.000410419858457 -31.83983981513314 5.923332851008284 0 0 0
7111 1 7.86901864084845 -33.873000218047025 5.923298280990394 0 0 0
7115 1 9.305239165375864 -31.839756209103136 5.923315285175916 0 0 0
7200 1 7.152826890193224 -31.839802580105783 4.6791812929190035 0 0 0
7203 1 7.152826890268718 -31.839802580150447 7.167481292919569 0 0 0
7021 1 12.173837307483243 -33.87290597878928 5.923269040924488 0 0 0
7110 1 10.021430045181829 -33.87295653226419 4.679138303185207 0 0 0
7113 1 10.021430045256801 -33.87295653214161 7.167438303211104 0 0 0
7114 1 11.457647208997399 -31.83970172468248 7.167436304995851 0 0 0
7133 1 11.457647208997123 -31.83970172463702 4.67913630490631 0 0 0
7020 1 14.32623943249612 -33.872849712280136 7.167392752762984 0 0 0
7037 1 14.326239432491894 -33.872849712205124 4.679092752832268 0 0 0
7038 1 15.762444018674062 -31.83956739386337 4.679054752567111 0 0 0
7039 1 13.610049583226722 -31.839637966399387 5.923247791884869 0 0 0
7041 1 15.7624440187705 -31.83956739387763 7.167354752601024 0 0 0
6966 1 18.631028811035485 -33.872749725949895 4.679033002927003 0 0 0
6967 1 16.47863584931812 -33.872793262482894 5.923212766277761 0 0 0
6969 1 18.631028811023494 -33.87274972594861 7.167333002944402 0 0 0
6970 1 17.91483182374012 -31.839505028595614 5.9231629914502575 0 0 0
7264 1 2.1317954478661183 -29.80667216429245 5.9233666045871995 0 0 0
7299 1 1.415599774853915 -27.773478552192664 4.679282015730666 0 0 0
7300 1 1.4155997747893636 -27.77347855221812 7.16758201577205 0 0 0
7205 1 6.436636482663235 -29.806608460708254 5.923377180513639 0 0 0
7263 1 4.2842181215421204 -29.806646596182887 4.679231831624891 0 0 0
7266 1 4.284218121596207 -29.80664659622517 7.167531831605467 0 0 0
7267 1 5.72044756544301 -27.77341847122738 7.167591147503806 0 0 0
7268 1 3.5680261183592465 -27.773456777572527 5.923450739058147 0 0 0
7283 1 5.720447565449385 -27.77341847122405 4.679291147483997 0 0 0
7204 1 8.589049900707838 -29.806559501476663 7.167502001508177 0 0 0
7223 1 8.589049900758159 -29.806559501427447 4.6792020015005535 0 0 0
7225 1 7.872862560878541 -27.77336627164096 5.923402117675846 0 0 0
7134 1 12.893863043559294 -29.806433382812724 4.679102111097669 0 0 0
7135 1 10.741459179982533 -29.80650234719813 5.923308557692708 0 0 0
7137 1 12.893863043497575 -29.806433382830207 7.1674021110855834 0 0 0
7139 1 12.17768050712101 -27.773237470987343 5.9232541432233035 0 0 0
7224 1 10.02527335770382 -27.773307333517675 4.679187065469252 0 0 0
7227 1 10.025273357747924 -27.773307333558662 7.167487065473692 0 0 0
7043 1 15.04625659519271 -29.80634835152628 5.923190275039478 0 0 0
7138 1 14.330075423598986 -27.77313989926075 7.167315106579114 0 0 0
7157 1 14.330075423593073 -27.773139899253373 4.6790151065350285 0 0 0
6987 1 19.351017438354432 -29.80620685506532 5.923084609626353 0 0 0
7042 1 17.19863883923451 -29.806262195361235 7.167281734874584 0 0 0
7061 1 17.198638839172474 -29.806262195397494 4.678981734803001 0 0 0
7062 1 18.63481956199613 -27.7729361468339 4.678869943491088 0 0 0
7063 1 16.482452250995145 -27.77302449476613 5.923083106698803 0 0 0
7065 1 18.634819561936435 -27.772936146758823 7.167169943467119 0 0 0
7544 1 0.6994009386054297 -25.740284233124896 -4.029675668291019 0 0 0
7560 1 0.6994009385722301 -25.74028423314995 -6.517975668215135 0 0 0
7561 1 2.851833053765164 -25.74027081488861 -5.273802099948274 0 0 0
7467 1 5.004259874054065 -25.74023399980779 -4.0296691767946475 0 0 0
7468 1 5.004259874080058 -25.740233999832245 -6.517969176827312 0 0 0
7382 1 9.309089570120905 -25.74011494672086 -4.029826646393077 0 0 0
7398 1 9.309089570114736 -25.74011494667018 -6.518126646441921 0 0 0
7466 1 7.156677453994256 -25.74017671498314 -5.27387908007463 0 0 0
7399 1 11.46150240408608 -25.74005101596961 -5.274099003771339 0 0 0
7339 1 15.766275742269336 -25.73979712941515 -5.274342447558074 0 0 0
7340 1 13.613902974969887 -25.739947195482742 -4.030077675135011 0 0 0
7341 1 13.613902974941396 -25.73994719551528 -6.518377675150584 0 0 0
7314 1 17.918629387741856 -25.739663031682767 -4.030276102300682 0 0 0
7317 1 17.91862938768024 -25.73966303172034 -6.518576102347055 0 0 0
7563 1 2.1356356356683657 -23.70708908630473 -4.029514361507362 0 0 0
7564 1 2.135635635655303 -23.70708908622845 -6.517814361536398 0 0 0
7634 1 1.4194270502979982 -21.673911271907244 -5.273467206779941 0 0 0
7472 1 6.440494666024537 -23.70699249948824 -4.029633738141073 0 0 0
7488 1 6.44049466610424 -23.706992499512637 -6.517933738090047 0 0 0
7562 1 4.288071920437658 -23.707057776496207 -5.273692274953715 0 0 0
7568 1 3.5718791714141362 -21.673894268497715 -4.029360189499273 0 0 0
7584 1 3.571879171342084 -21.673894268446084 -6.517660189451283 0 0 0
7585 1 5.724313526645589 -21.67381933792984 -5.273649861999157 0 0 0
7489 1 8.592906881429116 -23.706921662441356 -5.273930808028615 0 0 0
7491 1 7.876722699568109 -21.67372181196389 -4.029723586509288 0 0 0
7492 1 7.87672269954283 -21.67372181198959 -6.518023586551699 0 0 0
7400 1 12.897742242812418 -23.7067772254287 -5.274299538930879 0 0 0
7401 1 10.745328153369963 -23.706872832136604 -4.029962618011974 0 0 0
7402 1 10.74532815333818 -23.7068728321107 -6.518262618050082 0 0 0
7406 1 12.18159612151633 -21.673639386140643 -4.030269775829803 0 0 0
7421 1 12.18159612145112 -21.67363938620902 -6.518569775775645 0 0 0
7490 1 10.029154302714966 -21.673697223852074 -5.274146373437019 0 0 0
7345 1 15.050114758041843 -23.706588270724744 -4.030309980877226 0 0 0
7355 1 15.05011475802929 -23.70658827054631 -6.518609980983461 0 0 0
7422 1 14.333976671265837 -21.67341051895314 -5.274643478188826 0 0 0
7318 1 19.354783629204174 -23.706282675386916 -4.03046283070127 0 0 0
7319 1 19.354783629179398 -23.70628267545714 -6.518762830677863 0 0 0
7356 1 17.20245296034319 -23.706391637357175 -5.274568774006265 0 0 0
7357 1 18.63859665777916 -21.672936740894155 -5.2748171695219845 0 0 0
7358 1 16.486300276013118 -21.67313044854809 -4.030630815966015 0 0 0
7359 1 16.486300275975402 -21.673130448536625 -6.518930815918045 0 0 0
7638 1 0.7031950109880851 -19.640735232534524 -4.02903065820061 0 0 0
7652 1 0.703195010991396 -19.640735232537235 -6.51733065809191 0 0 0
7653 1 2.8556706619403824 -19.640748562690103 -5.273243939381107 0 0 0
7655 1 2.1394227898306473 -17.607620790396787 -4.028695299470248 0 0 0
7656 1 2.1394227897830698 -17.60762079039265 -6.516995299644235 0 0 0
7587 1 5.008131459142164 -19.640672274127414 -4.029308644123866 0 0 0
7588 1 5.00813145911586 -19.64067227409186 -6.517608644298644 0 0 0
7592 1 6.4443230924753045 -17.607277362608038 -4.0295725743944315 0 0 0
7602 1 6.444323092424943 -17.607277362606297 -6.517872574262663 0 0 0
7654 1 4.2919426655148065 -17.607584839768105 -5.2731799476361765 0 0 0
7496 1 9.312970382659664 -19.64050862386845 -4.030068113425652 0 0 0
7510 1 9.312970382611946 -19.64050862384118 -6.518368113362241 0 0 0
7586 1 7.1605314777258515 -19.640508267524197 -5.273803737133663 0 0 0
7603 1 8.596750563482793 -17.607269664096137 -5.274361084644571 0 0 0
7511 1 11.46546542717053 -19.640546604857324 -5.274621372262406 0 0 0
7512 1 12.901799453015721 -17.607230020254924 -5.275387059496125 0 0 0
7513 1 10.749344533927541 -17.60751777364808 -4.030811782736782 0 0 0
7514 1 10.749344533915547 -17.60751777362636 -6.519111782789673 0 0 0
7423 1 15.77018702443494 -19.639896795340245 -5.2750961003415435 0 0 0
7424 1 13.617869922890172 -19.64028249633975 -4.030781567078094 0 0 0
7425 1 13.617869922904625 -19.64028249627487 -6.519081567114929 0 0 0
7429 1 15.054136246489342 -17.606725024882415 -4.031414778118635 0 0 0
7437 1 15.05413624651901 -17.606725024852384 -6.519714778177515 0 0 0
7362 1 17.922436684747623 -19.6395656622958 -4.030952378216934 0 0 0
7365 1 17.922436684697352 -19.639565662310726 -6.519252378295048 0 0 0
7366 1 19.35854282393613 -17.6060365401777 -4.031093230454326 0 0 0
7367 1 19.358542823928246 -17.6060365401409 -6.519393230421565 0 0 0
7438 1 17.206326052055672 -17.60616926637881 -5.275493389515041 0 0 0
7688 1 1.423088172184983 -15.57448857828745 -5.272232185710694 0 0 0
7692 1 0.7065857011516312 -13.541253694904325 -4.027113628136372 0 0 0
7694 1 0.7065857011492928 -13.541253694787848 -6.515413627830679 0 0 0
7695 1 2.8594884674634877 -13.541918368368236 -5.272130511711263 0 0 0
7660 1 3.575735918314933 -15.574625122460834 -4.028614596428763 0 0 0
7666 1 3.5757359182734088 -15.574625122502857 -6.516914596291098 0 0 0
7667 1 5.72808706083301 -15.57404251051999 -5.273639483835747 0 0 0
7669 1 5.011830472077146 -13.540884512969212 -4.029436965440039 0 0 0
7670 1 5.011830472069886 -13.54088451302725 -6.517736965775655 0 0 0
7605 1 7.880434100190344 -15.57389649561129 -4.030487674983521 0 0 0
7606 1 7.8804341002605875 -15.573896495630981 -6.518787675019208 0 0 0
7610 1 9.317025749431057 -13.541816294639027 -4.03240183415415 0 0 0
7612 1 9.317025749397406 -13.541816294645633 -6.520701834088152 0 0 0
7668 1 7.163899693776869 -13.540186840889259 -5.2751647249715115 0 0 0
7518 1 12.185754401817265 -15.574282470198984 -4.031962705502713 0 0 0
7524 1 12.185754401764672 -15.57428247023513 -6.520262705456299 0 0 0
7604 1 10.033215048152677 -15.574583455441207 -5.2755431809898985 0 0 0
7613 1 11.469687456512423 -13.54145239356134 -5.277276082336544 0 0 0
7525 1 14.338173864393738 -15.573682669759094 -5.276260193450203 0 0 0
7526 1 15.774444176171164 -13.539441010763355 -5.276667862701964 0 0 0
7527 1 13.622310549773285 -13.540887684305655 -4.033137681244815 0 0 0
7528 1 13.62231054990069 -13.540887684272917 -6.521437681254472 0 0 0
7439 1 18.642385261231347 -15.572395210466306 -5.275537728995946 0 0 0
7440 1 16.49030606603427 -15.572764333554622 -4.03186346976307 0 0 0
7441 1 16.49030606601298 -15.572764333617899 -6.520163469736897 0 0 0
7444 1 17.92623362674975 -13.538426503379025 -4.031651740292482 0 0 0
7445 1 17.92623362657884 -13.538426503368447 -6.519951740275129 0 0 0
7542 1 2.8518330537563807 -25.740270814775535 -2.785502100014221 0 0 0
7543 1 0.6994009385760558 -25.740284233201468 -1.5413756682393647 0 0 0
7545 1 2.851833053789746 -25.740270814883985 -0.2972020999972172 0 0 0
7454 1 5.004259874072754 -25.740233999782074 -1.5413691769394293 0 0 0
7381 1 9.309089570106755 -25.74011494669099 -1.5415266464289228 0 0 0
7452 1 7.156677454011264 -25.74017671503634 -0.29727907997909225 0 0 0
7469 1 7.156677453956576 -25.74017671498401 -2.7855790800941644 0 0 0
7380 1 11.461502404070236 -25.740051015998628 -2.785799003835527 0 0 0
7383 1 11.461502404102943 -25.740051015939006 -0.2974990037115962 0 0 0
7326 1 15.766275742295408 -25.73979712939255 -0.29774244746847395 0 0 0
7328 1 13.613902974971454 -25.73994719546654 -1.541777675080292 0 0 0
7342 1 15.766275742304215 -25.739797129303664 -2.7860424475539345 0 0 0
7313 1 17.918629387728803 -25.739663031694917 -1.5419761022942327 0 0 0
7548 1 2.1356356356138964 -23.707089086307803 -1.541214361586633 0 0 0
7622 1 1.4194270502871806 -21.6739112718949 -0.2968672067202039 0 0 0
7635 1 1.4194270502694313 -21.673911272028008 -2.785167206788599 0 0 0
7471 1 6.440494666077475 -23.70699249952409 -1.5413337380455554 0 0 0
7546 1 4.288071920446107 -23.70705777649238 -0.29709227495041957 0 0 0
7565 1 4.288071920423774 -23.707057776525136 -2.7853922749590687 0 0 0
7566 1 5.724313526725929 -21.673819337828107 -2.785349862000103 0 0 0
7567 1 3.5718791713744538 -21.673894268501705 -1.541060189471044 0 0 0
7569 1 5.724313526643571 -21.673819337980976 -0.29704986192672217 0 0 0
7470 1 8.592906881384796 -23.7069216624932 -2.785630808018884 0 0 0
7473 1 8.592906881413672 -23.706921662493972 -0.2973308080291254 0 0 0
7476 1 7.876722699527373 -21.673721812006267 -1.5414235865511565 0 0 0
7384 1 12.897742242796571 -23.70677722545982 -0.2976995388196282 0 0 0
7386 1 10.74532815333884 -23.70687283217355 -1.5416626180504418 0 0 0
7403 1 12.8977422428255 -23.70677722543142 -2.785999538890821 0 0 0
7405 1 12.181596121564947 -21.673639386161256 -1.5419697757601896 0 0 0
7474 1 10.029154302669104 -21.673697223801522 -0.297546373446004 0 0 0
7493 1 10.029154302604537 -21.673697223855196 -2.7858463734492878 0 0 0
7344 1 15.050114757985773 -23.706588270640573 -1.5420099809578351 0 0 0
7404 1 14.333976671298885 -21.673410518996853 -2.786343478212022 0 0 0
7407 1 14.333976671265948 -21.67341051895777 -0.29804347820650134 0 0 0
7316 1 19.354783629132896 -23.706282675402466 -1.542162830745526 0 0 0
7343 1 17.202452960206394 -23.706391637340808 -2.7862687739488377 0 0 0
7346 1 17.20245296027457 -23.70639163732259 -0.29796877388741666 0 0 0
7347 1 18.63859665776444 -21.672936740819686 -0.2982171694496761 0 0 0
7349 1 16.486300276011725 -21.673130448600777 -1.5423308158864897 0 0 0
7360 1 18.63859665769872 -21.672936740803408 -2.7865171694922024 0 0 0
7636 1 2.855670662037144 -19.64074856262282 -2.7849439393985613 0 0 0
7637 1 0.7031950109933917 -19.640735232576322 -1.5407306580727356 0 0 0
7639 1 2.855670661985431 -19.64074856274 -0.2966439393272404 0 0 0
7642 1 2.1394227898494993 -17.607620790415933 -1.5403952996798838 0 0 0
7572 1 5.008131459066971 -19.640672274203318 -1.5410086442318884 0 0 0
7591 1 6.4443230925226 -17.607277362568585 -1.5412725742754976 0 0 0
7640 1 4.291942665549627 -17.607584839756488 -0.29657994756354494 0 0 0
7657 1 4.2919426654583726 -17.607584839837827 -2.7848799476173203 0 0 0
7495 1 9.312970382588427 -19.64050862381225 -1.5417681132865524 0 0 0
7570 1 7.1605314776364 -19.640508267544696 -0.29720373711278214 0 0 0
7589 1 7.160531477663635 -19.640508267551525 -2.7855037371299924 0 0 0
7590 1 8.596750563545466 -17.60726966402379 -2.786061084671763 0 0 0
7593 1 8.596750563508571 -17.60726966405827 -0.2977610845963272 0 0 0
7494 1 11.465465427147638 -19.64054660484194 -2.78632137225707 0 0 0
7497 1 11.465465427168123 -19.640546604846804 -0.29802137219567837 0 0 0
7498 1 12.90179945299537 -17.607230020258548 -0.2987870594551692 0 0 0
7500 1 10.749344533907298 -17.60751777369207 -1.5425117828397348 0 0 0
7515 1 12.901799452954744 -17.6072300202772 -2.7870870594246737 0 0 0
7408 1 15.770187024476558 -19.63989679524242 -0.29849610027746787 0 0 0
7410 1 13.617869922916695 -19.640282496322346 -1.5424815671228076 0 0 0
7426 1 15.770187024478258 -19.639896795270484 -2.7867961003417925 0 0 0
7428 1 15.054136246437002 -17.60672502491666 -1.543114778196094 0 0 0
7361 1 17.922436684762346 -19.639565662317022 -1.5426523782786783 0 0 0
7364 1 19.358542823848452 -17.606036540145855 -1.5427932304634895 0 0 0
7427 1 17.206326052023705 -17.60616926630523 -2.7871933895379524 0 0 0
7430 1 17.206326051988032 -17.606169266353742 -0.29889338952170574 0 0 0
7681 1 1.423088172115704 -15.574488578259018 -0.2956321857217547 0 0 0
7689 1 1.4230881720292567 -15.57448857838007 -2.7839321856642534 0 0 0
7690 1 2.8594884676178363 -13.541918368199177 -2.7838305116927335 0 0 0
7691 1 0.7065857012609214 -13.541253694821243 -1.5388136278018973 0 0 0
7693 1 2.8594884674816217 -13.541918368385781 -0.2955305117537666 0 0 0
7658 1 5.728087060987607 -15.574042510408404 -2.7853394839188503 0 0 0
7659 1 3.5757359183047934 -15.574625122510254 -1.5403145963517508 0 0 0
7661 1 5.728087060826834 -15.574042510554722 -0.2970394839472343 0 0 0
7664 1 5.011830472041399 -13.54088451310048 -1.5411369657892404 0 0 0
7596 1 7.880434100299462 -15.57389649565364 -1.5421876750690193 0 0 0
7609 1 9.317025749379631 -13.541816294598613 -1.5441018340067656 0 0 0
7662 1 7.163899693707282 -13.540186840928083 -0.2985647249514672 0 0 0
7671 1 7.163899693571223 -13.540186841051714 -2.7868647248770735 0 0 0
7517 1 12.18575440183239 -15.57428247020317 -1.5436627054484993 0 0 0
7594 1 10.033215048101383 -15.57458345545298 -0.2989431809324823 0 0 0
7607 1 10.033215048044415 -15.574583455560072 -2.7872431810012053 0 0 0
7608 1 11.469687456539843 -13.541452393463004 -2.7889760823759304 0 0 0
7611 1 11.469687456449343 -13.541452393565649 -0.3006760823343636 0 0 0
7516 1 14.338173864306022 -15.57368266976073 -2.787960193439369 0 0 0
7519 1 14.338173864286716 -15.573682669720439 -0.2996601934401152 0 0 0
7520 1 15.774444176121671 -13.539441010710522 -0.3000678627538091 0 0 0
7522 1 13.622310549841956 -13.540887684292661 -1.5448376812798819 0 0 0
7529 1 15.774444176119419 -13.539441010721868 -2.788367862681674 0 0 0
7431 1 18.642385261251274 -15.572395210391017 -0.29893772894481413 0 0 0
7433 1 16.490306066055098 -15.572764333634524 -1.5435634697315166 0 0 0
7442 1 18.64238526126359 -15.572395210351452 -2.787237729013492 0 0 0
7443 1 17.926233626687853 -13.538426503356012 -1.543351740286554 0 0 0
7532 1 2.851833053819607 -25.740270814837665 2.1910979000501642 0 0 0
7533 1 0.6994009385988144 -25.740284233144276 3.4352243318008444 0 0 0
7534 1 0.6994009385925437 -25.7402842331397 0.9469243317324734 0 0 0
7448 1 5.004259874067349 -25.74023399982028 3.435230823149911 0 0 0
7453 1 5.004259874094709 -25.74023399984227 0.9469308232164625 0 0 0
7371 1 9.309089570105229 -25.74011494671538 3.4350733536081806 0 0 0
7372 1 9.309089570097738 -25.740114946669213 0.9467733535695128 0 0 0
7455 1 7.156677453967747 -25.74017671502453 2.1910209199147856 0 0 0
7370 1 11.4615024040677 -25.74005101595892 2.1908009962615957 0 0 0
7322 1 13.613902974915746 -25.73994719551632 3.4348223248779473 0 0 0
7327 1 13.613902974938362 -25.739947195508307 0.9465223248388958 0 0 0
7329 1 15.766275742265023 -25.739797129377376 2.1905575524247505 0 0 0
7309 1 17.91862938773749 -25.739663031677473 3.434623897661774 0 0 0
7310 1 17.918629387642557 -25.739663031747472 0.9463238977513504 0 0 0
7538 1 2.135635635664369 -23.70708908625958 3.4353856384501076 0 0 0
7547 1 2.135635635653491 -23.707089086234827 0.9470856385516199 0 0 0
7623 1 1.4194270502099489 -21.673911271983098 2.19143279323479 0 0 0
7457 1 6.440494666038999 -23.706992499485192 3.435266261915692 0 0 0
7458 1 6.440494666111806 -23.706992499516254 0.9469662619167828 0 0 0
7549 1 4.288071920411288 -23.707057776559473 2.1912077250550737 0 0 0
7550 1 5.724313526708879 -21.673819337849054 2.191250137998153 0 0 0
7551 1 3.571879171407905 -21.673894268461034 3.4355398106267643 0 0 0
7552 1 3.5718791713431197 -21.67389426844216 0.9472398104855201 0 0 0
7456 1 8.592906881457541 -23.7069216624082 2.1909691919956455 0 0 0
7462 1 7.876722699577907 -21.67372181194726 3.435176413456831 0 0 0
7475 1 7.876722699523322 -21.673721811984112 0.9468764136034185 0 0 0
7376 1 10.7453281533725 -23.70687283216055 3.434937381983947 0 0 0
7385 1 10.745328153349428 -23.70687283210631 0.9466373819839699 0 0 0
7387 1 12.897742242812622 -23.706777225432532 2.190600461027728 0 0 0
7389 1 12.181596121531372 -21.673639386119117 3.434630224157872 0 0 0
7390 1 12.181596121441403 -21.673639386235255 0.9463302242221245 0 0 0
7477 1 10.029154302682581 -21.67369722387606 2.190753626595506 0 0 0
7331 1 15.050114758026135 -23.706588270695462 3.4345900191012833 0 0 0
7332 1 15.050114758011288 -23.706588270580475 0.9462900190899958 0 0 0
7388 1 14.333976671273437 -21.673410518976585 2.190256521816034 0 0 0
7312 1 19.354783629175493 -23.70628267540424 3.434437169398317 0 0 0
7315 1 19.354783629197907 -23.706282675404946 0.9461371692710527 0 0 0
7330 1 17.202452960306363 -23.70639163740123 2.19033122607024 0 0 0
7336 1 16.48630027600458 -21.673130448552506 3.43426918408913 0 0 0
7348 1 16.486300275986704 -21.673130448523228 0.9459691841156477 0 0 0
7350 1 18.6385966578398 -21.672936740836423 2.190082830481019 0 0 0
7624 1 2.8556706620067436 -19.640748562547447 2.19165606063619 0 0 0
7625 1 0.7031950109527757 -19.640735232511705 3.435869341935452 0 0 0
7626 1 0.7031950110072076 -19.640735232542394 0.947569341762668 0 0 0
7630 1 2.1394227898127305 -17.60762079037622 3.436204700350214 0 0 0
7641 1 2.13942278978681 -17.607620790393327 0.9479047005083816 0 0 0
7556 1 5.008131459156753 -19.64067227411065 3.4355913557993243 0 0 0
7571 1 5.008131459100747 -19.640672274093905 0.9472913558349257 0 0 0
7575 1 6.444323092439577 -17.607277362600435 3.4353274257316593 0 0 0
7576 1 6.44432309243995 -17.60727736262098 0.947027425581368 0 0 0
7643 1 4.291942665443487 -17.60758483987944 2.1917200523632183 0 0 0
7479 1 9.312970382638722 -19.640508623845925 3.43483188666754 0 0 0
7480 1 9.312970382597547 -19.640508623817034 0.9465318866075186 0 0 0
7573 1 7.160531477674416 -19.640508267590988 2.1910962629229465 0 0 0
7574 1 8.596750563523672 -17.607269663999016 2.1905389153449417 0 0 0
7478 1 11.465465427151134 -19.640546604813636 2.190278627739769 0 0 0
7484 1 10.74934453391865 -17.607517773603206 3.4340882171823446 0 0 0
7499 1 10.749344533889104 -17.607517773646883 0.9457882172788682 0 0 0
7501 1 12.901799452972316 -17.60723002024504 2.1895129405436338 0 0 0
7394 1 13.617869922857398 -19.640282496347353 3.4341184329436603 0 0 0
7409 1 13.61786992288513 -19.640282496261353 0.9458184329341943 0 0 0
7411 1 15.770187024448028 -19.639896795281516 2.189803899654984 0 0 0
7413 1 15.0541362464891 -17.606725024858985 3.4334852218502236 0 0 0
7414 1 15.05413624651438 -17.60672502482824 0.9451852218398427 0 0 0
7351 1 17.922436684764076 -19.639565662295734 3.4339476217217078 0 0 0
7352 1 17.922436684677233 -19.639565662318166 0.9456476217779339 0 0 0
7354 1 19.35854282395799 -17.606036540185332 3.4338067696070795 0 0 0
7363 1 19.35854282388958 -17.606036540145865 0.9455067694733952 0 0 0
7412 1 17.206326052056 -17.606169266380117 2.1894066105059937 0 0 0
7682 1 1.4230881720635944 -15.574488578444258 2.1926678142497495 0 0 0
7683 1 2.859488467621951 -13.541918368202433 2.1927694883643607 0 0 0
7684 1 0.7065857011975515 -13.541253694798238 3.437786372148771 0 0 0
7685 1 0.7065857011088514 -13.541253694867839 0.9494863719371797 0 0 0
7644 1 5.728087060938577 -15.574042510381615 2.191260516150685 0 0 0
7645 1 3.5757359183321022 -15.574625122452696 3.4362854037375063 0 0 0
7646 1 3.575735918246689 -15.57462512251353 0.9479854035545243 0 0 0
7650 1 5.011830472070044 -13.540884513042583 3.43546303431674 0 0 0
7663 1 5.011830472069357 -13.540884512960044 0.9471630344947428 0 0 0
7580 1 7.880434100187616 -15.57389649559489 3.4344123248854284 0 0 0
7595 1 7.880434100279965 -15.57389649565057 0.9461123250434854 0 0 0
7599 1 9.317025749422138 -13.541816294597055 3.432498166017023 0 0 0
7600 1 9.317025749421108 -13.541816294669468 0.9441981657385948 0 0 0
7665 1 7.163899693654503 -13.540186841012243 2.189735275052814 0 0 0
7503 1 12.18575440179545 -15.574282470197698 3.43293729455299 0 0 0
7504 1 12.18575440178699 -15.57428247019108 0.9446372945085296 0 0 0
7597 1 10.033215048105129 -15.574583455536274 2.189356819018213 0 0 0
7598 1 11.469687456595675 -13.541452393463416 2.1876239176126266 0 0 0
7502 1 14.33817386441119 -15.573682669715277 2.1886398065684443 0 0 0
7508 1 13.622310549840421 -13.540887684289531 3.4317623187218462 0 0 0
7521 1 13.622310549866805 -13.54088768429104 0.9434623188368105 0 0 0
7523 1 15.774444176163982 -13.53944101076091 2.1882321373737526 0 0 0
7418 1 16.490306066023926 -15.572764333543699 3.4330365302608663 0 0 0
7432 1 16.490306066015787 -15.57276433360918 0.9447365302433598 0 0 0
7434 1 18.64238526128734 -15.572395210440547 2.1893622710201615 0 0 0
7435 1 17.926233626711504 -13.538426503427969 3.433248259688762 0 0 0
7436 1 17.926233626605534 -13.538426503375508 0.9449482597286528 0 0 0
7530 1 2.851833053801383 -25.740270814827806 7.167697899994174 0 0 0
7531 1 0.6994009385610038 -25.74028423321155 5.923524331662939 0 0 0
7535 1 2.851833053739816 -25.740270814790247 4.679397899980535 0 0 0
7447 1 5.00425987406947 -25.740233999785307 5.923530823113723 0 0 0
7369 1 9.309089570084831 -25.740114946726816 5.923373353569555 0 0 0
7446 1 7.156677453979214 -25.740176714976368 4.679320919905674 0 0 0
7449 1 7.156677453975271 -25.74017671503222 7.16762092001488 0 0 0
7368 1 11.46150240410472 -25.74005101594995 7.167400996316518 0 0 0
7373 1 11.4615024040483 -25.740051015980757 4.679100996165585 0 0 0
7320 1 15.766275742233915 -25.73979712933536 4.678857552465964 0 0 0
7321 1 13.613902974955991 -25.739947195449886 5.92312232490309 0 0 0
7323 1 15.766275742302518 -25.739797129335034 7.167157552459959 0 0 0
7308 1 17.918629387667387 -25.73966303173944 5.922923897752035 0 0 0
7537 1 2.135635635594569 -23.70708908629524 5.923685638450821 0 0 0
7616 1 1.4194270503335376 -21.67391127187629 4.67973279318123 0 0 0
7617 1 1.419427050223013 -21.67391127195959 7.168032793281383 0 0 0
7451 1 6.440494666082443 -23.706992499513976 5.923566261874391 0 0 0
7536 1 4.288071920474362 -23.707057776461152 4.679507725033179 0 0 0
7539 1 4.288071920407992 -23.707057776558532 7.167807725056995 0 0 0
7540 1 5.724313526709082 -21.673819337912484 7.1678501380526605 0 0 0
7541 1 3.5718791713796127 -21.67389426845984 5.923839810409417 0 0 0
7553 1 5.724313526684587 -21.673819337885323 4.679550138004607 0 0 0
7450 1 8.592906881445453 -23.706921662476784 7.167569191941068 0 0 0
7459 1 8.592906881388714 -23.70692166253213 4.679269191967013 0 0 0
7461 1 7.876722699532475 -21.673721812020766 5.923476413509378 0 0 0
7374 1 12.897742242811916 -23.70677722543828 4.678900461122602 0 0 0
7375 1 10.74532815335784 -23.706872832154367 5.923237381942887 0 0 0
7377 1 12.897742242792871 -23.7067772254405 7.1672004611563676 0 0 0
7379 1 12.181596121550573 -21.673639386133544 5.922930224189937 0 0 0
7460 1 10.029154302639615 -21.673697223811793 4.67905362653232 0 0 0
7463 1 10.029154302664269 -21.673697223830043 7.167353626480988 0 0 0
7325 1 15.050114757946753 -23.706588270627908 5.922890019055093 0 0 0
7378 1 14.333976671247967 -21.673410518969085 7.1668565218244 0 0 0
7391 1 14.333976671301523 -21.673410518976386 4.678556521785955 0 0 0
7311 1 19.354783629165254 -23.7062826753859 5.9227371691802775 0 0 0
7324 1 17.202452960238723 -23.706391637362444 7.166931226125978 0 0 0
7333 1 17.202452960233245 -23.706391637317832 4.678631226023035 0 0 0
7334 1 18.638596657688314 -21.67293674086604 4.678382830520794 0 0 0
7335 1 16.486300276025315 -21.6731304485515 5.922569184030531 0 0 0
7337 1 18.63859665779912 -21.672936740782962 7.1666828304799415 0 0 0
7618 1 2.8556706620496657 -19.640748562591934 7.168256060641262 0 0 0
7619 1 0.7031950109840148 -19.640735232552313 5.924169341784815 0 0 0
7627 1 2.8556706619465766 -19.640748562665443 4.679956060622754 0 0 0
7629 1 2.1394227898262472 -17.607620790395075 5.924504700486974 0 0 0
7555 1 5.0081314590765595 -19.64067227419812 5.923891355866647 0 0 0
7559 1 6.444323092510744 -17.60727736255139 5.923627425605626 0 0 0
7628 1 4.291942665520876 -17.607584839708263 4.680020052389071 0 0 0
7631 1 4.2919426654460295 -17.607584839877806 7.168320052421632 0 0 0
7465 1 9.312970382606357 -19.64050862377894 5.923131886607728 0 0 0
7554 1 7.16053147771454 -19.64050826745 4.679396262865388 0 0 0
7557 1 7.160531477617177 -19.64050826760051 7.1676962628722185 0 0 0
7558 1 8.596750563579562 -17.607269663959276 7.167138915387207 0 0 0
7577 1 8.596750563454103 -17.60726966407169 4.67883891536165 0 0 0
7464 1 11.465465427169118 -19.64054660478747 7.166878627798782 0 0 0
7481 1 11.465465427093875 -19.640546604818333 4.678578627745864 0 0 0
7482 1 12.901799452963363 -17.60723002023623 4.67781294055284 0 0 0
7483 1 10.749344533881185 -17.607517773643472 5.92238821725246 0 0 0
7485 1 12.901799452963315 -17.60723002027337 7.166112940525262 0 0 0
7392 1 15.77018702444842 -19.639896795248223 4.678103899621242 0 0 0
7393 1 13.617869922896205 -19.6402824963115 5.92241843282772 0 0 0
7395 1 15.770187024506829 -19.639896795219336 7.1664038996556005 0 0 0
7397 1 15.054136246419684 -17.60672502492783 5.921785221800171 0 0 0
7338 1 17.92243668478028 -19.639565662328593 5.922247621754503 0 0 0
7353 1 19.358542823890907 -17.60603654014138 5.922106769529611 0 0 0
7396 1 17.206326051993443 -17.606169266407456 7.166006610451506 0 0 0
7415 1 17.20632605207618 -17.606169266291317 4.677706610478194 0 0 0
7675 1 1.423088172137808 -15.5744885782009 4.680967814397604 0 0 0
7676 1 1.4230881720138275 -15.574488578412344 7.169267814253952 0 0 0
7677 1 2.8594884676237564 -13.541918368211613 7.169369488255603 0 0 0
7678 1 0.7065857012363485 -13.541253694907825 5.926086371935365 0 0 0
7686 1 2.859488467482077 -13.54191836835317 4.681069488282996 0 0 0
7632 1 5.72808706092605 -15.574042510422503 7.167860516094004 0 0 0
7633 1 3.575735918290598 -15.574625122522198 5.924585403484418 0 0 0
7647 1 5.728087060911907 -15.57404251055656 4.67956051603034 0 0 0
7649 1 5.011830472036911 -13.540884513091138 5.923763034460665 0 0 0
7579 1 7.880434100298332 -15.573896495634248 5.92271232503691 0 0 0
7583 1 9.31702574941178 -13.541816294582464 5.920798165800791 0 0 0
7648 1 7.163899693697036 -13.540186840931337 4.678035275080666 0 0 0
7651 1 7.163899693592586 -13.540186841040379 7.166335275041368 0 0 0
7487 1 12.1857544018152 -15.574282470151745 5.921237294485181 0 0 0
7578 1 10.03321504807656 -15.574583455423964 4.6776568189893375 0 0 0
7581 1 10.033215048021816 -15.574583455536487 7.1659568190618925 0 0 0
7582 1 11.46968745652776 -13.54145239349344 7.164223917582826 0 0 0
7601 1 11.469687456466005 -13.541452393516424 4.675923917668713 0 0 0
7486 1 14.338173864272267 -15.573682669707072 7.1652398065589535 0 0 0
7505 1 14.338173864286603 -15.573682669802135 4.676939806574671 0 0 0
7506 1 15.774444176161328 -13.539441010717635 4.676532137255157 0 0 0
7507 1 13.622310549802341 -13.540887684328537 5.920062318771131 0 0 0
7509 1 15.774444176117767 -13.539441010761694 7.164832137296909 0 0 0
7416 1 18.642385261252365 -15.572395210414973 4.677662270988622 0 0 0
7417 1 16.490306066049296 -15.572764333687838 5.921336530265543 0 0 0
7419 1 18.642385261280673 -15.572395210360979 7.165962271055686 0 0 0
7420 1 17.926233626718354 -13.538426503378139 5.92154825973481 0 0 0
7897 1 2.143184047824942 -11.509624794261812 -4.02698350366279 0 0 0
7898 1 2.1431840476813497 -11.509624794353353 -6.515283503850105 0 0 0
7818 1 6.446900899116642 -11.505674898905733 -4.032006532880664 0 0 0
7834 1 6.446900899106219 -11.505674898907168 -6.520306532696074 0 0 0
7896 1 4.295636124705581 -11.508094112372177 -5.2736622077044535 0 0 0
7835 1 8.600727565417603 -11.509350453543544 -5.27833999928521 0 0 0
7759 1 10.753419433107412 -11.508732957715875 -4.034993287541363 0 0 0
7760 1 10.753419433026695 -11.5087329576359 -6.523293287687767 0 0 0
7758 1 12.906512574558382 -11.50848593617226 -5.278796864697102 0 0 0
7715 1 15.058866315590759 -11.506492222822896 -4.033249204199502 0 0 0
7725 1 15.058866315614946 -11.50649222288434 -6.521549204198301 0 0 0
7726 1 17.209943235042573 -11.503730019669653 -5.275895248368269 0 0 0
7700 1 19.36333637805026 -11.506843852226785 -4.030316480178134 0 0 0
7701 1 19.363336378001254 -11.506843852226819 -6.518616480204607 0 0 0
7968 1 1.426486093471206 -9.478088500043484 -5.269486890143239 0 0 0
7972 1 0.7089994947143929 -7.446554779397571 -4.0223422196602865 0 0 0
7986 1 0.7089994951074262 -7.446554779173269 -6.510642219534008 0 0 0
7987 1 2.865082575371877 -7.449056303961967 -5.275858487562596 0 0 0
7902 1 3.5799897128592297 -9.476440229377962 -4.029997286981351 0 0 0
7918 1 3.5799897128544793 -9.4764402290538 -6.518297286382709 0 0 0
7919 1 5.728935052177087 -9.469261988876449 -5.27798396653501 0 0 0
7921 1 5.009667561380101 -7.427620228658839 -4.037058777887569 0 0 0
7922 1 5.0096675610225505 -7.42762022869195 -6.52535877799264 0 0 0
7837 1 7.884308590397244 -9.477634154641377 -4.037461904273605 0 0 0
7838 1 7.8843085904106305 -9.477634154758292 -6.525761904654973 0 0 0
7842 1 9.319359942914739 -7.442395972030674 -4.042366241399 0 0 0
7856 1 9.319359943073763 -7.442395972061804 -6.530666241261911 0 0 0
7920 1 7.16800720259001 -7.447850985103304 -5.287899875335816 0 0 0
7764 1 12.190330045291674 -9.476743418168278 -4.0368611178234275 0 0 0
7779 1 12.190330045268109 -9.47674341812556 -6.525161117644253 0 0 0
7836 1 10.0367407896873 -9.475844373999957 -5.282099843931544 0 0 0
7857 1 11.473146335319523 -7.444642120073525 -5.284360570619932 0 0 0
7780 1 14.343967352495095 -9.474714931198118 -5.277968364675273 0 0 0
7781 1 15.775099711859221 -7.426070916245314 -5.274357148979534 0 0 0
7782 1 13.629720660359958 -7.4471546509505675 -4.033481724170278 0 0 0
7783 1 13.62972066038312 -7.4471546507383195 -6.52178172442504 0 0 0
7727 1 18.64813993665935 -9.474844811259903 -5.273111343647088 0 0 0
7728 1 16.493079305190008 -9.467272360201846 -4.031397829662834 0 0 0
7729 1 16.49307930527523 -9.467272360214443 -6.519697829587022 0 0 0
7732 1 17.933328472957495 -7.444615153229318 -4.025444713801892 0 0 0
7735 1 17.933328472904183 -7.4446151532503455 -6.513744713782832 0 0 0
7989 1 2.1538929772866036 -5.430283730891746 -4.037212746078644 0 0 0
7990 1 2.1538929773476054 -5.430283731794804 -6.525512747468059 0 0 0
8021 1 1.452929738161779 -3.43203919991901 -5.299693417742604 0 0 0
7988 1 4.283099759480894 -5.377602703399701 -5.286114347906018 0 0 0
7994 1 3.552482955260083 -3.287829502539675 -4.048837711209691 0 0 0
8000 1 3.552482956212043 -3.287829502173268 -6.537137711334574 0 0 0
8001 1 5.738595408953038 -3.414933407860592 -5.3320242297731095 0 0 0
7926 1 6.456352512879237 -5.420660581347267 -4.05691705231799 0 0 0
7936 1 6.456352512779108 -5.420660581012444 -6.545217051469319 0 0 0
7937 1 8.601967990091246 -5.408373343312607 -5.291787081343759 0 0 0
7939 1 7.900647809269017 -3.3622691200787123 -4.046864636475683 0 0 0
7940 1 7.900647808975149 -3.3622691200241395 -6.535164636860735 0 0 0
7859 1 10.752170584796964 -5.410012440635321 -4.046000340028358 0 0 0
7860 1 10.752170584978764 -5.410012440671499 -6.5343003402796755 0 0 0
7864 1 12.212928978125042 -3.4326610983839565 -4.015863503637808 0 0 0
7870 1 12.212928978276597 -3.432661098682637 -6.504163502919051 0 0 0
7938 1 10.025154336715087 -3.3586969781249865 -5.303377290107661 0 0 0
7787 1 15.050448014992302 -5.377428463310615 -4.028114550921429 0 0 0
7795 1 15.050448014894863 -5.377428463310448 -6.516414550914492 0 0 0
7858 1 12.919125412268766 -5.427685197351244 -5.274154868965997 0 0 0
7871 1 14.324931943733617 -3.2920934109137665 -5.269756095452767 0 0 0
7796 1 17.221491231209257 -5.4161041715097555 -5.260372697897583 0 0 0
7797 1 18.67457591175654 -3.3822561877314503 -5.2820109272004805 0 0 0
7798 1 16.500859862974927 -3.402187651251475 -3.9900480382881742 0 0 0
7799 1 16.500859862960475 -3.4021876511493248 -6.478348038368899 0 0 0
8025 1 0.7596552372926237 -1.4919766824652674 -4.120216441811183 0 0 0
8027 1 0.759655237456717 -1.4919766809492125 -6.608516439605752 0 0 0
8028 1 2.8435311393599934 -1.1104140121179755 -5.277447642599183 0 0 0
8003 1 5.0355671984618455 -1.4076353211070958 -4.157800107288077 0 0 0
8004 1 5.035567198511544 -1.4076353218282087 -6.646100108256112 0 0 0
7944 1 9.388268986583668 -1.2156107503931182 -4.09426285159659 0 0 0
7946 1 9.388268986311447 -1.2156107502761602 -6.582562851337541 0 0 0
8002 1 7.172637716288929 -1.3663561461546856 -5.228442032422131 0 0 0
7947 1 11.504198447230548 -1.4886722087949524 -5.206494511608817 0 0 0
7872 1 15.805461211388529 -1.3667111958818825 -5.173137328048493 0 0 0
7873 1 13.57999618001693 -1.1589822973022619 -4.062109387729885 0 0 0
7874 1 13.579996180285807 -1.1589822971233978 -6.550409387781492 0 0 0
7802 1 17.95414241385726 -1.4110356073908854 -4.110114909402504 0 0 0
7803 1 17.954142413872678 -1.4110356073704613 -6.5984149094549815 0 0 0
7884 1 2.1431840477413973 -11.509624794371252 -1.538683503806469 0 0 0
7817 1 6.446900899164701 -11.505674898865509 -1.5437065327051072 0 0 0
7882 1 4.2956361246444965 -11.508094112350669 -0.29706220765455793 0 0 0
7899 1 4.295636124584295 -11.508094112595584 -2.785362207957016 0 0 0
7816 1 8.60072756551992 -11.509350453394616 -2.7900399992028673 0 0 0
7819 1 8.60072756546804 -11.509350453561291 -0.30173999930496653 0 0 0
7746 1 10.753419433127497 -11.508732957673331 -1.5466932877468116 0 0 0
7744 1 12.90651257450474 -11.508485936192974 -0.30219686468600876 0 0 0
7761 1 12.906512574462631 -11.50848593621483 -2.7904968646909505 0 0 0
7714 1 15.058866315597957 -11.506492222857974 -1.5449492041621107 0 0 0
7713 1 17.209943235063175 -11.503730019638917 -2.787595248374851 0 0 0
7716 1 17.20994323509314 -11.503730019687262 -0.29929524832742094 0 0 0
7699 1 19.363336378012196 -11.50684385219507 -1.5420164802261371 0 0 0
7955 1 1.4264860934641557 -9.47808850003433 -0.29288689006564117 0 0 0
7969 1 1.4264860931454086 -9.478088500250122 -2.781186890298584 0 0 0
7970 1 2.8650825753828846 -7.449056303338991 -2.7875584867553984 0 0 0
7971 1 0.7089994951463618 -7.446554779121351 -1.5340422195301244 0 0 0
7973 1 2.865082575357916 -7.449056304006886 -0.2992584875170408 0 0 0
7900 1 5.728935052395622 -9.469261988677111 -2.7896839664421504 0 0 0
7901 1 3.5799897128914515 -9.476440229039772 -1.5416972863296432 0 0 0
7903 1 5.728935052070588 -9.469261988863535 -0.3013839664634329 0 0 0
7906 1 5.009667561069577 -7.427620228818401 -1.5487587779786969 0 0 0
7822 1 7.884308590468196 -9.477634154763727 -1.54916190469087 0 0 0
7841 1 9.319359943035723 -7.442395972141582 -1.5540662411799042 0 0 0
7904 1 7.168007202505876 -7.447850985164815 -0.31129987528849024 0 0 0
7923 1 7.168007202424939 -7.447850985538553 -2.799599875682164 0 0 0
7763 1 12.190330045137927 -9.47674341812511 -1.5485611176784304 0 0 0
7820 1 10.036740789602268 -9.475844374049837 -0.30549984406693437 0 0 0
7839 1 10.036740789496092 -9.475844374158834 -2.7937998438563336 0 0 0
7840 1 11.47314633543616 -7.444642119912137 -2.7960605705765897 0 0 0
7843 1 11.473146335336553 -7.4446421200756605 -0.3077605706415337 0 0 0
7762 1 14.34396735254693 -9.474714931104575 -2.7896683648195912 0 0 0
7765 1 14.343967352491351 -9.474714931198443 -0.3013683646248805 0 0 0
7766 1 15.775099711955072 -7.42607091625976 -0.2977571490397895 0 0 0
7768 1 13.629720660381986 -7.447154650820642 -1.5451817244108934 0 0 0
7784 1 15.775099711809089 -7.426070916350735 -2.786057149019077 0 0 0
7717 1 18.648139936628258 -9.474844811294084 -0.29651134357136477 0 0 0
7719 1 16.49307930528511 -9.467272360196734 -1.5430978296145161 0 0 0
7730 1 18.648139936689866 -9.474844811298999 -2.784811343498191 0 0 0
7731 1 17.93332847284146 -7.444615153349084 -1.537144713854574 0 0 0
7976 1 2.1538929773142343 -5.430283731768906 -1.5489127475003195 0 0 0
8014 1 1.4529297381616195 -3.432039199981775 -0.3230934177558325 0 0 0
8022 1 1.4529297384489 -3.432039201097902 -2.811393419963533 0 0 0
7974 1 4.2830997594392946 -5.377602703419941 -0.3095143479312594 0 0 0
7991 1 4.2830997588226545 -5.377602703669359 -2.7978143478573188 0 0 0
7992 1 5.738595409035597 -3.414933407156066 -2.8437242289224822 0 0 0
7993 1 3.5524829561682956 -3.2878295022056543 -1.5605377113255032 0 0 0
7995 1 5.738595408982201 -3.414933407837687 -0.35542422975863863 0 0 0
7925 1 6.456352512734605 -5.420660581027022 -1.5686170516122864 0 0 0
7924 1 8.601967990376274 -5.408373342977617 -2.8034870814711916 0 0 0
7927 1 8.60196799012769 -5.4083733432993775 -0.31518708129854206 0 0 0
7930 1 7.9006478090159495 -3.362269120040509 -1.5585646368513795 0 0 0
7846 1 10.752170584966345 -5.410012440652332 -1.5577003402329612 0 0 0
7863 1 12.21292897829354 -3.432661098724705 -1.527563502976944 0 0 0
7928 1 10.025154336719286 -3.3586969781326177 -0.3267772900885109 0 0 0
7941 1 10.025154336364695 -3.3586969783932417 -2.815077290342137 0 0 0
7786 1 15.050448014850371 -5.377428463326522 -1.5398145509731758 0 0 0
7844 1 12.919125412338126 -5.427685197289836 -0.29755486894200806 0 0 0
7861 1 12.91912541224472 -5.427685197639157 -2.78585486853427 0 0 0
7862 1 14.324931943981479 -3.2920934107252604 -2.7814560953544647 0 0 0
7865 1 14.324931943755134 -3.292093410827382 -0.2931560954124506 0 0 0
7785 1 17.22149123124013 -5.416104171507219 -2.772072698097706 0 0 0
7788 1 17.22149123126447 -5.416104171582516 -0.2837726977970234 0 0 0
7789 1 18.674575911792353 -3.3822561878096185 -0.3054109271367017 0 0 0
7791 1 16.5008598629591 -3.402187651060845 -1.50174803839965 0 0 0
7800 1 18.674575911730535 -3.382256187747097 -2.793710927066896 0 0 0
8023 1 2.843531140276081 -1.1104140119862234 -2.7891476424809944 0 0 0
8024 1 0.7596552374688292 -1.4919766809476065 -1.6319164396098702 0 0 0
8026 1 2.8435311393599343 -1.1104140121783102 -0.30084764255692453 0 0 0
7998 1 5.035567198556476 -1.4076353218486592 -1.6695001083383236 0 0 0
7943 1 9.388268986284837 -1.2156107502667461 -1.6059628513908342 0 0 0
7996 1 7.1726377162291275 -1.3663561461237743 -0.2518420324498629 0 0 0
8005 1 7.172637716006236 -1.3663561464019625 -2.74014203217017 0 0 0
7942 1 11.504198447295451 -1.4886722082793804 -2.718194512361254 0 0 0
7945 1 11.504198447239238 -1.4886722088557778 -0.229894511566887 0 0 0
7866 1 15.805461211461141 -1.3667111957817644 -0.1965373280956964 0 0 0
7868 1 13.579996180322587 -1.158982297140702 -1.5738093877837638 0 0 0
7875 1 15.805461211492391 -1.3667111959394858 -2.6848373278640345 0 0 0
7801 1 17.954142413858055 -1.4110356074208794 -1.621814909431937 0 0 0
7878 1 2.1431840477000756 -11.5096247943492 3.4379164961628637 0 0 0
7883 1 2.1431840477932855 -11.509624794268863 0.9496164963940812 0 0 0
7807 1 6.446900899148901 -11.505674898910339 3.4328934672626117 0 0 0
7808 1 6.446900899039933 -11.505674898899557 0.944593467135157 0 0 0
7885 1 4.2956361246057275 -11.508094112618986 2.1912377920736446 0 0 0
7806 1 8.600727565470557 -11.50935045333842 2.1865600007837878 0 0 0
7740 1 10.75341943306191 -11.508732957646597 3.42990671234133 0 0 0
7745 1 10.75341943305326 -11.508732957674937 0.9416067124480803 0 0 0
7747 1 12.906512574514549 -11.508485936262794 2.1861031353511504 0 0 0
7705 1 15.0588663155795 -11.506492222900423 3.431650795890565 0 0 0
7706 1 15.058866315612969 -11.506492222795536 0.9433507957175613 0 0 0
7704 1 17.209943235049632 -11.50373001967278 2.1890047516283957 0 0 0
7697 1 19.363336378027064 -11.506843852223062 3.434583519828344 0 0 0
7698 1 19.363336377975372 -11.50684385228308 0.9462835197857677 0 0 0
7956 1 1.4264860931678272 -9.478088500265281 2.1954131097263914 0 0 0
7957 1 2.8650825754117597 -7.449056303384384 2.1890415132473033 0 0 0
7958 1 0.708999495087899 -7.446554779119079 3.442557780460943 0 0 0
7959 1 0.708999494744528 -7.446554779435613 0.9542577803715886 0 0 0
7886 1 5.728935052442313 -9.4692619886837 2.1869160335159386 0 0 0
7887 1 3.5799897128627602 -9.476440229107048 3.4349027136018386 0 0 0
7888 1 3.579989712837667 -9.47644022933316 0.9466027131069494 0 0 0
7892 1 5.009667561078827 -7.427620228763259 3.427841222025827 0 0 0
7905 1 5.009667561357288 -7.427620228600542 0.9395412221810824 0 0 0
7812 1 7.884308590454386 -9.477634154745653 3.4274380953390153 0 0 0
7821 1 7.8843085903514005 -9.47763415465021 0.9391380957229268 0 0 0
7825 1 9.319359943019915 -7.442395972089217 3.422533758855067 0 0 0
7826 1 9.319359942974973 -7.442395971968895 0.9342337585073227 0 0 0
7907 1 7.16800720248829 -7.447850985499197 2.1770001243159967 0 0 0
7749 1 12.190330045173473 -9.476743418191633 3.4280388823602546 0 0 0
7750 1 12.190330045340755 -9.476743418140078 0.939738882217288 0 0 0
7823 1 10.03674078952306 -9.475844374152592 2.182800156154954 0 0 0
7824 1 11.473146335487964 -7.444642119908587 2.180539429467297 0 0 0
7748 1 14.34396735252459 -9.47471493111674 2.186931635178045 0 0 0
7754 1 13.629720660352902 -7.4471546508114175 3.431418275574415 0 0 0
7767 1 13.629720660388584 -7.447154650916129 0.943118275802421 0 0 0
7769 1 15.775099711770048 -7.426070916307346 2.190542851010024 0 0 0
7710 1 16.49307930524463 -9.467272360180706 3.4335021703075372 0 0 0
7718 1 16.493079305195884 -9.46727236026726 0.9452021704309782 0 0 0
7720 1 18.64813993665669 -9.474844811291572 2.1917886564403815 0 0 0
7721 1 17.933328472930334 -7.4446151533284315 3.439455286301154 0 0 0
7722 1 17.93332847293116 -7.444615153165293 0.951155286119808 0 0 0
7963 1 2.153892977371509 -5.430283731795156 3.4276872525412165 0 0 0
7975 1 2.153892977280623 -5.430283730892415 0.9393872538999438 0 0 0
8015 1 1.4529297385517932 -3.4320392011194945 2.165206580080484 0 0 0
7977 1 4.283099758870752 -5.377602703679684 2.178785652166025 0 0 0
7978 1 5.738595409024053 -3.414933407172986 2.1328757710909843 0 0 0
7979 1 3.552482956187953 -3.287829502224471 3.416062288647001 0 0 0
7980 1 3.5524829553267234 -3.287829502462636 0.9277622887863191 0 0 0
7909 1 6.456352512806649 -5.420660580986728 3.4079829484744657 0 0 0
7910 1 6.456352512880436 -5.4206605813904805 0.9196829476978967 0 0 0
7908 1 8.60196799036722 -5.408373342996868 2.1731129184659905 0 0 0
7914 1 7.900647808982977 -3.3622691200109385 3.4180353631241713 0 0 0
7929 1 7.900647809256404 -3.3622691200585386 0.9297353635338459 0 0 0
7830 1 10.752170584981622 -5.410012440651551 3.4188996597354375 0 0 0
7845 1 10.752170584823354 -5.410012440659216 0.9305996599837877 0 0 0
7849 1 12.212928978260809 -3.432661098779424 3.4490364970697946 0 0 0
7850 1 12.212928978139825 -3.4326610983163026 0.9607364963864197 0 0 0
7931 1 10.025154336322876 -3.358696978380872 2.161522709640347 0 0 0
7771 1 15.050448014838627 -5.377428463380514 3.4367854490759386 0 0 0
7772 1 15.050448015063807 -5.377428463258342 0.948485449082634 0 0 0
7847 1 12.919125412273878 -5.427685197655927 2.1907451314325623 0 0 0
7848 1 14.324931943986535 -3.2920934108068947 2.195143904633768 0 0 0
7770 1 17.22149123119133 -5.416104171431834 2.2045273019322797 0 0 0
7776 1 16.50085986299829 -3.4021876510848497 3.4748519615384965 0 0 0
7790 1 16.500859862948364 -3.402187651301814 0.9865519618617077 0 0 0
7792 1 18.674575911709034 -3.3822561877085535 2.182889072917856 0 0 0
8016 1 2.8435311402781456 -1.1104140119862316 2.1874523574971505 0 0 0
8017 1 0.7596552374517982 -1.4919766809034336 3.3446835604026415 0 0 0
8018 1 0.7596552372882991 -1.4919766825682959 0.8563835582142786 0 0 0
7984 1 5.035567198595712 -1.4076353217920337 3.3070998917399503 0 0 0
7997 1 5.035567198447554 -1.4076353211743629 0.8187998926822962 0 0 0
7933 1 9.388268986354143 -1.2156107502916786 3.3706371485936426 0 0 0
7934 1 9.388268986521961 -1.2156107503789437 0.8823371484783009 0 0 0
7999 1 7.172637715984494 -1.366356146445422 2.2364579677691454 0 0 0
7932 1 11.504198447285889 -1.4886722082638282 2.258405487696856 0 0 0
7854 1 13.579996180236883 -1.1589822972275146 3.402790612257406 0 0 0
7867 1 13.579996180016986 -1.158982297192333 0.9144906122861098 0 0 0
7869 1 15.805461211388401 -1.3667111959900313 2.2917626721269877 0 0 0
7793 1 17.954142413775187 -1.4110356074578636 3.3547850904978933 0 0 0
7794 1 17.9541424139417 -1.4110356073045411 0.8664850905926429 0 0 0
7877 1 2.1431840478655495 -11.509624794245665 5.926216496342383 0 0 0
7805 1 6.446900899067814 -11.5056748989135 5.921193467131526 0 0 0
7876 1 4.295636124682565 -11.508094112349358 4.6795377922444965 0 0 0
7879 1 4.2956361245576105 -11.508094112635781 7.167837792120964 0 0 0
7804 1 8.600727565521124 -11.50935045335208 7.163160000779396 0 0 0
7809 1 8.600727565415077 -11.509350453580677 4.674860000700979 0 0 0
7739 1 10.753419433123602 -11.508732957703991 5.91820671237908 0 0 0
7738 1 12.906512574497048 -11.508485936117337 4.6744031353414695 0 0 0
7741 1 12.906512574454801 -11.508485936255584 7.162703135291666 0 0 0
7703 1 15.058866315601097 -11.506492222814202 5.919950795761427 0 0 0
7702 1 17.209943235098823 -11.50373001968935 7.165604751640911 0 0 0
7707 1 17.209943235037418 -11.503730019666857 4.677304751649551 0 0 0
7696 1 19.36333637797529 -11.506843852238058 5.922883519768648 0 0 0
7950 1 1.4264860934070527 -9.478088500006699 4.683713109829624 0 0 0
7951 1 1.4264860931322054 -9.478088500239572 7.172013109784702 0 0 0
7952 1 2.865082575370673 -7.449056303427751 7.165641513252278 0 0 0
7953 1 0.7089994947172988 -7.446554779382551 5.930857780368138 0 0 0
7960 1 2.865082575339318 -7.449056303915152 4.6773415124606625 0 0 0
7880 1 5.7289350523454665 -9.469261988698165 7.163516033481315 0 0 0
7881 1 3.5799897128648177 -9.476440229331272 5.923202713113088 0 0 0
7889 1 5.728935052131861 -9.469261988881994 4.675216033592288 0 0 0
7891 1 5.009667561381581 -7.427620228704813 5.916141222161753 0 0 0
7811 1 7.8843085904251655 -9.477634154693945 5.9157380957035555 0 0 0
7815 1 9.319359942958846 -7.4423959720739115 5.910833758603121 0 0 0
7890 1 7.168007202538844 -7.447850985163192 4.665300124700985 0 0 0
7893 1 7.168007202377755 -7.4478509855846715 7.153600124368415 0 0 0
7743 1 12.190330045203426 -9.476743418086992 5.916338882152783 0 0 0
7810 1 10.036740789641273 -9.475844373973436 4.671100156036912 0 0 0
7813 1 10.036740789460593 -9.475844374204344 7.15940015608466 0 0 0
7814 1 11.473146335533825 -7.444642119865959 7.157139429404343 0 0 0
7827 1 11.47314633534021 -7.4446421200831 4.668839429356157 0 0 0
7742 1 14.34396735255592 -9.474714931094045 7.163531635218354 0 0 0
7751 1 14.343967352479611 -9.474714931210777 4.675231635353247 0 0 0
7752 1 15.775099711912077 -7.426070916334008 4.678842850965236 0 0 0
7753 1 13.629720660454538 -7.447154650963117 5.91971827585343 0 0 0
7755 1 15.775099711894418 -7.426070916291981 7.167142850958099 0 0 0
7708 1 18.64813993665956 -9.474844811285072 4.680088656384378 0 0 0
7709 1 16.493079305198155 -9.467272360254375 5.921802170415023 0 0 0
7711 1 18.648139936614044 -9.474844811317691 7.168388656505431 0 0 0
7712 1 17.933328472866318 -7.4446151532611005 5.9277552860614735 0 0 0
7962 1 2.1538929772361097 -5.430283730888065 5.9159872538699485 0 0 0
8008 1 1.4529297381519852 -3.432039199937561 4.653506582234294 0 0 0
8009 1 1.452929738566396 -3.432039201157803 7.141806580007661 0 0 0
7961 1 4.283099759459979 -5.3776027033782725 4.667085652088347 0 0 0
7964 1 4.283099758821011 -5.377602703685239 7.155385652095946 0 0 0
7965 1 5.73859540905097 -3.4149334071109556 7.10947577112988 0 0 0
7966 1 3.552482955331624 -3.287829502513983 5.904362288795149 0 0 0
7981 1 5.738595409009723 -3.4149334078809637 4.62117577018224 0 0 0
7895 1 6.456352512854724 -5.420660581399584 5.8962829476130585 0 0 0
7894 1 8.601967990397224 -5.408373343029343 7.149712918512368 0 0 0
7911 1 8.601967990068704 -5.408373343273489 4.66141291872524 0 0 0
7913 1 7.900647809298578 -3.36226912008433 5.906335363534384 0 0 0
7829 1 10.752170584774284 -5.4100124406331895 5.907199659979991 0 0 0
7833 1 12.212928978116873 -3.4326610983522943 5.93733649631631 0 0 0
7912 1 10.025154336729948 -3.3586969781052436 4.649822709895692 0 0 0
7915 1 10.02515433633103 -3.3586969783973233 7.138122709663123 0 0 0
7757 1 15.050448015006989 -5.377428463277282 5.9250854490165334 0 0 0
7828 1 12.91912541227715 -5.427685197347859 4.679045131069475 0 0 0
7831 1 12.919125412312956 -5.427685197562814 7.167345131494184 0 0 0
7832 1 14.324931943975905 -3.2920934107131776 7.171743904585359 0 0 0
7851 1 14.32493194371386 -3.2920934107894997 4.683443904621992 0 0 0
7756 1 17.221491231230274 -5.416104171479267 7.181127302037014 0 0 0
7773 1 17.22149123124886 -5.416104171605915 4.692827302116092 0 0 0
7774 1 18.67457591175101 -3.382256187746262 4.671189072827243 0 0 0
7775 1 16.500859862896903 -3.402187651201823 5.963151961787812 0 0 0
7777 1 18.67457591169558 -3.3822561877843658 7.159489072939641 0 0 0
8010 1 2.843531140263141 -1.1104140120488502 7.16405235754445 0 0 0
8011 1 0.7596552373299349 -1.4919766825839336 5.832983558169143 0 0 0
8019 1 2.8435311393807505 -1.1104140121029797 4.675752357408817 0 0 0
7983 1 5.035567198455836 -1.4076353211851895 5.795399892625786 0 0 0
7917 1 9.388268986494088 -1.2156107503785998 5.858937148488593 0 0 0
7982 1 7.172637716331989 -1.366356146103766 4.7247579676323035 0 0 0
7985 1 7.172637715892681 -1.3663561464179548 7.2130579677985205 0 0 0
7916 1 11.504198447328877 -1.4886722083128487 7.23500548768696 0 0 0
7935 1 11.504198447208134 -1.4886722088229531 4.746705488389745 0 0 0
7852 1 15.805461211498615 -1.3667111957939297 4.780062671945089 0 0 0
7853 1 13.579996180062246 -1.1589822971301758 5.891090612251939 0 0 0
7855 1 15.805461211478416 -1.366711195915601 7.268362672092598 0 0 0
7778 1 17.954142413929528 -1.411035607299791 5.843085090613089 0 0 0
2676 1 0.8349336648013331 0.5703398858020688 -5.635363240446839 0 0 0
2686 1 0.9439050379167636 3.0608001742037017 -5.8822145473496175 0 0 0
8396 1 2.6705128122500246 1.7129766386613554 -7.0444594557940485 0 0 1
8405 1 2.6705128126238518 1.712976638727271 -4.556159455689377 0 0 0
8332 1 6.2409280548257895 1.8558980550830693 -7.13802261857815 0 0 1
8349 1 6.240928054766667 1.855898055081798 -4.649722618774344 0 0 0
8351 1 4.497755342949506 0.6314921945987957 -5.718782773602465 0 0 0
8370 1 4.4281687416274 3.0687693657324258 -5.895814203466971 0 0 0
8285 1 8.002288939898529 0.651857599658695 -6.008849187957578 0 0 0
8304 1 7.987623181183582 3.123832338342727 -5.934406938700784 0 0 0
8219 1 11.452509980116279 0.5676573406580331 -6.205146855850191 0 0 0
8238 1 11.512353869613609 3.0654693599013187 -5.962635238458997 0 0 0
8266 1 9.733953270610566 1.8333456022745596 -7.25138180661377 0 0 1
8283 1 9.733953270485383 1.8333456023400247 -4.7630818066232505 0 0 0
8153 1 15.060545437191106 0.648661368771472 -6.042144489750648 0 0 0
8172 1 15.007526607678564 3.0942226548689042 -5.937867005842209 0 0 0
8200 1 13.257736997055797 1.7554521069552536 -7.2586474271378565 0 0 1
8217 1 13.25773699711844 1.7554521070340863 -4.770347427284483 0 0 0
8087 1 18.56464606456849 0.6414271626437469 -5.750697949380839 0 0 0
8106 1 18.559710948399708 3.1148955678118835 -5.898448348398682 0 0 0
8134 1 16.801404709817763 1.8615829244430189 -7.156768736981143 0 0 1
8151 1 16.801404709784627 1.8615829244462931 -4.668468736967071 0 0 0
2688 1 0.9413173123444588 5.563589832366142 -5.914997132643161 0 0 0
8397 1 2.6853852741571287 4.287058894671767 -7.14547019645004 0 0 1
8403 1 2.6907786247520713 6.801947657390901 -7.163675089915339 0 0 1
8415 1 2.6853852742924817 4.28705889466065 -4.657170196625252 0 0 0
8416 1 2.690778624851043 6.801947657408168 -4.675375089916556 0 0 0
8333 1 6.200170621639154 4.322292367382209 -7.162980852100758 0 0 1
8346 1 6.206672940360525 6.807473625029472 -7.166962601159017 0 0 1
8371 1 6.200170621611034 4.322292367434683 -4.6746808520767145 0 0 0
8372 1 6.206672940301639 6.807473625042748 -4.678662601162689 0 0 0
8374 1 4.439732647178824 5.560459117511746 -5.916087639300033 0 0 0
8308 1 7.976621321047267 5.576726738345442 -5.92637325975691 0 0 0
8242 1 11.506497700941418 5.5674510708879295 -5.933164681445945 0 0 0
8267 1 9.756397035964754 4.323534346853848 -7.181525145338492 0 0 1
8280 1 9.741014576578117 6.8114337117749955 -7.172029561454256 0 0 1
8305 1 9.756397035981777 4.3235343469166425 -4.693225145182697 0 0 0
8306 1 9.741014576498074 6.81143371176 -4.683729561644962 0 0 0
8176 1 15.013170754680731 5.572889947707747 -5.92875520444328 0 0 0
8201 1 13.254489522765612 4.30301980210513 -7.18468021532654 0 0 1
8214 1 13.258281577112225 6.809937664938157 -7.1729666149763265 0 0 1
8239 1 13.254489522805704 4.303019802031313 -4.696380215196431 0 0 0
8240 1 13.258281577180204 6.809937664912596 -4.684666615071869 0 0 0
8110 1 18.5451739190445 5.583024065010996 -5.920166099832863 0 0 0
8135 1 16.77940566844398 4.331232312963469 -7.165762452427369 0 0 1
8148 1 16.7772788243752 6.817237695671329 -7.169397161678187 0 0 1
8173 1 16.779405668396162 4.331232313021505 -4.677462452381915 0 0 0
8174 1 16.777278824424275 6.817237695655765 -4.681097161814181 0 0 0
2695 1 0.9310979680781838 8.052402333543792 -5.923490483530745 0 0 0
2697 1 0.9273452079092664 10.540093156873079 -5.925819338345692 0 0 0
8404 1 2.689568179908633 9.295676447594692 -7.168708264603809 0 0 1
8422 1 2.6895681799195974 9.295676447507716 -4.68040826479229 0 0 0
8347 1 6.2104186113284765 9.29662566757963 -7.169140994217613 0 0 1
8386 1 4.448496915639155 8.051838814818165 -5.923125958040703 0 0 0
8387 1 6.210418611311064 9.29662566760673 -4.680840994389196 0 0 0
8390 1 4.449827556059142 10.54117142737715 -5.92541941340148 0 0 0
8320 1 7.972884250204336 8.054941224162219 -5.9254192686051415 0 0 0
8324 1 7.971954981107782 10.54246593572887 -5.925812798403482 0 0 0
8254 1 11.498502389641907 8.05714735244047 -5.927222798941918 0 0 0
8258 1 11.494591483083093 10.545426129358054 -5.926294632401752 0 0 0
8281 1 9.734618774175935 9.29919135792017 -7.1702854712096675 0 0 1
8321 1 9.734618774183762 9.299191358016946 -4.681985471334378 0 0 0
8188 1 15.01654926689691 8.060365549440602 -5.926638104145194 0 0 0
8192 1 15.01581718227513 10.548982432122889 -5.926399138112773 0 0 0
8215 1 13.256481590219963 9.302227547630789 -7.170736558876745 0 0 1
8255 1 13.256481590137806 9.302227547712652 -4.682436558859345 0 0 0
8122 1 18.53794549058991 8.06605216825415 -5.925114782118818 0 0 0
8126 1 18.53758077381006 10.552264652287231 -5.926396450333194 0 0 0
8149 1 16.77648322889153 9.306289693052475 -7.1702991986278155 0 0 1
8189 1 16.776483228921034 9.306289693079707 -4.681999198629458 0 0 0
2700 1 0.9268158229358506 13.028716384131396 -5.9264590223187446 0 0 0
8414 1 2.6883655594505163 11.784808515614579 -7.170156336039022 0 0 1
8423 1 2.688365559439816 11.784808515613163 -4.681856336101255 0 0 0
8368 1 6.210644027676249 11.785973727378853 -7.170084683968333 0 0 1
8388 1 6.210644027687287 11.785973727360975 -4.681784684072175 0 0 0
8394 1 4.449312281299531 13.029938855487469 -5.926210910565254 0 0 0
8328 1 7.971260052993153 13.031429068907759 -5.926228666425413 0 0 0
8262 1 11.493047778719944 13.033930708720899 -5.926371627560649 0 0 0
8302 1 9.732609012275912 11.78799734778321 -7.17032409975515 0 0 1
8322 1 9.732609012225245 11.787997347732833 -4.682024099822293 0 0 0
8196 1 15.015162905586822 13.036849197033073 -5.926518713570002 0 0 0
8236 1 13.254542613080973 11.791195771282906 -7.1705385784866 0 0 1
8256 1 13.254542613104539 11.791195771252465 -4.682238578571263 0 0 0
8130 1 18.538308280148538 13.038694763770668 -5.9266953756211045 0 0 0
8170 1 16.776426471855952 11.794270363906081 -7.170659254302554 0 0 1
8190 1 16.776426471882928 11.79427036390795 -4.682359254503462 0 0 0
2669 1 0.834933664760848 0.5703398858050145 -0.6587632404445719 0 0 0
2675 1 0.8349336645464199 0.570339887061243 -3.1470632395528697 0 0 0
2677 1 0.9439050379518081 3.060800174265501 -0.9056145474206149 0 0 0
2678 1 0.943905037702485 3.0608001737778556 -3.3939145471110255 0 0 0
8406 1 2.670512812226066 1.712976638663203 -2.067859455794244 0 0 0
8337 1 4.497755343004779 0.6314921945860812 -0.7421827736749759 0 0 0
8350 1 4.4977553428831145 0.6314921939221353 -3.2304827739391295 0 0 0
8352 1 6.240928054873954 1.8558980551406472 -2.1614226185408443 0 0 0
8354 1 4.42816874165173 3.0687693657730764 -0.9192142034415619 0 0 0
8355 1 4.428168741671251 3.068769365972389 -3.407514203606182 0 0 0
8271 1 8.002288939900826 0.6518575997111075 -1.032249187942063 0 0 0
8284 1 8.002288939890011 0.6518575998083354 -3.520549188067725 0 0 0
8288 1 7.987623181102202 3.1238323383354287 -0.9578069386837217 0 0 0
8289 1 7.987623181172153 3.1238323384362623 -3.4461069386722483 0 0 0
8205 1 11.45250998013609 0.5676573406703659 -1.2285468558647135 0 0 0
8218 1 11.452509980179093 0.5676573401929976 -3.716846855628741 0 0 0
8222 1 11.51235386956474 3.065469359909627 -0.9860352385230823 0 0 0
8223 1 11.512353869579771 3.06546936011871 -3.4743352384981483 0 0 0
8286 1 9.733953270618594 1.8333456022601398 -2.274781806595542 0 0 0
8139 1 15.060545437214193 0.6486613687327509 -1.065544489678343 0 0 0
8152 1 15.060545437202858 0.6486613688464579 -3.553844489782847 0 0 0
8156 1 15.007526607725767 3.094222654978006 -0.9612670058524084 0 0 0
8157 1 15.007526607724206 3.0942226549723326 -3.449567005884344 0 0 0
8220 1 13.25773699709452 1.7554521069676445 -2.2820474270936426 0 0 0
8073 1 18.564646064531793 0.6414271626575409 -0.7740979494099363 0 0 0
8086 1 18.56464606450176 0.6414271625894413 -3.262397949389385 0 0 0
8090 1 18.559710948359694 3.114895567690499 -0.9218483484427148 0 0 0
8091 1 18.559710948431928 3.114895567768654 -3.4101483484038217 0 0 0
8154 1 16.80140470978937 1.8615829244373996 -2.1801687370149767 0 0 0
2680 1 0.9413173124341015 5.5635898323315 -0.9383971327178372 0 0 0
2687 1 0.9413173123795872 5.563589832574051 -3.4266971325157147 0 0 0
8407 1 2.685385274124244 4.287058894625557 -2.168870196384828 0 0 0
8417 1 2.690778624756473 6.801947657400569 -2.1870750899329168 0 0 0
8353 1 6.200170621680621 4.322292367386829 -2.186380852040959 0 0 0
8359 1 4.4397326472272605 5.560459117512135 -0.9394876393675522 0 0 0
8373 1 4.439732647333345 5.560459117419903 -3.4277876393552735 0 0 0
8375 1 6.206672940325772 6.807473625005097 -2.1903626011539314 0 0 0
8293 1 7.976621321027684 5.57672673838875 -0.9497732597922599 0 0 0
8307 1 7.976621321126588 5.576726738328699 -3.438073259744489 0 0 0
8227 1 11.50649770091374 5.567451070880683 -0.9565646814314778 0 0 0
8241 1 11.506497700944367 5.567451070811813 -3.4448646813862474 0 0 0
8287 1 9.756397035910675 4.323534346882279 -2.2049251453248147 0 0 0
8309 1 9.74101457652644 6.811433711799375 -2.1954295614612995 0 0 0
8161 1 15.013170754658633 5.572889947747523 -0.9521552045275808 0 0 0
8175 1 15.013170754604756 5.572889947683341 -3.440455204474622 0 0 0
8221 1 13.254489522851216 4.30301980206608 -2.2080802152491428 0 0 0
8243 1 13.25828157716931 6.80993766497295 -2.196366615022237 0 0 0
8095 1 18.545173919035978 5.583024065058807 -0.9435660997514735 0 0 0
8109 1 18.545173919024084 5.5830240649847624 -3.431866099793121 0 0 0
8155 1 16.779405668483605 4.331232313028949 -2.1891624523709523 0 0 0
8177 1 16.777278824417852 6.817237695675458 -2.1927971617350384 0 0 0
2689 1 0.9310979681057416 8.052402333523409 -0.9468904835755136 0 0 0
2690 1 0.931097968076049 8.05240233340323 -3.4351904834640834 0 0 0
2692 1 0.9273452078728497 10.540093156812492 -0.9492193383355078 0 0 0
2696 1 0.927345207831813 10.54009315687301 -3.437519338259027 0 0 0
8418 1 2.6895681798786453 9.295676447543691 -2.192108264694902 0 0 0
8376 1 6.210418611302364 9.29662566764984 -2.192540994309447 0 0 0
8377 1 4.448496915624492 8.05183881482539 -0.9465259581669027 0 0 0
8378 1 4.448496915707336 8.051838814860398 -3.4348259581243625 0 0 0
8382 1 4.449827556126877 10.541171427356005 -0.9488194134868407 0 0 0
8389 1 4.449827556108568 10.541171427371413 -3.437119413428626 0 0 0
8311 1 7.9728842502038875 8.054941224165871 -0.9488192686047385 0 0 0
8312 1 7.9728842501879384 8.054941224197398 -3.4371192686011542 0 0 0
8316 1 7.971954981191914 10.54246593568315 -0.9492127984107367 0 0 0
8323 1 7.9719549811535835 10.542465935696107 -3.437512798306474 0 0 0
8245 1 11.498502389647877 8.057147352444307 -0.9506227989969086 0 0 0
8246 1 11.498502389643557 8.057147352535953 -3.438922798879437 0 0 0
8250 1 11.494591483085896 10.545426129346533 -0.9496946324505615 0 0 0
8257 1 11.494591483037128 10.54542612931174 -3.4379946323428037 0 0 0
8310 1 9.734618774194011 9.29919135800798 -2.19368547122479 0 0 0
8179 1 15.016549266851849 8.060365549466837 -0.9500381041589708 0 0 0
8180 1 15.016549266863967 8.06036554950463 -3.4383381041319514 0 0 0
8184 1 15.015817182224335 10.548982432098338 -0.9497991381090806 0 0 0
8191 1 15.015817182212965 10.548982432079592 -3.4380991381036425 0 0 0
8244 1 13.256481590204483 9.302227547746345 -2.194136558806361 0 0 0
8113 1 18.53794549058033 8.06605216822955 -0.9485147821973577 0 0 0
8114 1 18.537945490562418 8.066052168275634 -3.4368147821495314 0 0 0
8118 1 18.53758077373996 10.552264652236826 -0.949796450325675 0 0 0
8125 1 18.53758077377301 10.55226465222238 -3.43809645029259 0 0 0
8178 1 16.776483228877904 9.306289693023269 -2.1936991986332868 0 0 0
2698 1 0.9268158229135866 13.028716384156374 -0.9498590223141382 0 0 0
2699 1 0.9268158228969067 13.02871638411029 -3.4381590222602165 0 0 0
8424 1 2.688365559408195 11.784808515570207 -2.193556336084093 0 0 0
8391 1 6.21064402770668 11.785973727387068 -2.193484684047107 0 0 0
8392 1 4.449312281290018 13.029938855506522 -0.9496109106356665 0 0 0
8393 1 4.449312281374081 13.029938855412386 -3.4379109105292986 0 0 0
8326 1 7.971260053014735 13.031429068907117 -0.9496286664767862 0 0 0
8327 1 7.971260053051453 13.03142906894602 -3.4379286663896775 0 0 0
8260 1 11.493047778669657 13.0339307087 -0.9497716276006287 0 0 0
8261 1 11.49304777869071 13.033930708746382 -3.4380716275198906 0 0 0
8325 1 9.732609012211713 11.787997347717498 -2.193724099762515 0 0 0
8194 1 15.015162905581601 13.036849197076691 -0.9499187136267406 0 0 0
8195 1 15.01516290558366 13.036849197130856 -3.4382187135885203 0 0 0
8259 1 13.254542613108242 11.791195771268491 -2.1939385784799836 0 0 0
8128 1 18.538308280164017 13.03869476380468 -0.9500953756812314 0 0 0
8129 1 18.5383082801542 13.038694763829934 -3.4383953756485823 0 0 0
8193 1 16.776426471854077 11.79427036387712 -2.194059254387197 0 0 0
2668 1 0.8349336646505823 0.5703398870786792 1.8295367604448054 0 0 0
2671 1 0.943905037741828 3.0608001737632726 1.5826854529150252 0 0 0
8398 1 2.6705128125778503 1.7129766386930807 0.42044054430573896 0 0 0
8399 1 2.670512812290526 1.7129766387324676 2.908740544160832 0 0 0
8335 1 6.240928054710821 1.8558980550600093 0.3268773811869846 0 0 0
8336 1 4.497755342894064 0.6314921939558766 1.7461172260482882 0 0 0
8338 1 6.2409280549024615 1.855898055083023 2.8151773814765706 0 0 0
8341 1 4.4281687416070845 3.068769365916189 1.56908579632295 0 0 0
8270 1 8.002288939966611 0.6518575998073021 1.4560508119649185 0 0 0
8275 1 7.987623181218535 3.123832338373498 1.5304930613143843 0 0 0
8204 1 11.452509980139 0.5676573402363856 1.259753144473066 0 0 0
8209 1 11.512353869608711 3.0654693600580885 1.5022647616112872 0 0 0
8269 1 9.73395327051594 1.833345602302199 0.21351819328100372 0 0 0
8272 1 9.733953270645646 1.8333456023336279 2.7018181934886814 0 0 0
8138 1 15.060545437233255 0.6486613688736337 1.422755510175708 0 0 0
8143 1 15.007526607706998 3.094222654892165 1.527032994150675 0 0 0
8203 1 13.257736997172758 1.755452106945504 0.20625257275868028 0 0 0
8206 1 13.257736997002208 1.755452107007079 2.6945525728290036 0 0 0
8072 1 18.56464606456353 0.6414271625378603 1.7142020505382796 0 0 0
8077 1 18.559710948396674 3.1148955678832047 1.5664516515988325 0 0 0
8137 1 16.801404709834458 1.86158292441378 0.3081312630258152 0 0 0
8140 1 16.801404709812516 1.8615829244152888 2.796431263060868 0 0 0
2679 1 0.9413173123195607 5.563589832552 1.5499028674829685 0 0 0
8400 1 2.6853852741845397 4.287058894671213 2.8077298035546465 0 0 0
8408 1 2.6853852742883038 4.287058894643549 0.3194298033540741 0 0 0
8409 1 2.6907786247950707 6.801947657416348 0.30122491011988317 0 0 0
8410 1 2.6907786247863754 6.801947657392878 2.7895249100744177 0 0 0
8339 1 6.200170621638462 4.322292367431126 2.7902191478483322 0 0 0
8356 1 6.2001706215763726 4.322292367376833 0.30191914795149166 0 0 0
8357 1 6.206672940333936 6.807473625054336 0.2979373988454805 0 0 0
8358 1 4.439732647193063 5.560459117487025 1.5488123606391067 0 0 0
8360 1 6.206672940308136 6.807473625038937 2.7862373988588156 0 0 0
8292 1 7.976621321015795 5.576726738313116 1.5385267402570948 0 0 0
8226 1 11.506497700924633 5.567451070781147 1.5317353185415012 0 0 0
8273 1 9.75639703596751 4.3235343469235445 2.7716748547295884 0 0 0
8290 1 9.756397035931196 4.323534346877251 0.28337485478109126 0 0 0
8291 1 9.741014576581062 6.811433711774345 0.29287043846840083 0 0 0
8294 1 9.741014576493429 6.811433711757959 2.781170438405539 0 0 0
8160 1 15.013170754695452 5.572889947667837 1.536144795536204 0 0 0
8207 1 13.254489522779403 4.303019802044863 2.7685197847073932 0 0 0
8224 1 13.25448952279722 4.303019802088712 0.280219784776612 0 0 0
8225 1 13.258281577131907 6.8099376649474435 0.29193338490131543 0 0 0
8228 1 13.258281577161188 6.809937664900571 2.7802333849606433 0 0 0
8094 1 18.545173919058918 5.583024064923872 1.5447339001511684 0 0 0
8141 1 16.77940566841901 4.331232313024578 2.7874375475482087 0 0 0
8158 1 16.779405668430442 4.331232312954713 0.2991375476221898 0 0 0
8159 1 16.777278824390283 6.817237695678733 0.29550283822166795 0 0 0
8162 1 16.777278824441964 6.817237695644857 2.7838028382422606 0 0 0
2682 1 0.9310979680563205 8.052402333434895 1.5414095164408943 0 0 0
2691 1 0.9273452079141045 10.5400931569024 1.5390806616758175 0 0 0
8411 1 2.689568179899659 9.295676447510038 2.7844917352625878 0 0 0
8419 1 2.6895681799424827 9.295676447575444 0.29619173528466153 0 0 0
8361 1 6.210418611328943 9.296625667612394 2.7840590055839933 0 0 0
8363 1 4.44849691563835 8.05183881481231 1.5417740418970405 0 0 0
8379 1 6.210418611323215 9.296625667576258 0.29575900577233916 0 0 0
8381 1 4.449827556060253 10.54117142736359 1.5394805865937522 0 0 0
8297 1 7.972884250214052 8.054941224199245 1.5394807313786092 0 0 0
8315 1 7.971954981127539 10.542465935704767 1.5390872016171107 0 0 0
8231 1 11.498502389639293 8.057147352505382 1.537677201051596 0 0 0
8249 1 11.494591483081637 10.545426129315558 1.5386053675951548 0 0 0
8295 1 9.734618774198026 9.29919135803093 2.7829145286140404 0 0 0
8313 1 9.734618774198893 9.299191357925567 0.2946145287662009 0 0 0
8165 1 15.016549266903343 8.060365549521228 1.5382618958813956 0 0 0
8183 1 15.015817182269158 10.54898243205889 1.538500861910726 0 0 0
8229 1 13.256481590109942 9.302227547709508 2.7824634410868923 0 0 0
8247 1 13.256481590202284 9.302227547656472 0.2941634411914848 0 0 0
8099 1 18.537945490606372 8.066052168294158 1.5397852178389861 0 0 0
8117 1 18.53758077380077 10.552264652197168 1.5385035496693253 0 0 0
8163 1 16.776483228926285 9.306289693063478 2.782900801300862 0 0 0
8181 1 16.776483228897487 9.306289693040519 0.294600801422247 0 0 0
2694 1 0.9268158229225417 13.028716384065104 1.5384409776594767 0 0 0
8420 1 2.6883655594566256 11.784808515623286 0.2947436639769011 0 0 0
8421 1 2.688365559434041 11.784808515582096 2.7830436638664033 0 0 0
8380 1 6.210644027673708 11.785973727349344 0.29481531599329186 0 0 0
8383 1 6.210644027693995 11.785973727331335 2.7831153159247655 0 0 0
8385 1 4.449312281304249 13.02993885544075 1.5386890894221625 0 0 0
8319 1 7.971260052984514 13.031429068908968 1.5386713335589377 0 0 0
8253 1 11.493047778716926 13.033930708755822 1.5385283724186534 0 0 0
8314 1 9.732609012298488 11.787997347784652 0.29457590019527363 0 0 0
8317 1 9.732609012236708 11.787997347744755 2.782875900249761 0 0 0
8187 1 15.015162905578254 13.036849197105628 1.5383812863959694 0 0 0
8248 1 13.254542613054364 11.791195771294579 0.2943614214692371 0 0 0
8251 1 13.254542613115401 11.791195771243142 2.7826614214819703 0 0 0
8121 1 18.538308280145934 13.038694763809216 1.5382046243285052 0 0 0
8182 1 16.77642647185051 11.794270363903113 0.2942407456467707 0 0 0
8185 1 16.77642647186852 11.79427036387692 2.7825407455241407 0 0 0
2665 1 0.8349336646139313 0.5703398870726828 6.806136760471456 0 0 0
2666 1 0.8349336647224683 0.570339885765397 4.317836759568339 0 0 0
2667 1 0.9439050378013557 3.0608001737842185 6.559285452848135 0 0 0
2670 1 0.9439050378447091 3.060800174215517 4.070985452602573 0 0 0
8395 1 2.670512812561666 1.7129766387173568 5.397040544284722 0 0 0
8329 1 6.240928054726534 1.855898055091212 5.303477381197159 0 0 0
8330 1 4.497755342915532 0.6314921939520319 6.72271722601246 0 0 0
8331 1 4.49775534294206 0.6314921945318543 4.234417226370122 0 0 0
8334 1 4.428168741614151 3.068769365944471 6.545685796393419 0 0 0
8340 1 4.428168741690407 3.0687693657669604 4.057385796587672 0 0 0
8264 1 8.002288939922483 0.6518575998340354 6.432650811952986 0 0 0
8265 1 8.002288939898925 0.6518575996619476 3.9443508120406787 0 0 0
8268 1 7.987623181120916 3.1238323383336057 6.507093061337286 0 0 0
8274 1 7.98762318115122 3.1238323383796787 4.018793061304035 0 0 0
8198 1 11.452509980115499 0.5676573402731845 6.236353144453797 0 0 0
8199 1 11.45250998016411 0.5676573405920426 3.7480531441520997 0 0 0
8202 1 11.512353869563013 3.065469360051068 6.478864761545704 0 0 0
8208 1 11.512353869603029 3.065469359961904 3.9905647614616515 0 0 0
8263 1 9.733953270500766 1.8333456022887087 5.1901181933315 0 0 0
8132 1 15.060545437216666 0.6486613688157241 6.399355510282475 0 0 0
8133 1 15.060545437172358 0.6486613687463622 3.9110555103009026 0 0 0
8136 1 15.0075266077228 3.094222655011968 6.503632994078908 0 0 0
8142 1 15.007526607713372 3.0942226549480063 4.015332994179747 0 0 0
8197 1 13.257736997193014 1.755452106957628 5.182852572791377 0 0 0
8066 1 18.56464606452207 0.6414271625833535 6.690802050566541 0 0 0
8067 1 18.56464606453857 0.641427162657345 4.202502050661167 0 0 0
8070 1 18.559710948385945 3.1148955677402173 6.5430516515213855 0 0 0
8076 1 18.559710948432905 3.1148955676841434 4.054751651628217 0 0 0
8131 1 16.801404709773777 1.8615829244212159 5.284731262961913 0 0 0
2672 1 0.9413173123959496 5.563589832503906 6.526502867443859 0 0 0
2673 1 0.9413173124107671 5.563589832354026 4.038202867342059 0 0 0
8401 1 2.685385274240544 4.287058894598311 5.296029803462479 0 0 0
8402 1 2.69077862478896 6.801947657411283 5.27782491011743 0 0 0
8342 1 6.200170621628011 4.322292367352536 5.27851914802112 0 0 0
8343 1 6.206672940297565 6.807473625002092 5.2745373988451805 0 0 0
8344 1 4.439732647271278 5.560459117446837 6.525412360596855 0 0 0
8345 1 4.4397326472824 5.560459117458722 4.037112360703784 0 0 0
8278 1 7.9766213210465455 5.576726738305527 6.515126740229061 0 0 0
8279 1 7.976621321121373 5.57672673837083 4.026826740241854 0 0 0
8212 1 11.506497700907119 5.56745107080387 6.508335318594591 0 0 0
8213 1 11.506497700929335 5.56745107093237 4.020035318576611 0 0 0
8276 1 9.756397035924254 4.3235343468854515 5.259974854755276 0 0 0
8277 1 9.741014576521904 6.811433711816306 5.269470438481868 0 0 0
8146 1 15.01317075463548 5.572889947690616 6.512744795464856 0 0 0
8147 1 15.013170754616716 5.572889947756563 4.0244447955269935 0 0 0
8210 1 13.254489522854131 4.303019802061134 5.256819784849743 0 0 0
8211 1 13.258281577153236 6.80993766495376 5.268533384900211 0 0 0
8080 1 18.545173919017564 5.583024064983563 6.521333900250691 0 0 0
8081 1 18.545173919017813 5.583024065038901 4.033033900217148 0 0 0
8144 1 16.779405668475807 4.33123231302152 5.275737547710286 0 0 0
8145 1 16.777278824421238 6.817237695683771 5.272102838218425 0 0 0
2674 1 0.9310979680648563 8.052402333418653 6.51800951648234 0 0 0
2681 1 0.9310979680801643 8.052402333481947 4.029709516520141 0 0 0
2683 1 0.9273452078622177 10.540093156890686 6.515680661735382 0 0 0
2684 1 0.9273452078562591 10.540093156798344 4.027380661707384 0 0 0
8412 1 2.689568179864117 9.29567644751711 5.272791735290627 0 0 0
8348 1 4.448496915629371 8.051838814829052 6.5183740418246625 0 0 0
8362 1 4.44849691568073 8.051838814875032 4.030074041923049 0 0 0
8364 1 6.210418611304887 9.296625667624188 5.272359005700434 0 0 0
8366 1 4.449827556133991 10.541171427364299 6.516080586538949 0 0 0
8367 1 4.4498275560979 10.541171427341375 4.027780586606051 0 0 0
8282 1 7.972884250184189 8.054941224183862 6.516080731397709 0 0 0
8296 1 7.972884250228025 8.054941224162107 4.027780731373168 0 0 0
8300 1 7.971954981157832 10.54246593566663 6.515687201622194 0 0 0
8301 1 7.971954981177266 10.542465935707126 4.0273872016980246 0 0 0
8216 1 11.498502389649227 8.057147352511912 6.514277201011622 0 0 0
8230 1 11.49850238961605 8.057147352468792 4.025977201123951 0 0 0
8234 1 11.494591483084097 10.545426129299349 6.515205367577409 0 0 0
8235 1 11.494591483023964 10.545426129381367 4.026905367704145 0 0 0
8298 1 9.734618774190094 9.299191358021893 5.27121452885375 0 0 0
8150 1 15.016549266842567 8.060365549512492 6.514861895812617 0 0 0
8164 1 15.016549266858982 8.06036554942938 4.026561895857526 0 0 0
8168 1 15.015817182232938 10.548982432013787 6.515100861904685 0 0 0
8169 1 15.015817182218232 10.548982432126522 4.026800861896297 0 0 0
8232 1 13.256481590174781 9.302227547721179 5.270763441261844 0 0 0
8084 1 18.537945490576725 8.066052168298711 6.516385217806924 0 0 0
8098 1 18.537945490575364 8.06605216819992 4.0280852178638105 0 0 0
8102 1 18.53758077377062 10.552264652174502 6.5151035496793614 0 0 0
8103 1 18.53758077378403 10.552264652264004 4.026803549698548 0 0 0
8166 1 16.776483228901444 9.306289693009111 5.2712008014346114 0 0 0
2685 1 0.9268158228939105 13.028716384106167 6.515040977671273 0 0 0
2693 1 0.9268158228778361 13.02871638414755 4.026740977756942 0 0 0
8413 1 2.68836555941303 11.7848085155897 5.271343663957737 0 0 0
8365 1 6.210644027712863 11.785973727396582 5.271415315961373 0 0 0
8369 1 4.4493122812944 13.029938855482463 6.515289089346091 0 0 0
8384 1 4.449312281358227 13.029938855413072 4.026989089493607 0 0 0
8303 1 7.971260053024951 13.03142906893469 6.515271333517937 0 0 0
8318 1 7.971260053073857 13.031429068939982 4.02697133360696 0 0 0
8237 1 11.493047778695912 13.03393070874342 6.515128372401092 0 0 0
8252 1 11.493047778685327 13.033930708732223 4.026828372496857 0 0 0
8299 1 9.732609012219998 11.787997347732826 5.2711759002187035 0 0 0
8171 1 15.015162905605422 13.036849197136203 6.514981286388996 0 0 0
8186 1 15.015162905613543 13.036849197104155 4.026681286382883 0 0 0
8233 1 13.254542613112875 11.791195771262549 5.270961421479795 0 0 0
8105 1 18.538308280168998 13.038694763838613 6.514804624329745 0 0 0
8120 1 18.538308280138114 13.038694763754565 4.02650462434546 0 0 0
8167 1 16.776426471872306 11.794270363858296 5.270840745545524 0 0 0
3006 1 0.9271971616093316 15.518018490083598 -5.926658594013851 0 0 0
8785 1 2.6879938751795147 14.273739637661068 -7.170621701780289 0 0 1
8789 1 2.688104063266432 16.762973137085655 -7.170795552533828 0 0 1
8800 1 2.687993875133158 14.273739637698915 -4.682321701875322 0 0 0
8801 1 2.6881040632025464 16.76297313702707 -4.682495552561472 0 0 0
8719 1 6.2100714597511155 14.27505086534713 -7.170520443259259 0 0 1
8725 1 6.209738089174335 16.764053059827955 -7.170729169245324 0 0 1
8744 1 6.210071459699396 14.275050865390476 -4.682220443293379 0 0 0
8745 1 6.209738089109896 16.764053059850998 -4.682429169277662 0 0 0
8747 1 4.448933978448609 15.51888351075631 -5.926522421981939 0 0 0
8681 1 7.97073617418174 15.520388458664465 -5.926489157265921 0 0 0
8615 1 11.49258751132879 15.52240246789168 -5.926537306771518 0 0 0
8653 1 9.731810235746233 14.276940352305953 -7.170559890093677 0 0 1
8659 1 9.731529766991368 16.765667714803172 -7.1707299718465904 0 0 1
8678 1 9.731810235765925 14.276940352274103 -4.6822598902281465 0 0 0
8679 1 9.731529767026906 16.765667714814803 -4.68242997200631 0 0 0
8549 1 15.015137984653371 15.52441127407528 -5.926633544748719 0 0 0
8587 1 13.253802267783016 14.279434725853129 -7.17066667707847 0 0 1
8593 1 13.253786166229741 16.767444498903018 -7.170783189760323 0 0 1
8612 1 13.25380226784918 14.279434725870804 -4.682366677149077 0 0 0
8613 1 13.253786166260127 16.76744449898228 -4.6824831898504025 0 0 0
8483 1 18.538719160283428 15.52544814980255 -5.926764128357491 0 0 0
8521 1 16.776667190214283 14.28149794102962 -7.170805600030105 0 0 1
8527 1 16.77693539659051 16.768718819452168 -7.170871527653548 0 0 1
8546 1 16.776667190262405 14.281497941003733 -4.682505600100107 0 0 0
8547 1 16.776935396644657 16.768718819504237 -4.682571527671758 0 0 0
3015 1 0.9276530479615853 18.007506381274528 -5.9267296960665 0 0 0
3017 1 0.9279870113197424 20.496900965450603 -5.9267584837692775 0 0 0
8790 1 2.6883767932807046 19.252299769125656 -7.170868551355453 0 0 1
8811 1 2.688376793251548 19.252299769046633 -4.6825685515454625 0 0 0
8726 1 6.209770848985578 19.25303414007706 -7.1708315783120025 0 0 1
8765 1 4.448928226495397 18.008008084263118 -5.926658628827254 0 0 0
8766 1 6.209770849013071 19.25303414009277 -4.682531578452881 0 0 0
8769 1 4.449148663249512 20.49714721640323 -5.9267221898910165 0 0 0
8699 1 7.970578390459073 18.00922035898115 -5.926631963555841 0 0 0
8703 1 7.970743582208096 20.497966191750425 -5.926706458634415 0 0 0
8633 1 11.492622702605924 18.010722592359308 -5.926650533928214 0 0 0
8637 1 11.492886260697496 20.498978893850516 -5.926714449498497 0 0 0
8660 1 9.731609455467444 19.254225202702127 -7.170827489073043 0 0 1
8700 1 9.731609455445591 19.254225202717222 -4.682527489097137 0 0 0
8567 1 15.015375199057761 18.012018171414834 -5.9267040919813345 0 0 0
8571 1 15.01564812873848 20.499795121044887 -5.926742552652842 0 0 0
8594 1 13.254035679509842 19.255418987889797 -7.1708540969689984 0 0 1
8634 1 13.25403567946982 19.255418987901106 -4.682554097050072 0 0 0
8501 1 18.53885246908313 18.01263508202312 -5.92677956352734 0 0 0
8505 1 18.538876635382852 20.5001937503803 -5.926782765522623 0 0 0
8528 1 16.777143593508487 19.256202950296366 -7.170902801462478 0 0 1
8568 1 16.77714359352747 19.256202950311092 -4.682602801467985 0 0 0
3022 1 0.9281969761076901 22.986097903151208 -5.926771287489889 0 0 0
8798 1 2.688663621181608 21.741532135918447 -7.170901806686318 0 0 1
8799 1 2.6889121822119506 24.23059220716574 -7.170917681021866 0 0 1
8812 1 2.688663621129895 21.741532135911754 -4.682601806666614 0 0 0
8818 1 2.6889121822258932 24.230592207192032 -4.682617681118627 0 0 0
8741 1 6.210035734727577 21.74195639362792 -7.170882396649947 0 0 1
8742 1 6.21038683859063 24.230788635159378 -7.170907744786059 0 0 1
8767 1 6.21003573479822 21.741956393600894 -4.682582396812766 0 0 0
8779 1 4.4494528145826875 22.98618573771815 -5.926752941410538 0 0 0
8780 1 6.210386838521768 24.230788635156642 -4.682607744777724 0 0 0
8713 1 7.971083035022081 22.986654342415918 -5.92674449307515 0 0 0
8647 1 11.493238681053096 22.987262129976738 -5.926748179839054 0 0 0
8675 1 9.731905721108745 21.74271687713142 -7.170879281566544 0 0 1
8676 1 9.732286910442932 24.23120227941459 -7.170905926876898 0 0 1
8701 1 9.731905721153677 21.7427168771386 -4.6825792816027985 0 0 0
8714 1 9.732286910460942 24.231202279388295 -4.682605926918529 0 0 0
8581 1 15.015899090596944 22.9877584566387 -5.92676256331583 0 0 0
8609 1 13.254352957931754 21.743467869840952 -7.170892597528108 0 0 1
8610 1 13.254671213171036 24.231631760329126 -7.170912592864251 0 0 1
8635 1 13.254352957892383 21.743467869849155 -4.68259259761142 0 0 0
8648 1 13.254671213132175 24.231631760337685 -4.682612592864717 0 0 0
8515 1 18.538875772661296 22.988028756269063 -5.926783290373672 0 0 0
8543 1 16.7772988277841 21.743959093662703 -7.170918062565096 0 0 1
8544 1 16.77742664662403 24.231934870859543 -7.170925609121437 0 0 1
8569 1 16.777298827859543 21.743959093696652 -4.682618062671537 0 0 0
8582 1 16.7774266466125 24.23193487086782 -4.682625609142794 0 0 0
3024 1 0.9283207791229575 25.475086749377482 -5.926777313985239 0 0 0
3340 1 0.9283913444680632 27.963897807746328 -5.9267802382656685 0 0 0
8810 1 2.6891094337955628 26.719475668692972 -7.170925440286497 0 0 1
8819 1 2.6891094338165993 26.7194756686981 -4.6826254402435685 0 0 0
8764 1 6.2107297561805765 26.719525529247495 -7.17092040977427 0 0 1
8781 1 6.210729756136116 26.7195255292928 -4.682620409712105 0 0 0
8783 1 4.449754169414818 25.47508358655424 -5.926768080995485 0 0 0
9151 1 4.4500114879444865 27.96384754516947 -5.926775598804639 0 0 0
8717 1 7.9714674844600095 25.475296439586362 -5.926763711709248 0 0 0
9085 1 7.971820847800855 27.963897726852043 -5.926773375038187 0 0 0
8651 1 11.493601296771923 25.47560759274429 -5.926765484299113 0 0 0
8698 1 9.732664527807938 26.719698619480738 -7.170919438183654 0 0 1
8715 1 9.73266452776482 26.719698619515718 -4.682619438131097 0 0 0
9019 1 11.493930827795836 27.96401228519564 -5.926774246194136 0 0 0
8585 1 15.016124612290726 25.47588508760327 -5.926772764193159 0 0 0
8632 1 13.254964885005618 26.71990598385779 -7.170922779666542 0 0 1
8649 1 13.25496488507394 26.719905983878288 -4.682622779710189 0 0 0
8953 1 15.016325676554168 27.964140438849366 -5.9267779136288326 0 0 0
8519 1 18.538880246201796 25.47606536466261 -5.926783291756707 0 0 0
8566 1 16.777542735196747 26.720078234758837 -7.170929364416854 0 0 1
8583 1 16.77754273518834 26.720078234744676 -4.682629364428235 0 0 0
8887 1 18.538897293116403 27.964250966845363 -5.926783226398332 0 0 0
2999 1 0.9271971616487369 15.518018490085053 -0.9500585940386672 0 0 0
3005 1 0.927197161664895 15.518018490134553 -3.4383585939707655 0 0 0
8791 1 2.687993875090023 14.273739637712199 -2.1940217018085844 0 0 0
8802 1 2.688104063170234 16.76297313704639 -2.194195552576731 0 0 0
8728 1 6.210071459677656 14.27505086541647 -2.19392044334223 0 0 0
8732 1 4.448933978433809 15.518883510780153 -0.9499224220053158 0 0 0
8746 1 4.448933978428016 15.518883510838934 -3.4382224219443724 0 0 0
8748 1 6.209738089110322 16.764053059883697 -2.194129169256176 0 0 0
8666 1 7.970736174167171 15.520388458681445 -0.9498891572266096 0 0 0
8680 1 7.970736174145087 15.520388458723815 -3.438189157165476 0 0 0
8600 1 11.49258751128718 15.522402467887304 -0.9499373067684345 0 0 0
8614 1 11.492587511264713 15.522402467909016 -3.438237306718885 0 0 0
8662 1 9.73181023572046 14.276940352303692 -2.193959890122658 0 0 0
8682 1 9.73152976706601 16.765667714791316 -2.194129971878868 0 0 0
8534 1 15.015137984628778 15.524411274082166 -0.9500335447687781 0 0 0
8548 1 15.01513798463729 15.524411274070562 -3.438333544612455 0 0 0
8596 1 13.253802267778006 14.279434725904963 -2.1940666771147197 0 0 0
8616 1 13.253786166276406 16.767444498918955 -2.1941831898288164 0 0 0
8468 1 18.53871916029214 15.525448149839319 -0.9501641283719136 0 0 0
8482 1 18.538719160278873 15.525448149804232 -3.4384641283965873 0 0 0
8530 1 16.776667190322488 14.28149794104174 -2.194205600110933 0 0 0
8550 1 16.776935396652878 16.768718819497288 -2.194271527665307 0 0 0
3007 1 0.9276530480163816 18.007506381322944 -0.9501296960943878 0 0 0
3008 1 0.9276530480530284 18.007506381228602 -3.4384296960609624 0 0 0
3010 1 0.9279870113010332 20.49690096547214 -0.9501584838257956 0 0 0
3016 1 0.9279870113591521 20.496900965547464 -3.4384584837635868 0 0 0
8803 1 2.6883767932584433 19.252299769106482 -2.194268551485945 0 0 0
8749 1 6.209770848980883 19.253034140107133 -2.1942315783779667 0 0 0
8750 1 4.448928226575779 18.00800808426579 -0.9500586288801148 0 0 0
8751 1 4.44892822652195 18.008008084173365 -3.4383586288062706 0 0 0
8755 1 4.449148663359624 20.4971472164562 -0.9501221898477399 0 0 0
8768 1 4.449148663347564 20.497147216446276 -3.438422189823124 0 0 0
8684 1 7.970578390453746 18.009220358991477 -0.9500319636760254 0 0 0
8685 1 7.970578390466202 18.00922035895379 -3.4383319635260734 0 0 0
8689 1 7.970743582178434 20.497966191779916 -0.9501064587826266 0 0 0
8702 1 7.970743582235714 20.49796619179416 -3.4384064586308343 0 0 0
8618 1 11.492622702681718 18.010722592380834 -0.9500505340857235 0 0 0
8619 1 11.492622702613986 18.010722592366328 -3.438350533901497 0 0 0
8623 1 11.492886260731531 20.49897889381785 -0.9501144495667092 0 0 0
8636 1 11.49288626066982 20.49897889383362 -3.438414449512382 0 0 0
8683 1 9.731609455445186 19.25422520273662 -2.194227489109274 0 0 0
8552 1 15.015375199030208 18.012018171367327 -0.9501040921068389 0 0 0
8553 1 15.015375198986861 18.01201817140851 -3.438404091981017 0 0 0
8557 1 15.015648128773611 20.499795121012045 -0.950142552686949 0 0 0
8570 1 15.01564812869448 20.499795120963235 -3.4384425526618134 0 0 0
8617 1 13.254035679521497 19.255418987840745 -2.1942540970547944 0 0 0
8486 1 18.538852469017538 18.012635082031508 -0.9501795635406518 0 0 0
8487 1 18.538852469038652 18.012635082018743 -3.4384795634801093 0 0 0
8491 1 18.538876635402072 20.50019375036021 -0.9501827655622153 0 0 0
8504 1 18.538876635430306 20.500193750373516 -3.438482765460505 0 0 0
8551 1 16.777143593542522 19.256202950283043 -2.1943028014883272 0 0 0
3018 1 0.9281969761732641 22.98609790316745 -0.9501712875022695 0 0 0
3019 1 0.9281969761594485 22.9860979031291 -3.4384712875020482 0 0 0
8813 1 2.6886636211337556 21.741532135967542 -2.1943018066447215 0 0 0
8814 1 2.6889121822600375 24.23059220715915 -2.194317681038824 0 0 0
8770 1 6.210035734662396 21.74195639362255 -2.1942823967129916 0 0 0
8771 1 6.210386838556848 24.23078863516766 -2.194307744737955 0 0 0
8772 1 4.449452814548356 22.986185737701064 -0.9501529414168369 0 0 0
8773 1 4.449452814579637 22.986185737690224 -3.438452941442608 0 0 0
8706 1 7.971083034956585 22.986654342496337 -0.9501444931412885 0 0 0
8707 1 7.971083035040211 22.98665434244629 -3.4384444930684976 0 0 0
8640 1 11.493238681020054 22.987262130035198 -0.9501481798657658 0 0 0
8641 1 11.493238681007442 22.987262129975946 -3.438448179843248 0 0 0
8704 1 9.731905721085116 21.7427168771725 -2.19427928153187 0 0 0
8705 1 9.732286910436887 24.231202279429315 -2.1943059269272327 0 0 0
8574 1 15.01589909064214 22.987758456623915 -0.9501625632505147 0 0 0
8575 1 15.015899090626192 22.98775845664522 -3.4384625633256256 0 0 0
8638 1 13.254352957973902 21.74346786983694 -2.1942925975336727 0 0 0
8639 1 13.254671213166645 24.23163176034329 -2.1943125928052996 0 0 0
8508 1 18.53887577268985 22.98802875625464 -0.9501832903860484 0 0 0
8509 1 18.538875772616745 22.9880287562569 -3.4384832903302835 0 0 0
8572 1 16.777298827926533 21.74395909363169 -2.194318062561026 0 0 0
8573 1 16.777426646619695 24.23193487083341 -2.1943256091890984 0 0 0
3021 1 0.928320779237616 25.47508674936667 -0.95017731403278 0 0 0
3023 1 0.9283207792087257 25.47508674939724 -3.4384773139660822 0 0 0
3331 1 0.9283913445119353 27.963897807725434 -0.9501802382742411 0 0 0
3332 1 0.9283913445150407 27.963897807694853 -3.438480238278731 0 0 0
8820 1 2.6891094337625683 26.719475668666448 -2.1943254402981824 0 0 0
8777 1 4.449754169358064 25.47508358656714 -0.9501680811198917 0 0 0
8782 1 4.44975416945363 25.475083586639478 -3.43846808107313 0 0 0
8784 1 6.210729756115865 26.719525529174 -2.1943204097069327 0 0 0
9134 1 4.450011488024294 27.963847545125702 -0.9501755987846834 0 0 0
9135 1 4.450011487973105 27.963847545110305 -3.438475598776456 0 0 0
8711 1 7.971467484400882 25.475296439575974 -0.9501637117452271 0 0 0
8716 1 7.971467484437616 25.47529643960607 -3.438463711670309 0 0 0
9068 1 7.971820847813544 27.963897726802536 -0.950173375130633 0 0 0
9069 1 7.971820847825823 27.963897726796713 -3.438473375103672 0 0 0
8645 1 11.493601296791727 25.475607592756234 -0.9501654843521388 0 0 0
8650 1 11.493601296777298 25.47560759286999 -3.4384654842918754 0 0 0
8718 1 9.732664527791972 26.719698619510886 -2.194319438132872 0 0 0
9002 1 11.493930827743414 27.964012285193743 -0.9501742462616899 0 0 0
9003 1 11.493930827770235 27.96401228512125 -3.4384742462426594 0 0 0
8579 1 15.01612461234765 25.475885087590427 -0.9501727642025661 0 0 0
8584 1 15.016124612346927 25.475885087629848 -3.438472764202781 0 0 0
8652 1 13.254964885023657 26.719905983856663 -2.1943227797629157 0 0 0
8936 1 15.016325676506035 27.964140438862778 -0.9501779136725056 0 0 0
8937 1 15.016325676565401 27.964140438873994 -3.438477913638772 0 0 0
8513 1 18.538880246085384 25.47606536467696 -0.9501832918710869 0 0 0
8518 1 18.5388802461371 25.47606536468984 -3.4384832917978643 0 0 0
8586 1 16.777542735256517 26.720078234741912 -2.1943293643726722 0 0 0
8870 1 18.538897293123522 27.964250966887697 -0.9501832264798125 0 0 0
8871 1 18.53889729309447 27.964250966835106 -3.4384832264161105 0 0 0
2998 1 0.9271971616043513 15.51801849013494 1.5382414059762635 0 0 0
8786 1 2.6879938751059447 14.273739637709467 2.7825782981715803 0 0 0
8792 1 2.687993875186128 14.27373963765246 0.29427829816142553 0 0 0
8793 1 2.6881040632692392 16.762973137111775 0.29410444748401404 0 0 0
8794 1 2.6881040631979363 16.76297313704056 2.782404447400501 0 0 0
8720 1 6.210071459695171 14.27505086538761 2.7826795567284264 0 0 0
8729 1 6.210071459739359 14.275050865325044 0.29437955673263905 0 0 0
8730 1 6.20973808914961 16.76405305984027 0.29417083077345874 0 0 0
8731 1 4.448933978432026 15.51888351078032 1.5383775780180555 0 0 0
8733 1 6.2097380891022445 16.764053059854483 2.7824708306966097 0 0 0
8665 1 7.970736174169479 15.520388458687409 1.5384108427264753 0 0 0
8599 1 11.492587511310466 15.522402467863948 1.5383626932179648 0 0 0
8654 1 9.731810235771102 14.276940352289616 2.7826401097610174 0 0 0
8663 1 9.73181023571946 14.276940352305482 0.294340109895435 0 0 0
8664 1 9.731529766996378 16.765667714811492 0.29417002809944626 0 0 0
8667 1 9.731529767023064 16.765667714807126 2.782470027987183 0 0 0
8533 1 15.015137984675388 15.524411274028502 1.5382664552152396 0 0 0
8588 1 13.253802267830373 14.279434725896085 2.782533322803997 0 0 0
8597 1 13.253802267758338 14.279434725843963 0.2942333229561147 0 0 0
8598 1 13.253786166215686 16.767444498885666 0.29411681022189984 0 0 0
8601 1 13.253786166246728 16.76744449897466 2.7824168101814197 0 0 0
8467 1 18.538719160307316 15.525448149776159 1.5381358716320437 0 0 0
8522 1 16.776667190298635 14.281497941012221 2.782394399847671 0 0 0
8531 1 16.776667190224753 14.28149794102055 0.2940943999710511 0 0 0
8532 1 16.77693539661333 16.768718819461835 0.2940284723093172 0 0 0
8535 1 16.77693539666976 16.768718819506596 2.78232847233859 0 0 0
3001 1 0.9276530479534038 18.00750638124204 1.538170303887303 0 0 0
3009 1 0.9279870113111744 20.496900965504075 1.5381415161979195 0 0 0
8795 1 2.688376793242071 19.252299769067587 2.7823314485079496 0 0 0
8804 1 2.6883767932922047 19.252299769128033 0.29403144854933544 0 0 0
8734 1 6.20977084901902 19.25303414010417 2.782368421564255 0 0 0
8736 1 4.448928226497401 18.008008084250637 1.5382413711476495 0 0 0
8752 1 6.209770848977548 19.253034140072966 0.2940684216221681 0 0 0
8754 1 4.449148663268321 20.49714721644668 1.5381778101117054 0 0 0
8670 1 7.970578390466103 18.009220358973977 1.5382680363982437 0 0 0
8688 1 7.970743582188162 20.497966191761115 1.5381935413633867 0 0 0
8604 1 11.492622702591818 18.01072259234431 1.5382494660544166 0 0 0
8622 1 11.492886260707118 20.498978893847823 1.5381855504953823 0 0 0
8668 1 9.731609455444318 19.25422520270469 2.7823725109006574 0 0 0
8686 1 9.731609455470187 19.25422520269332 0.2940725108945898 0 0 0
8538 1 15.015375199050274 18.01201817142058 1.5381959079838143 0 0 0
8556 1 15.015648128688504 20.499795121010457 1.538157447313164 0 0 0
8602 1 13.25403567946005 19.25541898789002 2.7823459029452935 0 0 0
8620 1 13.2540356794909 19.255418987857325 0.2940459030144074 0 0 0
8472 1 18.53885246909386 18.012635082067078 1.5381204364485688 0 0 0
8490 1 18.53887663537665 20.50019375039226 1.5381172344332708 0 0 0
8536 1 16.77714359351174 19.256202950309053 2.782297198513992 0 0 0
8554 1 16.777143593498586 19.256202950305063 0.2939971985152549 0 0 0
3012 1 0.9281969760935808 22.98609790309355 1.5381287124891594 0 0 0
8805 1 2.688663621185443 21.741532135932594 0.29399819335236416 0 0 0
8806 1 2.6886636211566297 21.741532135910155 2.782298193266264 0 0 0
8807 1 2.6889121822098976 24.230592207204168 2.7822823189352657 0 0 0
8815 1 2.6889121822202675 24.23059220714786 0.29398231890301696 0 0 0
8753 1 6.210035734727716 21.74195639364636 0.2940176033567321 0 0 0
8756 1 6.210035734787582 21.741956393595935 2.7823176031479346 0 0 0
8757 1 6.210386838495917 24.23078863517913 2.7822922552588243 0 0 0
8759 1 4.449452814584583 22.98618573767554 1.5381470585631796 0 0 0
8774 1 6.210386838569235 24.23078863515274 0.29399225520115385 0 0 0
8693 1 7.971083035009344 22.986654342375022 1.5381555069409094 0 0 0
8627 1 11.493238681033995 22.987262129961387 1.5381518201714373 0 0 0
8687 1 9.731905721096064 21.742716877120966 0.2940207184771295 0 0 0
8690 1 9.731905721157444 21.74271687710487 2.7823207183751912 0 0 0
8691 1 9.732286910434453 24.231202279384142 2.782294073092468 0 0 0
8708 1 9.73228691043448 24.231202279406215 0.2939940731061533 0 0 0
8561 1 15.015899090605455 22.987758456617634 1.538137436673508 0 0 0
8621 1 13.254352957926695 21.743467869828113 0.29400740244228013 0 0 0
8624 1 13.254352957874318 21.74346786984322 2.7823074023699195 0 0 0
8625 1 13.254671213140858 24.231631760331172 2.7822874071185506 0 0 0
8642 1 13.254671213183256 24.231631760298956 0.2939874071317046 0 0 0
8495 1 18.53887577265124 22.988028756287026 1.538116709613223 0 0 0
8555 1 16.7772988277876 21.74395909366511 0.2939819374018328 0 0 0
8558 1 16.777298827828325 21.743959093684644 2.7822819372941474 0 0 0
8559 1 16.777426646604898 24.23193487087308 2.782274390884957 0 0 0
8576 1 16.777426646651005 24.231934870846843 0.293974390880713 0 0 0
3020 1 0.9283207791458166 25.475086749434478 1.538122686020894 0 0 0
3327 1 0.9283913444725724 27.96389780770782 1.53811976168198 0 0 0
8816 1 2.689109433823943 26.71947566870023 0.29397455976345993 0 0 0
8817 1 2.6891094338097234 26.719475668713372 2.7822745596992844 0 0 0
8775 1 6.21072975618297 26.71952552924177 0.29397959025750414 0 0 0
8776 1 4.4497541693937634 25.475083586603713 1.538131919015385 0 0 0
8778 1 6.21072975612502 26.719525529299162 2.7822795902527075 0 0 0
9125 1 4.450011487959819 27.963847545141356 1.538124401162022 0 0 0
8710 1 7.971467484442998 25.475296439612396 1.5381362882820178 0 0 0
9059 1 7.971820847806118 27.963897726806763 1.5381266249393881 0 0 0
8644 1 11.493601296772944 25.475607592754525 1.5381345156980046 0 0 0
8709 1 9.732664527808396 26.719698619479612 0.2939805618588074 0 0 0
8712 1 9.732664527766923 26.719698619488362 2.7822805618208184 0 0 0
8993 1 11.493930827790104 27.964012285156077 1.5381257537814783 0 0 0
8578 1 15.016124612316926 25.475885087586693 1.538127235811796 0 0 0
8643 1 13.254964885013266 26.719905983832607 0.29397722034225254 0 0 0
8646 1 13.254964885078685 26.719905983860215 2.7822772202522916 0 0 0
8927 1 15.016325676545874 27.964140438826995 1.5381220863307568 0 0 0
8512 1 18.5388802462149 25.47606536467474 1.5381167082223646 0 0 0
8577 1 16.777542735192704 26.72007823475076 0.2939706356167149 0 0 0
8580 1 16.77754273521835 26.720078234740654 2.782270635550218 0 0 0
8861 1 18.538897293127782 27.96425096683778 1.53811677355912 0 0 0
2995 1 0.9271971616365244 15.51801849014381 6.514841405987553 0 0 0
2996 1 0.927197161634716 15.518018490098504 4.026541406023218 0 0 0
8787 1 2.687993875071573 14.273739637697137 5.2708782981620965 0 0 0
8788 1 2.6881040631766675 16.76297313707297 5.270704447467771 0 0 0
8721 1 6.210071459692824 14.275050865407815 5.270979556647929 0 0 0
8722 1 6.209738089132593 16.764053059904537 5.270770830761182 0 0 0
8723 1 4.448933978450653 15.51888351080939 6.514977578023841 0 0 0
8724 1 4.448933978426594 15.51888351082354 4.026677578056322 0 0 0
8657 1 7.970736174195008 15.52038845868763 6.515010842786322 0 0 0
8658 1 7.970736174166022 15.520388458723257 4.02671084282097 0 0 0
8591 1 11.492587511287981 15.522402467881253 6.514962693255344 0 0 0
8592 1 11.492587511238137 15.522402467938642 4.026662693290552 0 0 0
8655 1 9.731810235741838 14.276940352294 5.270940109878792 0 0 0
8656 1 9.731529767049917 16.765667714780754 5.270770028110555 0 0 0
8525 1 15.015137984644651 15.524411274050513 6.5148664552302975 0 0 0
8526 1 15.015137984664795 15.52441127413153 4.026566455359244 0 0 0
8589 1 13.25380226779127 14.279434725915007 5.270833322923201 0 0 0
8590 1 13.253786166280202 16.76744449893626 5.270716810162811 0 0 0
8459 1 18.53871916030563 15.525448149806726 6.51473587165761 0 0 0
8460 1 18.53871916028684 15.525448149846273 4.026435871623732 0 0 0
8523 1 16.77666719034411 14.281497941051038 5.27069439992411 0 0 0
8524 1 16.77693539664174 16.768718819506272 5.270628472314535 0 0 0
2997 1 0.9276530479986891 18.007506381266623 6.514770303930304 0 0 0
3000 1 0.9276530480228041 18.0075063812938 4.026470303954812 0 0 0
3002 1 0.9279870112982749 20.49690096550891 6.514741516221001 0 0 0
3003 1 0.927987011348521 20.496900965510342 4.026441516200154 0 0 0
8796 1 2.6883767932310954 19.252299769093735 5.270631448464892 0 0 0
8727 1 4.448928226588754 18.008008084233378 6.514841371140052 0 0 0
8735 1 4.448928226536734 18.008008084244857 4.026541371211303 0 0 0
8737 1 6.209770849003838 19.25303414011725 5.270668421606522 0 0 0
8739 1 4.4491486633624 20.497147216475962 6.514777810185033 0 0 0
8740 1 4.449148663341647 20.49714721640498 4.026477810175735 0 0 0
8661 1 7.970578390458916 18.00922035897075 6.514868036357787 0 0 0
8669 1 7.97057839046916 18.009220358957577 4.026568036466531 0 0 0
8673 1 7.970743582195308 20.497966191789114 6.514793541248117 0 0 0
8674 1 7.970743582247971 20.497966191745963 4.026493541353117 0 0 0
8595 1 11.492622702654982 18.010722592390117 6.514849465957719 0 0 0
8603 1 11.492622702587807 18.010722592350998 4.026549466114487 0 0 0
8607 1 11.492886260738556 20.498978893847752 6.514785550499884 0 0 0
8608 1 11.492886260663067 20.498978893807017 4.026485550500421 0 0 0
8671 1 9.731609455434864 19.254225202725042 5.270672510886938 0 0 0
8529 1 15.015375199035336 18.01201817141102 6.51479590791532 0 0 0
8537 1 15.01537519900005 18.012018171381186 4.026495908032443 0 0 0
8541 1 15.015648128764019 20.49979512101419 6.514757447351777 0 0 0
8542 1 15.015648128689861 20.499795120969228 4.026457447314781 0 0 0
8605 1 13.254035679530551 19.25541898785351 5.270645902975909 0 0 0
8463 1 18.538852469021013 18.012635082036383 6.514720436486533 0 0 0
8471 1 18.538852469023887 18.01263508201859 4.026420436518998 0 0 0
8475 1 18.538876635401998 20.500193750337573 6.514717234490927 0 0 0
8476 1 18.538876635418102 20.50019375037867 4.0264172345075275 0 0 0
8539 1 16.7771435935239 19.256202950286674 5.270597198520392 0 0 0
3004 1 0.9281969761766011 22.986097903109357 6.5147287125211255 0 0 0
3011 1 0.9281969761601715 22.986097903176674 4.026428712495679 0 0 0
8797 1 2.6886636211482915 21.741532135964142 5.270598193417485 0 0 0
8808 1 2.6889121822519573 24.230592207140283 5.270582318933289 0 0 0
8738 1 6.210035734665062 21.741956393622537 5.27061760332748 0 0 0
8743 1 4.449452814549748 22.986185737654377 6.514747058600057 0 0 0
8758 1 4.449452814571817 22.986185737732114 4.026447058579222 0 0 0
8760 1 6.210386838546455 24.2307886351564 5.270592255224776 0 0 0
8677 1 7.971083034966655 22.986654342437003 6.514755506860571 0 0 0
8692 1 7.971083035031806 22.986654342461236 4.026455506924428 0 0 0
8611 1 11.493238681004776 22.987262130027194 6.514751820121126 0 0 0
8626 1 11.493238680977537 22.987262129982785 4.026451820153961 0 0 0
8672 1 9.731905721084317 21.742716877167112 5.270620718475074 0 0 0
8694 1 9.73228691041847 24.23120227941585 5.270594073045305 0 0 0
8545 1 15.015899090612002 22.98775845663286 6.514737436773188 0 0 0
8560 1 15.015899090612004 22.987758456630456 4.026437436680566 0 0 0
8606 1 13.25435295796327 21.743467869851195 5.27060740250364 0 0 0
8628 1 13.254671213143137 24.231631760339187 5.270587407158547 0 0 0
8479 1 18.538875772673784 22.988028756241498 6.514716709647714 0 0 0
8494 1 18.5388757725966 22.98802875624716 4.026416709668684 0 0 0
8540 1 16.777298827915672 21.743959093616 5.270581937456656 0 0 0
8562 1 16.777426646601 24.231934870831 5.2705743908082425 0 0 0
3013 1 0.9283207792095519 25.475086749413986 6.514722685993768 0 0 0
3014 1 0.928320779176096 25.47508674935534 4.026422686028221 0 0 0
3325 1 0.9283913445121492 27.963897807699915 6.514719761728325 0 0 0
3326 1 0.9283913444891846 27.963897807749984 4.026419761717343 0 0 0
8809 1 2.689109433730777 26.719475668697342 5.270574559759077 0 0 0
8761 1 6.2107297560958115 26.71952552920087 5.270579590335873 0 0 0
8762 1 4.449754169343304 25.475083586622848 6.514731918909256 0 0 0
8763 1 4.449754169436254 25.47508358659827 4.02643191892542 0 0 0
9122 1 4.450011487993057 27.963847545109907 6.514724401235539 0 0 0
9124 1 4.450011487960234 27.963847545170342 4.026424401231111 0 0 0
8696 1 7.971467484406101 25.475296439609618 6.5147362882776205 0 0 0
8697 1 7.971467484421134 25.475296439577807 4.02643628829965 0 0 0
9056 1 7.971820847826451 27.963897726779727 6.5147266248652445 0 0 0
9058 1 7.971820847835913 27.963897726847687 4.026426624899218 0 0 0
8630 1 11.493601296785819 25.475607592788712 6.5147345156492955 0 0 0
8631 1 11.493601296783062 25.475607592834578 4.026434515686213 0 0 0
8695 1 9.732664527803994 26.719698619502008 5.270580561882985 0 0 0
8990 1 11.493930827754422 27.964012285183237 6.514725753745636 0 0 0
8992 1 11.493930827779383 27.964012285165893 4.026425753758841 0 0 0
8564 1 15.016124612338077 25.475885087623986 6.514727235800959 0 0 0
8565 1 15.0161246123524 25.47588508764204 4.026427235776478 0 0 0
8629 1 13.254964885028219 26.719905983880377 5.270577220265032 0 0 0
8924 1 15.016325676517134 27.964140438891427 6.514722086361878 0 0 0
8926 1 15.01632567658231 27.964140438876804 4.026422086358156 0 0 0
8498 1 18.53888024608396 25.476065364668877 6.514716708160756 0 0 0
8499 1 18.53888024615232 25.47606536468318 4.02641670819747 0 0 0
8563 1 16.77754273527946 26.720078234766977 5.2705706356523825 0 0 0
8858 1 18.53889729313907 27.9642509668833 6.514716773549081 0 0 0
8860 1 18.538897293111727 27.96425096683555 4.026416773575078 0 0 0
3342 1 0.928429794052554 30.452573018355622 -5.9267816811901115 0 0 0
9187 1 2.689256838017178 29.20821147162655 -7.170929283016973 0 0 1
9202 1 2.6892568379754827 29.208211471590285 -4.682629283103688 0 0 0
9121 1 6.2110196683891346 29.20817832392557 -7.170926746550801 0 0 1
9152 1 6.211019668379596 29.208178323919313 -4.682626746678625 0 0 0
9155 1 4.4502118999643425 30.45250337746518 -5.926779351871202 0 0 0
9089 1 7.972110814184183 30.45246273450465 -5.926778226964905 0 0 0
9023 1 11.494206909909678 30.452459192710226 -5.92677865626698 0 0 0
9055 1 9.732992699195155 29.20820323703805 -7.170926242623812 0 0 1
9086 1 9.732992699131769 29.20820323700501 -4.682626242624665 0 0 0
8957 1 15.016499753949573 30.452489730015753 -5.926780502160933 0 0 0
8989 1 13.255220528256297 29.20826652081612 -7.1709279180911185 0 0 1
9020 1 13.255220528228955 29.20826652079079 -4.682627918198572 0 0 0
8891 1 18.53892480998277 30.452546470100916 -5.926783179039029 0 0 0
8923 1 16.77765084390953 29.208346124631536 -7.170931238060532 0 0 1
8954 1 16.777650843941117 29.208346124656227 -4.68263123813603 0 0 0
3351 1 0.9284486070729338 32.94115216346035 -5.926782396726701 0 0 0
9191 1 2.6893611464399525 31.69683684896785 -7.170931198872754 0 0 1
9192 1 2.6894307775071997 34.18538572356615 -7.170932150687963 0 0 1
9203 1 2.689361146370344 31.696836848977746 -4.682631198831157 0 0 0
9211 1 2.689430777453801 34.185385723547405 -4.682632150662807 0 0 0
9130 1 6.211243801735881 31.696764392460153 -7.170929921246474 0 0 1
9131 1 6.211405899780117 34.1853011974442 -7.170931508458636 0 0 1
9153 1 6.211243801703337 31.696764392467603 -4.682629921293658 0 0 0
9171 1 4.450357582303478 32.94107981210983 -5.926781227128394 0 0 0
9172 1 6.211405899812362 34.18530119742451 -4.682631508488239 0 0 0
9105 1 7.9723313486844765 32.94099694838197 -5.9267806601122 0 0 0
9039 1 11.494424006365835 32.940930952849946 -5.926780876068972 0 0 0
9064 1 9.733255000395813 31.696708897714867 -7.170929663533069 0 0 1
9065 1 9.733451748283258 34.18521007739903 -7.170931380597817 0 0 1
9087 1 9.733255000507503 31.696708897761432 -4.682629663525218 0 0 0
9106 1 9.733451748273218 34.185210077458066 -4.682631380611619 0 0 0
8973 1 15.016643841398356 32.940902907298344 -5.926781805582355 0 0 0
8998 1 13.25543130493191 31.696686427038976 -7.170930503394542 0 0 1
8999 1 13.25559609175227 34.18514307862761 -7.17093180651395 0 0 1
9021 1 13.255431304954536 31.696686427014203 -4.682630503423229 0 0 0
9040 1 13.255596091742447 34.1851430785639 -4.682631806499009 0 0 0
8907 1 18.538957637972793 32.94092084769042 -5.92678315085774 0 0 0
8932 1 16.77774847906833 31.69670329475361 -7.170932176051878 0 0 1
8933 1 16.777832042227693 34.185121297696014 -7.170932646518223 0 0 1
8955 1 16.777748479080504 31.696703294757278 -4.682632176046609 0 0 0
8974 1 16.777832042287237 34.18512129766327 -4.682632646484731 0 0 0
3353 1 0.9284553084738826 35.429667712489206 -5.92678275031352 0 0 0
3358 1 0.9284547344340964 37.91814400073667 -5.92678293204269 0 0 0
9200 1 2.6894740600566376 36.67388495462686 -7.170932625692518 0 0 1
9212 1 2.6894740599736218 36.67388495470051 -4.682632625670983 0 0 0
9148 1 6.211516346240097 36.67380373444364 -7.170932306875547 0 0 1
9173 1 6.211516346296487 36.673803734438835 -4.682632306901561 0 0 0
9175 1 4.450457169398941 35.42960180219894 -5.926782160609922 0 0 0
9183 1 4.450520932649051 37.91808872429472 -5.926782638879645 0 0 0
9109 1 7.972489191649631 35.42950657968347 -5.926781879269035 0 0 0
9117 1 7.972595808850067 37.91799779895187 -5.926782502588857 0 0 0
9043 1 11.494585447371586 35.42941461092318 -5.926781993228752 0 0 0
9051 1 11.494699099439808 37.91790200234118 -5.926782561387521 0 0 0
9082 1 9.73359124555528 36.67370417739438 -7.170932247918582 0 0 1
9107 1 9.733591245573244 36.67370417736639 -4.68263224796878 0 0 0
8977 1 15.01675709032422 35.42935637342326 -5.926782462239887 0 0 0
8985 1 15.016841356886609 37.91783292426326 -5.926782797592886 0 0 0
9016 1 13.255718243724562 36.673619997107096 -7.170932464411155 0 0 1
9041 1 13.255718243706864 36.673619997139305 -4.682632464451648 0 0 0
8911 1 18.538990738527353 35.42934908758943 -5.926783138385079 0 0 0
8919 1 18.53902054119989 37.917811555658034 -5.926783135105308 0 0 0
8950 1 16.77789942236018 36.67357801490872 -7.1709328866114515 0 0 1
8975 1 16.777899422420987 36.67357801486549 -4.682632886664789 0 0 0
3360 1 0.9284501384562739 40.4065982053019 -5.926783038476996 0 0 0
9201 1 2.6894983648542223 39.16235421079437 -7.1709328778033194 0 0 1
9216 1 2.6894983648342743 39.16235421083595 -4.682632877826333 0 0 0
9578 1 2.6895097330121716 41.65080712022657 -7.170933015393271 0 0 1
9587 1 2.6895097330458593 41.650807120196134 -4.682633015407277 0 0 0
9149 1 6.211586919175388 39.16228382605872 -7.170932719641811 0 0 1
9184 1 6.2115869191188375 39.16228382604535 -4.68263271963213 0 0 0
9186 1 4.450558478280741 40.40655465691881 -5.92678289153698 0 0 0
9512 1 6.211628408338645 41.65075026700994 -7.170932937603959 0 0 1
9527 1 6.211628408318467 41.65075026704263 -4.682632937610343 0 0 0
9120 1 7.972663251118913 40.40647610358732 -5.926782822668656 0 0 0
9054 1 11.494774424760621 40.406388643423696 -5.926782853886042 0 0 0
9083 1 9.73368457477163 39.16219083844447 -7.170932692413671 0 0 1
9118 1 9.733684574784013 39.162190838366016 -4.682632692381193 0 0 0
9446 1 9.733742815083186 41.65067095413004 -7.170932923182442 0 0 1
9461 1 9.733742815131189 41.65067095414055 -4.68263292333025 0 0 0
8988 1 15.016900490576678 40.40632080118967 -5.926782971505519 0 0 0
9017 1 13.255803862891522 39.16210626395413 -7.1709328020573855 0 0 1
9052 1 13.255803862807314 39.16210626398232 -4.682632802071411 0 0 0
9380 1 13.255860163483039 41.65059518985817 -7.170932976379569 0 0 1
9395 1 13.255860163459063 41.650595189809 -4.682632976483017 0 0 0
8922 1 18.539045171331086 40.406293585182475 -5.926783140984821 0 0 0
8951 1 16.777950576942818 39.1620570978849 -7.17093301360121 0 0 1
8986 1 16.777950576955135 39.16205709787094 -4.682633013532356 0 0 0
9314 1 16.777987094444796 41.650547142182404 -7.170933081773565 0 0 1
9329 1 16.777987094562363 41.65054714216462 -4.682633081737093 0 0 0
3334 1 0.9284297940229798 30.452573018347984 -0.9501816813256674 0 0 0
3341 1 0.9284297940709814 30.452573018397594 -3.43848168122287 0 0 0
9193 1 2.6892568379795336 29.208211471646585 -2.1943292830435293 0 0 0
9133 1 6.2110196683859344 29.208178323869447 -2.1943267466044674 0 0 0
9139 1 4.450211900001817 30.452503377386495 -0.9501793519041198 0 0 0
9154 1 4.450211900003469 30.452503377461532 -3.438479351869044 0 0 0
9073 1 7.97211081424495 30.452462734475716 -0.950178227056775 0 0 0
9088 1 7.972110814234386 30.452462734544156 -3.4384782269346164 0 0 0
9007 1 11.494206909950151 30.45245919266754 -0.950178656400456 0 0 0
9022 1 11.4942069098545 30.45245919266472 -3.4384786562855716 0 0 0
9067 1 9.732992699183143 29.20820323700744 -2.194326242568145 0 0 0
8941 1 15.016499753889752 30.452489729971084 -0.9501805021513927 0 0 0
8956 1 15.016499753935886 30.452489730048807 -3.4384805021609153 0 0 0
9001 1 13.255220528287014 29.208266520801363 -2.1943279181697446 0 0 0
8875 1 18.538924809965028 30.452546470108263 -0.9501831790073854 0 0 0
8890 1 18.538924809941772 30.452546470072015 -3.4384831789880317 0 0 0
8935 1 16.777650843946002 29.20834612463931 -2.1943312380510385 0 0 0
3343 1 0.9284486070989808 32.94115216339572 -0.9501823967497072 0 0 0
3344 1 0.9284486071190581 32.941152163397895 -3.438482396670531 0 0 0
9204 1 2.689361146406029 31.6968368489585 -2.19433119891306 0 0 0
9205 1 2.6894307774429373 34.18538572352806 -2.194332150709055 0 0 0
9156 1 6.2112438017249785 31.69676439250802 -2.1943299212311107 0 0 0
9157 1 6.211405899766915 34.185301197489686 -2.194331508477233 0 0 0
9158 1 4.450357582373815 32.94107981211677 -0.9501812271864946 0 0 0
9159 1 4.45035758233481 32.941079812159366 -3.438481227142066 0 0 0
9092 1 7.972331348708011 32.940996948397654 -0.9501806601640596 0 0 0
9093 1 7.972331348677751 32.94099694838274 -3.4384806600808635 0 0 0
9026 1 11.494424006341895 32.940930952778864 -0.9501808761351531 0 0 0
9027 1 11.494424006318004 32.94093095277135 -3.4384808760207615 0 0 0
9090 1 9.733255000461288 31.696708897693373 -2.1943296634848766 0 0 0
9091 1 9.733451748266225 34.18521007745016 -2.1943313806269096 0 0 0
8960 1 15.016643841375227 32.940902907287004 -0.9501818056377619 0 0 0
8961 1 15.01664384136612 32.940902907261986 -3.4384818056100808 0 0 0
9024 1 13.255431304990402 31.696686426992027 -2.1943305033898524 0 0 0
9025 1 13.255596091748396 34.18514307857874 -2.194331806444134 0 0 0
8894 1 18.53895763792057 32.9409208476116 -0.9501831508307793 0 0 0
8895 1 18.538957637917186 32.94092084769218 -3.4384831508306215 0 0 0
8958 1 16.77774847908211 31.69670329480376 -2.194332176074885 0 0 0
8959 1 16.777832042280373 34.18512129770208 -2.1943326465881747 0 0 0
3346 1 0.9284553084909227 35.429667712493256 -0.9501827503181018 0 0 0
3352 1 0.9284553085578029 35.429667712374346 -3.4384827502921724 0 0 0
3354 1 0.928454734450855 37.91814400068365 -0.9501829319839938 0 0 0
3355 1 0.9284547344984586 37.91814400066401 -3.4384829320444448 0 0 0
9213 1 2.6894740599586107 36.673884954683736 -2.1943326256832654 0 0 0
9163 1 4.450457169369189 35.42960180223109 -0.9501821606715958 0 0 0
9174 1 4.450457169382918 35.42960180226741 -3.438482160657864 0 0 0
9176 1 6.211516346208961 36.67380373446878 -2.1943323069643808 0 0 0
9178 1 4.450520932600216 37.918088724317506 -0.9501826388273058 0 0 0
9179 1 4.450520932625937 37.91808872430697 -3.438482638820594 0 0 0
9097 1 7.972489191678394 35.42950657970279 -0.9501818793156595 0 0 0
9108 1 7.9724891916970515 35.42950657971551 -3.4384818793093146 0 0 0
9112 1 7.9725958088761635 37.917997798953415 -0.9501825026656107 0 0 0
9113 1 7.972595808884636 37.91799779890715 -3.438482502599299 0 0 0
9031 1 11.49458544737379 35.42941461088565 -0.9501819931734012 0 0 0
9042 1 11.49458544733182 35.42941461091271 -3.438481993162295 0 0 0
9046 1 11.49469909945428 37.917902002314136 -0.9501825614082883 0 0 0
9047 1 11.494699099464237 37.9179020023166 -3.4384825613422003 0 0 0
9110 1 9.733591245572791 36.67370417733003 -2.1943322479385814 0 0 0
8965 1 15.016757090299112 35.42935637342773 -0.9501824622951719 0 0 0
8976 1 15.016757090241638 35.42935637343534 -3.438482462269344 0 0 0
8980 1 15.016841356872334 37.91783292431031 -0.9501827976167686 0 0 0
8981 1 15.016841356835375 37.917832924309295 -3.4384827975632333 0 0 0
9044 1 13.255718243755556 36.67361999712284 -2.1943324644654654 0 0 0
8899 1 18.538990738495553 35.429349087685836 -0.9501831384247905 0 0 0
8910 1 18.538990738437665 35.4293490875509 -3.4384831384714754 0 0 0
8914 1 18.53902054116205 37.9178115557213 -0.9501831350747669 0 0 0
8915 1 18.53902054113683 37.917811555731554 -3.438483135106197 0 0 0
8978 1 16.77789942242801 36.673578014908365 -2.194332886628401 0 0 0
3357 1 0.9284501384888707 40.40659820527473 -0.9501830385309484 0 0 0
3359 1 0.9284501384743657 40.406598205234474 -3.438483038495094 0 0 0
9214 1 2.689498364789978 39.16235421085785 -2.194332877862277 0 0 0
9588 1 2.689509733001816 41.650807120206245 -2.1943330154013614 0 0 0
9177 1 6.211586919193958 39.16228382608031 -2.1943327196451228 0 0 0
9182 1 4.4505584782962195 40.406554656934425 -0.9501828916295634 0 0 0
9185 1 4.450558478300883 40.40655465684205 -3.4384828914790853 0 0 0
9528 1 6.211628408362392 41.650750266983444 -2.1943329375962084 0 0 0
9116 1 7.972663251072124 40.40647610358008 -0.9501828227295195 0 0 0
9119 1 7.972663251131464 40.40647610356692 -3.438482822657365 0 0 0
9050 1 11.49477442476117 40.40638864342596 -0.9501828539432503 0 0 0
9053 1 11.494774424770695 40.40638864340122 -3.438482853889278 0 0 0
9111 1 9.733684574753989 39.162190838322566 -2.194332692466808 0 0 0
9462 1 9.73374281513482 41.650670954126085 -2.194332923259878 0 0 0
8984 1 15.016900490624284 40.40632080121702 -0.9501829716581444 0 0 0
8987 1 15.016900490581733 40.40632080116676 -3.438482971569614 0 0 0
9045 1 13.255803862839798 39.16210626397044 -2.194332802092638 0 0 0
9396 1 13.255860163483948 41.65059518983273 -2.194332976402586 0 0 0
8918 1 18.539045171311063 40.40629358514276 -0.9501831410202484 0 0 0
8921 1 18.539045171291054 40.406293585119805 -3.438483140906515 0 0 0
8979 1 16.77795057699349 39.16205709796159 -2.1943330135449504 0 0 0
9330 1 16.77798709455964 41.65054714224731 -2.1943330817937174 0 0 0
3333 1 0.9284297940569219 30.45257301835773 1.5381183187610654 0 0 0
9188 1 2.6892568379890953 29.208211471618593 2.7822707168839407 0 0 0
9194 1 2.689256838028726 29.20821147159433 0.29397071689513793 0 0 0
9123 1 6.211019668405803 29.208178323920098 2.782273253345474 0 0 0
9136 1 6.211019668395392 29.208178323908704 0.293973253372885 0 0 0
9138 1 4.450211899976355 30.452503377487623 1.5381206480878784 0 0 0
9072 1 7.972110814185918 30.45246273454479 1.538121773009531 0 0 0
9006 1 11.494206909895404 30.452459192758806 1.5381213437108885 0 0 0
9057 1 9.73299269913941 29.20820323701387 2.782273757386194 0 0 0
9070 1 9.732992699185647 29.208203237037907 0.2939737573385426 0 0 0
8940 1 15.016499753957254 30.452489730015824 1.5381194978191803 0 0 0
8991 1 13.255220528222571 29.208266520806962 2.7822720817928914 0 0 0
9004 1 13.255220528239045 29.208266520792403 0.293972081855415 0 0 0
8874 1 18.538924809978568 30.45254647010203 1.538116820935609 0 0 0
8925 1 16.777650843939693 29.20834612464346 2.782268761825608 0 0 0
8938 1 16.777650843887105 29.20834612460153 0.2939687618520819 0 0 0
3336 1 0.928448607073931 32.94115216343877 1.5381176032368935 0 0 0
9195 1 2.6893611464523777 31.696836848974637 0.29396880114713236 0 0 0
9196 1 2.68936114637064 31.69683684896177 2.782268801098321 0 0 0
9197 1 2.689430777437851 34.185385723573056 2.782267849339581 0 0 0
9206 1 2.6894307775114275 34.18538572356142 0.2939678493088337 0 0 0
9137 1 6.211243801724779 31.696764392471174 0.29397007878419895 0 0 0
9140 1 6.211243801707848 31.69676439244283 2.7822700786833234 0 0 0
9141 1 6.211405899811449 34.185301197455885 2.782268491558431 0 0 0
9143 1 4.450357582295652 32.94107981211079 1.5381187728777204 0 0 0
9160 1 6.211405899772586 34.1853011974464 0.29396849152706594 0 0 0
9077 1 7.972331348658528 32.94099694837551 1.5381193398713022 0 0 0
9011 1 11.494424006376379 32.94093095283472 1.538119123921642 0 0 0
9071 1 9.733255000410473 31.696708897739978 0.2939703365002974 0 0 0
9074 1 9.733255000473658 31.696708897749676 2.7822703364426546 0 0 0
9075 1 9.73345174828301 34.18521007744166 2.7822686193952504 0 0 0
9094 1 9.73345174828203 34.18521007739094 0.29396861942088903 0 0 0
8945 1 15.01664384142544 32.94090290732326 1.5381181944010471 0 0 0
9005 1 13.255431304938417 31.696686427054512 0.29396949663798144 0 0 0
9008 1 13.25543130498523 31.69668642700938 2.7822694965768267 0 0 0
9009 1 13.255596091770162 34.18514307857268 2.7822681935110873 0 0 0
9028 1 13.255596091746447 34.18514307862858 0.2939681934859857 0 0 0
8879 1 18.53895763798084 32.94092084771787 1.538116849116424 0 0 0
8939 1 16.777748479050118 31.696703294765154 0.2939678239505027 0 0 0
8942 1 16.77774847908928 31.696703294749042 2.782267823944023 0 0 0
8943 1 16.777832042297586 34.18512129767682 2.782267353510456 0 0 0
8962 1 16.777832042219213 34.18512129772546 0.2939673535015272 0 0 0
3345 1 0.9284553084691098 35.42966771247979 1.538117249701665 0 0 0
3348 1 0.9284547344315079 37.918144000746125 1.53811706794064 0 0 0
9207 1 2.689474060044955 36.673884954635824 0.29396737431571407 0 0 0
9208 1 2.689474059978234 36.67388495469004 2.782267374302985 0 0 0
9161 1 6.211516346235623 36.673803734456534 0.29396769312580195 0 0 0
9162 1 4.450457169403126 35.42960180221134 1.5381178393462043 0 0 0
9164 1 6.211516346287179 36.67380373444859 2.782267693091476 0 0 0
9167 1 4.450520932643167 37.91808872431562 1.538117361114002 0 0 0
9096 1 7.972489191648945 35.42950657970314 1.5381181207261703 0 0 0
9101 1 7.972595808849738 37.91799779895378 1.538117497375526 0 0 0
9030 1 11.494585447369259 35.4294146109252 1.5381180067890554 0 0 0
9035 1 11.49469909943544 37.917902002364684 1.5381174385876226 0 0 0
9095 1 9.733591245561284 36.673704177387286 0.2939677521027301 0 0 0
9098 1 9.733591245573098 36.673704177362595 2.7822677520301413 0 0 0
8964 1 15.016757090326326 35.429356373421896 1.5381175377416776 0 0 0
8969 1 15.016841356883882 37.91783292428691 1.5381172023657175 0 0 0
9029 1 13.25571824372292 36.67361999710611 0.29396753557554656 0 0 0
9032 1 13.255718243706621 36.67361999714185 2.782267535546918 0 0 0
8898 1 18.538990738514098 35.429349087595014 1.5381168616095149 0 0 0
8903 1 18.53902054118474 37.91781155572847 1.5381168648689374 0 0 0
8963 1 16.77789942233079 36.67357801493015 0.29396711334607445 0 0 0
8966 1 16.777899422414322 36.6735780148969 2.782267113333623 0 0 0
3356 1 0.9284501384638919 40.40659820525368 1.53811696147531 0 0 0
9209 1 2.6894983648329434 39.16235421082895 2.782267122112757 0 0 0
9215 1 2.689498364864844 39.16235421079403 0.29396712217535875 0 0 0
9580 1 2.689509733036352 41.65080712023188 0.2939669845540525 0 0 0
9581 1 2.6895097330473448 41.65080712019124 2.782266984598395 0 0 0
9165 1 6.211586919127101 39.16228382604762 2.782267280360378 0 0 0
9180 1 6.211586919179459 39.16228382606175 0.2939672803424548 0 0 0
9181 1 4.450558478317139 40.406554656900454 1.5381171084287133 0 0 0
9515 1 6.211628408342008 41.65075026702641 0.29396706235378794 0 0 0
9516 1 6.211628408343389 41.6507502670523 2.782267062404554 0 0 0
9115 1 7.972663251110899 40.4064761035735 1.5381171772916404 0 0 0
9049 1 11.494774424754146 40.40638864341488 1.538117146064658 0 0 0
9099 1 9.733684574787935 39.16219083837963 2.7822673075716726 0 0 0
9114 1 9.733684574760414 39.16219083844539 0.29396730757403117 0 0 0
9449 1 9.733742815071844 41.65067095414099 0.2939670767477881 0 0 0
9450 1 9.733742815127851 41.650670954161605 2.782267076662753 0 0 0
8983 1 15.016900490583861 40.406320801145 1.5381170284542929 0 0 0
9033 1 13.255803862813668 39.16210626396925 2.7822671978796176 0 0 0
9048 1 13.255803862896961 39.16210626394845 0.29396719790920933 0 0 0
9383 1 13.255860163503723 41.65059518985418 0.29396702355747867 0 0 0
9384 1 13.255860163472395 41.65059518981355 2.782267023532824 0 0 0
8917 1 18.539045171324247 40.406293585146805 1.5381168589851602 0 0 0
8967 1 16.777950576970305 39.16205709787356 2.7822669864206953 0 0 0
8982 1 16.77795057692948 39.162057097890234 0.2939669864058705 0 0 0
9317 1 16.777987094464013 41.650547142191996 0.29396691818029613 0 0 0
9318 1 16.777987094556195 41.650547142157784 2.782266918306101 0 0 0
3328 1 0.9284297940131051 30.452573018369833 6.51471831873412 0 0 0
3329 1 0.9284297940524855 30.452573018336643 4.026418318748997 0 0 0
9189 1 2.689256837969792 29.208211471667045 5.270570716940289 0 0 0
9126 1 6.211019668406634 29.208178323873334 5.270573253385986 0 0 0
9128 1 4.450211899998778 30.45250337741472 6.514720648156922 0 0 0
9129 1 4.450211900018339 30.452503377432084 4.026420648098785 0 0 0
9062 1 7.972110814248319 30.45246273451296 6.514721773002543 0 0 0
9063 1 7.972110814242907 30.452462734515482 4.026421773062811 0 0 0
8996 1 11.494206909937246 30.4524591926953 6.514721343640602 0 0 0
8997 1 11.494206909852062 30.452459192667714 4.026421343705078 0 0 0
9060 1 9.7329926992006 29.208203236992762 5.270573757412229 0 0 0
8930 1 15.016499753929164 30.45248972997995 6.514719497897968 0 0 0
8931 1 15.016499753965242 30.452489730027633 4.0264194978343 0 0 0
8994 1 13.255220528302793 29.20826652081987 5.270572081819078 0 0 0
8864 1 18.538924809981857 30.45254647008811 6.514716821009666 0 0 0
8865 1 18.538924809938415 30.452546470061794 4.026416820968473 0 0 0
8928 1 16.777650843969266 29.208346124635565 5.270568761963418 0 0 0
3330 1 0.9284486070914133 32.94115216337605 6.514717603236635 0 0 0
3335 1 0.9284486070838484 32.94115216339454 4.026417603331758 0 0 0
9190 1 2.689361146401133 31.696836848971476 5.2705688011314935 0 0 0
9198 1 2.6894307774286283 34.185385723526046 5.2705678493051344 0 0 0
9127 1 6.211243801715992 31.696764392519267 5.27057007880277 0 0 0
9132 1 4.45035758236368 32.94107981208817 6.514718772802314 0 0 0
9142 1 4.450357582337883 32.941079812173086 4.026418772863073 0 0 0
9144 1 6.211405899752821 34.18530119749819 5.270568491519489 0 0 0
9066 1 7.972331348695362 32.94099694836191 6.514719339824496 0 0 0
9076 1 7.9723313486554925 32.94099694841059 4.026419339922231 0 0 0
9000 1 11.49442400633876 32.940930952751465 6.514719123879297 0 0 0
9010 1 11.494424006330645 32.94093095277336 4.026419123992926 0 0 0
9061 1 9.733255000441998 31.69670889767391 5.270570336554229 0 0 0
9078 1 9.733451748280858 34.18521007741257 5.27056861937462 0 0 0
8934 1 15.016643841386616 32.94090290727788 6.514718194373566 0 0 0
8944 1 15.016643841384084 32.94090290724017 4.0264181944002315 0 0 0
8995 1 13.255431304994215 31.696686426980357 5.270569496634661 0 0 0
9012 1 13.255596091776955 34.18514307857552 5.270568193559855 0 0 0
8868 1 18.538957637938697 32.94092084762795 6.514716849183192 0 0 0
8878 1 18.538957637937788 32.94092084768532 4.026416849176473 0 0 0
8929 1 16.777748479106478 31.69670329480349 5.270567823945019 0 0 0
8946 1 16.77783204230124 34.185121297688376 5.270567353433016 0 0 0
3337 1 0.928455308494998 35.42966771251178 6.5147172497052255 0 0 0
3338 1 0.9284553085558223 35.42966771240033 4.026417249701322 0 0 0
3339 1 0.9284547344579472 37.918144000704444 6.514717068025964 0 0 0
3347 1 0.9284547345023354 37.918144000647864 4.026417067968194 0 0 0
9199 1 2.6894740599591818 36.67388495469935 5.2705673743221 0 0 0
9145 1 6.2115163462209155 36.67380373447475 5.270567693053963 0 0 0
9146 1 4.450457169358986 35.429601802228156 6.5147178393889025 0 0 0
9147 1 4.450457169375095 35.429601802247355 4.026417839339056 0 0 0
9150 1 4.450520932598415 37.91808872432283 6.514717361164098 0 0 0
9166 1 4.45052093261514 37.91808872427466 4.026417361193146 0 0 0
9080 1 7.972489191689241 35.429506579699265 6.514718120709067 0 0 0
9081 1 7.972489191704814 35.4295065796844 4.026418120691119 0 0 0
9084 1 7.97259580887937 37.91799779896764 6.514717497342885 0 0 0
9100 1 7.972595808894393 37.917997798916794 4.026417497400061 0 0 0
9014 1 11.494585447384171 35.429414610899656 6.514718006811088 0 0 0
9015 1 11.494585447344738 35.42941461090673 4.026418006827495 0 0 0
9018 1 11.494699099453504 37.9179020023269 6.514717438611349 0 0 0
9034 1 11.494699099473666 37.91790200233334 4.026417438640707 0 0 0
9079 1 9.733591245552775 36.67370417734544 5.270567752053975 0 0 0
8948 1 15.016757090328632 35.42935637341528 6.5147175377426185 0 0 0
8949 1 15.016757090273495 35.4293563734631 4.02641753774499 0 0 0
8952 1 15.01684135688779 37.9178329243403 6.5147172024363735 0 0 0
8968 1 15.016841356842336 37.91783292429914 4.02641720243614 0 0 0
9013 1 13.255718243774472 36.67361999713468 5.270567535510238 0 0 0
8882 1 18.538990738498864 35.4293490876585 6.514716861570305 0 0 0
8883 1 18.538990738464182 35.429349087619876 4.026416861505797 0 0 0
8886 1 18.539020541177155 37.91781155576456 6.514716864959786 0 0 0
8902 1 18.539020541161143 37.91781155570961 4.02641686489108 0 0 0
8947 1 16.777899422439603 36.67357801492775 5.270567113373852 0 0 0
3349 1 0.9284501384932855 40.40659820524128 6.514716961524219 0 0 0
3350 1 0.9284501384799637 40.40659820525247 4.02641696148849 0 0 0
9210 1 2.68949836479462 39.16235421084842 5.270567122196385 0 0 0
9577 1 2.6895097330038276 41.65080712021332 5.2705669845822465 0 0 0
9168 1 6.211586919196067 39.16228382607731 5.270567280369865 0 0 0
9169 1 4.45055847829747 40.406554656910636 6.5147171084084885 0 0 0
9170 1 4.450558478299027 40.40655465685477 4.02641710851313 0 0 0
9511 1 6.2116284083885835 41.65075026696923 5.270567062377517 0 0 0
9103 1 7.972663251085743 40.40647610355376 6.514717177311279 0 0 0
9104 1 7.9726632511464075 40.40647610358139 4.026417177351543 0 0 0
9037 1 11.494774424760475 40.40638864340539 6.514717146088412 0 0 0
9038 1 11.494774424784953 40.406388643448736 4.026417146090005 0 0 0
9102 1 9.733684574780922 39.16219083834173 5.270567307563568 0 0 0
9445 1 9.733742815138115 41.65067095412861 5.2705670767272625 0 0 0
8971 1 15.016900490596012 40.40632080118705 6.514717028372871 0 0 0
8972 1 15.01690049057255 40.40632080118174 4.02641702843675 0 0 0
9036 1 13.255803862848767 39.16210626396632 5.2705671979292745 0 0 0
9379 1 13.25586016347565 41.65059518983734 5.270567023586003 0 0 0
8905 1 18.539045171331964 40.40629358509105 6.514716859027224 0 0 0
8906 1 18.539045171285906 40.406293585178005 4.0264168591115945 0 0 0
8970 1 16.77795057699822 39.16205709795525 5.270566986527072 0 0 0
9313 1 16.777987094534982 41.65054714221506 5.27056691820609 0 0 0
3670 1 0.9284437147438293 42.895041835006694 -5.926783102980491 0 0 0
9579 1 2.6895128316793575 44.13925266909381 -7.170933099561608 0 0 1
9598 1 2.6895128316461934 44.139252669118434 -4.682633099536612 0 0 0
9513 1 6.211649747829073 44.139209270652785 -7.170933056027048 0 0 1
9547 1 4.450577833680391 42.895009338577275 -5.9267830293342545 0 0 0
9548 1 6.211649747733779 44.13920927067276 -4.68263305603406 0 0 0
9481 1 7.972702281948189 42.89494598664773 -5.926782992337674 0 0 0
9415 1 11.494820720096156 42.89487245350815 -5.926783004619374 0 0 0
9447 1 9.733775747915665 44.1391458958733 -7.170933043636101 0 0 1
9482 1 9.733775747952093 44.13914589584343 -4.682633043615303 0 0 0
9349 1 15.016939295186797 42.894812475297876 -5.926783062348396 0 0 0
9381 1 13.25589427597003 44.13908302946472 -7.170933067170727 0 0 1
9416 1 13.255894276007968 44.139083029417144 -4.682633067184308 0 0 0
9283 1 18.53906414212037 42.89478485673326 -5.926783147587768 0 0 0
9315 1 16.778011469347167 44.13904069768484 -7.170933119121213 0 0 1
9350 1 16.77801146939304 44.13904069765336 -4.682633119156196 0 0 0
3672 1 0.928436898909954 45.38348216950527 -5.926783147866087 0 0 0
3679 1 0.9284305492797608 47.87192348270868 -5.926783183449365 0 0 0
9585 1 2.6895110802358193 46.62769644812129 -7.170933150877311 0 0 1
9599 1 2.689511080292816 46.62769644811023 -4.682633151001113 0 0 0
9524 1 6.211657889492489 46.62766500389549 -7.170933125331361 0 0 1
9549 1 6.211657889519536 46.62766500389997 -4.682633125354712 0 0 0
9551 1 4.450585271488933 45.38345917526953 -5.926783110075264 0 0 0
9565 1 4.450585434668034 47.87190813476013 -5.926783161230682 0 0 0
9485 1 7.97272173928886 45.38341085600409 -5.9267830866461555 0 0 0
9499 1 7.9727284768069095 47.871873147108445 -5.926783146074427 0 0 0
9419 1 11.494846177292114 45.38335276580636 -5.926783088214016 0 0 0
9433 1 11.494857500760977 47.8718296688639 -5.926783145648456 0 0 0
9458 1 9.733791369210559 46.62761706120903 -7.170933116059699 0 0 1
9483 1 9.733791369141485 46.62761706122757 -4.682633116086837 0 0 0
9353 1 15.016962661558859 45.38330349951917 -5.92678311493839 0 0 0
9367 1 15.016974989377935 47.87179154360219 -5.9267831588198225 0 0 0
9392 1 13.25591252279175 46.62756795421107 -7.170933126087084 0 0 1
9417 1 13.255912522799465 46.627567954224126 -4.68263312619379 0 0 0
9287 1 18.539077841669254 45.38327862157693 -5.926783159146054 0 0 0
9301 1 18.539087116136276 47.87177086663873 -5.926783178718882 0 0 0
9326 1 16.778026455608362 46.627533303635424 -7.1709331526859765 0 0 1
9351 1 16.77802645562725 46.62753330364085 -4.682633152769295 0 0 0
3681 1 0.9284251110466174 50.36036799330723 -5.926783215440295 0 0 0
9586 1 2.689506856936056 49.11614166298394 -7.1709331914068235 0 0 1
9596 1 2.6895017271890134 51.60458990716747 -7.170933225206575 0 0 1
9607 1 2.6895068568059766 49.116141662940066 -4.68263319135496 0 0 0
9608 1 2.689501727244031 51.60458990710853 -4.6826332252657314 0 0 0
9525 1 6.211657978303038 49.1161200869417 -7.1709331761511566 0 0 1
9544 1 6.211653656504648 51.60457601532933 -7.170933216101722 0 0 1
9566 1 6.211657978392921 49.116120086966994 -4.682633176115354 0 0 0
9567 1 6.211653656509097 51.60457601530875 -4.682633216284604 0 0 0
9569 1 4.450581609621148 50.360358463837365 -5.926783202130617 0 0 0
9503 1 7.972727551336867 50.36033446835419 -5.926783193054809 0 0 0
9437 1 11.494859870406085 50.36030360462647 -5.926783191590632 0 0 0
9459 1 9.733795873635303 49.1160856582614 -7.170933169149409 0 0 1
9478 1 9.73379381024163 51.604552631226376 -7.170933209430535 0 0 1
9500 1 9.733795873710587 49.11608565823906 -4.682633169219761 0 0 0
9501 1 9.733793810207414 51.604552631130545 -4.682633209500488 0 0 0
9371 1 15.016979913800252 50.36027566338225 -5.926783196864335 0 0 0
9393 1 13.255920096232183 49.11604931489789 -7.170933172648191 0 0 1
9412 1 13.255920995202452 51.604527151295365 -7.170933211035397 0 0 1
9434 1 13.255920096211577 49.116049314895996 -4.682633172678188 0 0 0
9435 1 13.25592099517604 51.60452715127849 -4.682633211076223 0 0 0
9305 1 18.539092939301373 50.360259531196114 -5.926783205834939 0 0 0
9327 1 16.778034631163727 49.116022605155216 -7.170933184213028 0 0 1
9346 1 16.77803817538806 51.6045076683633 -7.170933217773226 0 0 1
9368 1 16.778034631115414 49.11602260518992 -4.682633184203517 0 0 0
9369 1 16.778038175389565 51.60450766840385 -4.68263321793486 0 0 0
3684 1 0.9284207491558449 52.84881657459537 -5.926783241766471 0 0 0
3996 1 0.9284174398538961 55.33726927859077 -5.92678326563992 0 0 0
9597 1 2.6894966461533625 54.09304173486187 -7.170933252391228 0 0 1
9612 1 2.6894966461420733 54.09304173493629 -4.682633252488328 0 0 0
9545 1 6.2116473754458275 54.093033523925726 -7.1709332463659265 0 0 1
9575 1 4.450576007634042 52.84881124645237 -5.9267832359194905 0 0 0
9576 1 6.2116473754654145 54.093033523885325 -4.68263324645467 0 0 0
9935 1 4.450570026415994 55.337266820898066 -5.9267832626421875 0 0 0
9509 1 7.972722528462409 52.84879580895361 -5.926783229728133 0 0 0
9869 1 7.972715785417949 55.337257709391615 -5.926783257607806 0 0 0
9443 1 11.494857075169449 52.84877513254876 -5.926783225744221 0 0 0
9479 1 9.733788360979338 54.09301867097116 -7.170933242037843 0 0 1
9510 1 9.733788360933262 54.09301867093458 -4.682633242044985 0 0 0
9803 1 11.49485173942383 55.337244814387134 -5.926783256307385 0 0 0
9377 1 15.016980240991302 52.848755761305185 -5.926783228424297 0 0 0
9413 1 13.255918134985107 54.093001859364904 -7.170933242291904 0 0 1
9444 1 13.255918135005613 54.09300185935178 -4.682633242271756 0 0 0
9737 1 15.016978009644955 55.33723221208272 -5.926783259626901 0 0 0
9311 1 18.539096238819038 52.84874386406687 -5.926783236327628 0 0 0
9347 1 16.778038795790046 54.09298842665139 -7.1709332475260545 0 0 1
9378 1 16.778038795788156 54.09298842673727 -4.682633247575516 0 0 0
9671 1 18.53909780145929 55.337223914672954 -5.926783263926151 0 0 0
3661 1 0.9284437146932811 42.89504183496654 -0.9501831029510232 0 0 0
3662 1 0.9284437147029138 42.89504183496444 -3.438483102915321 0 0 0
9589 1 2.6895128316806263 44.139252669108316 -2.1943330994446506 0 0 0
9529 1 6.211649747775177 44.139209270647534 -2.1943330560219905 0 0 0
9530 1 4.4505778337224005 42.89500933854172 -0.9501830293794504 0 0 0
9531 1 4.45057783369357 42.89500933857556 -3.438483029322034 0 0 0
9464 1 7.972702281943529 42.894945986663274 -0.9501829924423661 0 0 0
9465 1 7.972702281954237 42.89494598660797 -3.438482992366957 0 0 0
9398 1 11.494820720114486 42.8948724535218 -0.9501830046858686 0 0 0
9399 1 11.494820720099908 42.89487245352374 -3.4384830046252954 0 0 0
9463 1 9.73377574795557 44.13914589580743 -2.194333043546491 0 0 0
9332 1 15.016939295206932 42.894812475264246 -0.950183062484221 0 0 0
9333 1 15.016939295276888 42.8948124753078 -3.4384830624167897 0 0 0
9397 1 13.255894276007977 44.13908302950383 -2.1943330671127894 0 0 0
9266 1 18.53906414213322 42.89478485672641 -0.950183147581732 0 0 0
9267 1 18.53906414212538 42.89478485677309 -3.4384831475462243 0 0 0
9331 1 16.77801146942988 44.139040697641875 -2.1943331192068776 0 0 0
3664 1 0.9284368988670673 45.38348216945268 -0.9501831478644854 0 0 0
3671 1 0.9284368989001826 45.38348216943165 -3.4384831477953006 0 0 0
3673 1 0.9284305493004132 47.871923482700986 -0.9501831834916419 0 0 0
3674 1 0.9284305492532964 47.87192348282633 -3.4384831834536116 0 0 0
9600 1 2.6895110802395634 46.627696448109425 -2.1943331508595674 0 0 0
9535 1 4.450585271475563 45.38345917528424 -0.9501831101173519 0 0 0
9550 1 4.450585271469123 45.383459175224104 -3.438483110093769 0 0 0
9552 1 6.211657889551161 46.62766500391578 -2.1943331252898153 0 0 0
9554 1 4.450585434727752 47.87190813473643 -0.9501831613939442 0 0 0
9555 1 4.450585434687836 47.871908134788576 -3.438483161268198 0 0 0
9469 1 7.972721739390475 45.38341085601474 -0.950183086780532 0 0 0
9484 1 7.972721739370227 45.38341085597943 -3.438483086645658 0 0 0
9488 1 7.972728476848644 47.871873146979425 -0.9501831462212946 0 0 0
9489 1 7.9727284768413575 47.87187314713947 -3.4384831460948657 0 0 0
9403 1 11.494846177280927 45.383352765806244 -0.9501830883134792 0 0 0
9418 1 11.494846177247505 45.38335276569247 -3.438483088170114 0 0 0
9422 1 11.494857500744086 47.87182966888483 -0.9501831457776145 0 0 0
9423 1 11.494857500763692 47.87182966893103 -3.438483145655652 0 0 0
9486 1 9.73379136920494 46.62761706123023 -2.194333116049704 0 0 0
9337 1 15.016962661525483 45.383303499541896 -0.9501831149470995 0 0 0
9352 1 15.016962661527227 45.38330349947164 -3.4384831148785024 0 0 0
9356 1 15.01697498939005 47.87179154361098 -0.9501831589649133 0 0 0
9357 1 15.016974989395441 47.87179154360117 -3.4384831588835225 0 0 0
9420 1 13.255912522804925 46.627567954237705 -2.1943331260496644 0 0 0
9271 1 18.53907784165704 45.383278621616626 -0.9501831591182467 0 0 0
9286 1 18.539077841683866 45.38327862151083 -3.4384831590922142 0 0 0
9290 1 18.53908711608621 47.87177086666938 -0.9501831788306411 0 0 0
9291 1 18.53908711612854 47.871770866738494 -3.438483178784827 0 0 0
9354 1 16.778026455614306 46.62753330366914 -2.194333152623966 0 0 0
3676 1 0.9284251110937325 50.36036799330823 -0.9501832155089257 0 0 0
3680 1 0.9284251110892049 50.36036799325116 -3.438483215456943 0 0 0
9601 1 2.689506856846341 49.116141662936926 -2.194333191348735 0 0 0
9609 1 2.6895017271668284 51.604589907107325 -2.1943332252312246 0 0 0
9553 1 6.211657978277994 49.11612008696656 -2.194333176029321 0 0 0
9559 1 4.450581609580507 50.360358463920036 -0.9501832021878454 0 0 0
9568 1 4.450581609613282 50.36035846380587 -3.438483202074644 0 0 0
9570 1 6.211653656528799 51.6045760153105 -2.1943332162178133 0 0 0
9493 1 7.972727551329022 50.3603344683653 -0.9501831931320995 0 0 0
9502 1 7.972727551361127 50.360334468308274 -3.4384831931006765 0 0 0
9427 1 11.4948598704212 50.36030360460637 -0.950183191729471 0 0 0
9436 1 11.494859870364397 50.36030360458124 -3.4384831916280714 0 0 0
9487 1 9.733795873640013 49.1160856583184 -2.1943331690908097 0 0 0
9504 1 9.733793810245396 51.60455263117053 -2.194333209399965 0 0 0
9361 1 15.016979913780162 50.36027566334109 -0.9501831968821398 0 0 0
9370 1 15.016979913756845 50.360275663342485 -3.4384831968099423 0 0 0
9421 1 13.255920096215814 49.11604931480609 -2.1943331727000253 0 0 0
9438 1 13.255920995221835 51.6045271513138 -2.194333210982044 0 0 0
9295 1 18.539092939326558 50.360259531128236 -0.9501832059509591 0 0 0
9304 1 18.539092939321957 50.360259531152266 -3.4384832058903463 0 0 0
9355 1 16.77803463115922 49.11602260515613 -2.1943331841916685 0 0 0
9372 1 16.778038175438077 51.60450766834227 -2.1943332177792887 0 0 0
3682 1 0.9284207491908713 52.84881657450812 -0.9501832418490319 0 0 0
3683 1 0.9284207491614787 52.84881657456657 -3.438483241743917 0 0 0
3989 1 0.9284174398830312 55.33726927857026 -0.9501832656189376 0 0 0
3995 1 0.9284174399268657 55.33726927853669 -3.4384832655999222 0 0 0
9610 1 2.6894966460663774 54.093041734901206 -2.1943332524584283 0 0 0
9571 1 6.211647375381578 54.09303352393614 -2.1943332463712104 0 0 0
9572 1 4.450576007621431 52.848811246440434 -0.9501832359483302 0 0 0
9573 1 4.450576007593342 52.84881124655094 -3.4384832359612045 0 0 0
9921 1 4.450570026543536 55.33726682090821 -0.9501832626428065 0 0 0
9934 1 4.450570026484028 55.337266820900766 -3.438483262645061 0 0 0
9506 1 7.972722528362708 52.84879580895769 -0.9501832297619218 0 0 0
9507 1 7.972722528468266 52.84879580899751 -3.4384832297330776 0 0 0
9855 1 7.972715785348238 55.337257709410174 -0.9501832576407447 0 0 0
9868 1 7.97271578538256 55.33725770940831 -3.438483257507976 0 0 0
9440 1 11.494857075189923 52.848775132591456 -0.9501832257980358 0 0 0
9441 1 11.49485707522441 52.8487751325344 -3.438483225761346 0 0 0
9505 1 9.733788360951364 54.09301867096514 -2.194333241996467 0 0 0
9789 1 11.494851739435012 55.33724481438145 -0.9501832564004176 0 0 0
9802 1 11.494851739410363 55.33724481440573 -3.43848325632343 0 0 0
9374 1 15.016980240998285 52.8487557612962 -0.9501832284928066 0 0 0
9375 1 15.016980240984893 52.848755761333386 -3.43848322843546 0 0 0
9439 1 13.255918135064913 54.09300185942317 -2.194333242250534 0 0 0
9723 1 15.016978009608565 55.337232212097355 -0.9501832596622352 0 0 0
9736 1 15.01697800958626 55.33723221217363 -3.4384832596102872 0 0 0
9308 1 18.539096238840106 52.84874386399003 -0.950183236341521 0 0 0
9309 1 18.539096238836155 52.848743864044714 -3.4384832363815803 0 0 0
9373 1 16.778038795853323 54.0929884267408 -2.1943332475293986 0 0 0
9657 1 18.53909780140292 55.337223914629405 -0.9501832639115456 0 0 0
9670 1 18.539097801403795 55.33722391466592 -3.438483263829082 0 0 0
3657 1 0.9284437147474414 42.89504183505987 1.538116897027074 0 0 0
9582 1 2.689512831662501 44.13925266912906 2.782266900438918 0 0 0
9590 1 2.689512831675283 44.13925266909745 0.2939669005270957 0 0 0
9517 1 6.211649747751494 44.13920927067107 2.7822669439520262 0 0 0
9519 1 4.450577833701471 42.895009338602705 1.5381169706733344 0 0 0
9532 1 6.211649747828876 44.13920927066402 0.2939669440313375 0 0 0
9453 1 7.972702281961124 42.89494598668109 1.5381170076284127 0 0 0
9387 1 11.49482072009815 42.89487245354697 1.538116995379584 0 0 0
9451 1 9.733775747944597 44.13914589586241 2.7822669563598756 0 0 0
9466 1 9.733775747911235 44.13914589588734 0.2939669563964794 0 0 0
9321 1 15.016939295214824 42.8948124753331 1.53811693763149 0 0 0
9385 1 13.255894276024081 44.13908302941303 2.7822669327954803 0 0 0
9400 1 13.255894275987664 44.13908302947924 0.29396693288426745 0 0 0
9255 1 18.53906414213286 42.89478485679397 1.5381168524351017 0 0 0
9319 1 16.77801146940716 44.139040697646124 2.782266880780344 0 0 0
9334 1 16.77801146936998 44.13904069768418 0.29396688093315976 0 0 0
3663 1 0.928436898886866 45.38348216946924 1.5381168521579953 0 0 0
3666 1 0.9284305492939243 47.871923482782506 1.538116816547457 0 0 0
9591 1 2.689511080214303 46.627696448118684 0.2939668491174683 0 0 0
9592 1 2.689511080296397 46.62769644810635 2.782266849050492 0 0 0
9533 1 6.211657889505757 46.62766500389376 0.29396687466411436 0 0 0
9534 1 4.45058527149393 45.38345917523279 1.538116889966852 0 0 0
9536 1 6.211657889534513 46.62766500390951 2.7822668747198556 0 0 0
9539 1 4.450585434673457 47.87190813478619 1.5381168387619668 0 0 0
9468 1 7.972721739298152 45.3834108559806 1.5381169133689634 0 0 0
9473 1 7.972728476822841 47.87187314713572 1.538116853928077 0 0 0
9402 1 11.494846177286286 45.38335276577593 1.538116911798854 0 0 0
9407 1 11.49485750076152 47.87182966891965 1.5381168543453367 0 0 0
9467 1 9.733791369224013 46.62761706123195 0.2939668839357048 0 0 0
9470 1 9.73379136916145 46.62761706123203 2.7822668839818943 0 0 0
9336 1 15.016962661583438 45.383303499474486 1.5381168850796059 0 0 0
9341 1 15.016974989357415 47.87179154366291 1.5381168411449138 0 0 0
9401 1 13.255912522781976 46.6275679542275 0.29396687389259796 0 0 0
9404 1 13.255912522809407 46.62756795422068 2.7822668738371577 0 0 0
9270 1 18.539077841679106 45.38327862150403 1.5381168408559678 0 0 0
9275 1 18.53908711613323 47.87177086669372 1.5381168212503553 0 0 0
9335 1 16.778026455602614 46.62753330364596 0.2939668472721328 0 0 0
9338 1 16.778026455628524 46.62753330365386 2.782266847277018 0 0 0
3675 1 0.9284251110488081 50.36036799328091 1.5381167845132653 0 0 0
9593 1 2.689506856812199 49.116141662956004 2.7822668085888167 0 0 0
9602 1 2.6895068569466245 49.116141662977846 0.29396680864632246 0 0 0
9603 1 2.6895017271672446 51.60458990717512 0.2939667747425745 0 0 0
9604 1 2.6895017272156947 51.604589907125025 2.782266774749589 0 0 0
9537 1 6.211657978380336 49.11612008697336 2.7822668238461215 0 0 0
9556 1 6.211657978308553 49.116120086933016 0.29396682387606216 0 0 0
9557 1 6.211653656508199 51.60457601533126 0.2939667838669265 0 0 0
9558 1 4.450581609601155 50.360358463810066 1.538116797860137 0 0 0
9560 1 6.211653656494986 51.60457601527258 2.7822667837284873 0 0 0
9492 1 7.9727275513440645 50.360334468313226 1.5381168069525553 0 0 0
9426 1 11.494859870403852 50.36030360462037 1.5381168083964205 0 0 0
9471 1 9.733795873722984 49.116085658261134 2.7822668307736302 0 0 0
9490 1 9.73379587363737 49.11608565827079 0.29396683090911896 0 0 0
9491 1 9.733793810234456 51.60455263121825 0.2939667905584333 0 0 0
9494 1 9.733793810208228 51.604552631132925 2.7822667905199374 0 0 0
9360 1 15.016979913798508 50.360275663364504 1.5381168031404435 0 0 0
9405 1 13.255920096207845 49.11604931490544 2.782266827282537 0 0 0
9424 1 13.255920096204687 49.116049314905815 0.2939668273853515 0 0 0
9425 1 13.255920995208733 51.604527151313015 0.29396678895329703 0 0 0
9428 1 13.255920995187966 51.604527151278674 2.782266788952202 0 0 0
9294 1 18.539092939302876 50.36025953114168 1.5381167941507428 0 0 0
9339 1 16.778034631111545 49.116022605176774 2.782266815738373 0 0 0
9358 1 16.778034631142383 49.11602260517667 0.2939668158101231 0 0 0
9359 1 16.778038175407843 51.604507668368 0.29396678215530686 0 0 0
9362 1 16.778038175407882 51.60450766838623 2.7822667821123765 0 0 0
3678 1 0.9284207491345926 52.84881657465939 1.5381167582158883 0 0 0
3988 1 0.9284174398671436 55.33726927856388 1.5381167343629478 0 0 0
9605 1 2.6894966461262064 54.09304173493452 2.7822667474777827 0 0 0
9611 1 2.68949664614904 54.0930417348589 0.29396674762428004 0 0 0
9561 1 6.2116473754841035 54.09303352385165 2.7822667535507426 0 0 0
9563 1 4.450576007615994 52.84881124648262 1.5381167640519944 0 0 0
9574 1 6.211647375439505 54.09303352392547 0.29396675366010566 0 0 0
9920 1 4.450570026423691 55.33726682086997 1.5381167373634854 0 0 0
9497 1 7.972722528455533 52.84879580895473 1.5381167702121346 0 0 0
9854 1 7.97271578542249 55.33725770940522 1.5381167424138462 0 0 0
9431 1 11.494857075170515 52.848775132549655 1.5381167742277801 0 0 0
9495 1 9.733788360943677 54.093018670912386 2.782266757936559 0 0 0
9508 1 9.73378836097412 54.09301867095963 0.2939667579713212 0 0 0
9788 1 11.49485173942019 55.33724481438928 1.538116743686381 0 0 0
9365 1 15.016980241019183 52.84875576131702 1.5381167715296653 0 0 0
9429 1 13.255918135010782 54.09300185933134 2.782266757729954 0 0 0
9442 1 13.255918134979165 54.093001859344206 0.2939667577188722 0 0 0
9722 1 15.01697800963573 55.33723221206489 1.5381167403555547 0 0 0
9299 1 18.53909623882482 52.84874386410291 1.5381167636194026 0 0 0
9363 1 16.778038795773952 54.092988426721035 2.7822667523798383 0 0 0
9376 1 16.778038795805692 54.09298842665175 0.2939667524649054 0 0 0
9656 1 18.5390978014506 55.337223914642294 1.5381167360616739 0 0 0
3655 1 0.9284437146768044 42.895041835014396 6.514716897047456 0 0 0
3656 1 0.928443714696019 42.895041834924314 4.026416897085435 0 0 0
9583 1 2.6895128316801795 44.139252669102746 5.270566900576243 0 0 0
9514 1 4.450577833733237 42.89500933854789 6.5147169706221595 0 0 0
9518 1 4.4505778337209945 42.89500933854872 4.0264169706875625 0 0 0
9520 1 6.211649747795051 44.13920927061539 5.270566944009614 0 0 0
9448 1 7.972702281971811 42.89494598667564 6.514717007589519 0 0 0
9452 1 7.97270228197856 42.894945986575465 4.026417007628088 0 0 0
9382 1 11.494820720096115 42.89487245354899 6.514716995320688 0 0 0
9386 1 11.494820720108942 42.89487245349141 4.026416995378193 0 0 0
9454 1 9.733775747953025 44.139145895800965 5.2705669564753554 0 0 0
9316 1 15.016939295194929 42.8948124753 6.5147169375418335 0 0 0
9320 1 15.01693929527731 42.89481247526982 4.026416937596176 0 0 0
9388 1 13.255894276015528 44.13908302949753 5.270566932923522 0 0 0
9250 1 18.539064142114924 42.894784856780966 6.5147168524205155 0 0 0
9254 1 18.539064142125127 42.89478485671717 4.026416852484 0 0 0
9322 1 16.778011469433373 44.13904069762831 5.270566880864562 0 0 0
3658 1 0.9284368988692218 45.38348216939063 6.514716852126822 0 0 0
3659 1 0.9284368988869456 45.38348216946922 4.026416852206763 0 0 0
3660 1 0.928430549304123 47.87192348274902 6.514716816484521 0 0 0
3665 1 0.9284305492616786 47.87192348280653 4.026416816543109 0 0 0
9584 1 2.689511080237277 46.62769644811946 5.270566849064925 0 0 0
9521 1 6.211657889546785 46.62766500394315 5.2705668746618946 0 0 0
9522 1 4.450585271480229 45.383459175237284 6.514716889839982 0 0 0
9523 1 4.450585271486294 45.38345917527227 4.026416889901993 0 0 0
9526 1 4.45058543471678 47.87190813480008 6.514716838583825 0 0 0
9538 1 4.450585434665687 47.87190813477713 4.026416838743555 0 0 0
9456 1 7.972721739383472 45.38341085597918 6.5147169132209015 0 0 0
9457 1 7.972721739346097 45.383410856008545 4.026416913385919 0 0 0
9460 1 7.972728476839775 47.871873147028076 6.514716853775131 0 0 0
9472 1 7.972728476868976 47.87187314711972 4.026416853910062 0 0 0
9390 1 11.494846177281525 45.38335276575344 6.514716911688136 0 0 0
9391 1 11.49484617726446 45.38335276571358 4.0264169118349304 0 0 0
9394 1 11.494857500770452 47.87182966889913 6.5147168542462515 0 0 0
9406 1 11.494857500793685 47.87182966891826 4.026416854368448 0 0 0
9455 1 9.733791369223148 46.627617061213314 5.270566883938362 0 0 0
9324 1 15.016962661523701 45.38330349948701 6.514716885008821 0 0 0
9325 1 15.016962661543232 45.383303499512934 4.026416885109132 0 0 0
9328 1 15.016974989403261 47.871791543639524 6.514716841066963 0 0 0
9340 1 15.01697498939456 47.87179154356885 4.026416841119376 0 0 0
9389 1 13.25591252281761 46.62756795423221 5.270566873896722 0 0 0
9258 1 18.539077841666973 45.38327862154739 6.5147168408751694 0 0 0
9259 1 18.539077841686947 45.38327862156335 4.026416840913245 0 0 0
9262 1 18.539087116107325 47.87177086673062 6.514716821184824 0 0 0
9274 1 18.539087116136393 47.871770866687385 4.02641682120143 0 0 0
9323 1 16.7780264556206 46.62753330366676 5.270566847303647 0 0 0
3667 1 0.9284251111169708 50.360367993286175 6.514716784531832 0 0 0
3668 1 0.928425111109108 50.360367993339125 4.026416784537131 0 0 0
9594 1 2.6895068568385305 49.11614166294898 5.2705668086993525 0 0 0
9595 1 2.6895017271784387 51.604589907130105 5.270566774746198 0 0 0
9540 1 6.211657978270561 49.11612008697263 5.270566823980968 0 0 0
9541 1 6.211653656506783 51.60457601529036 5.270566783751985 0 0 0
9542 1 4.450581609583808 50.360358463890826 6.514716797834505 0 0 0
9543 1 4.450581609586324 50.36035846384528 4.026416797925586 0 0 0
9476 1 7.972727551323894 50.360334468349784 6.514716806877416 0 0 0
9477 1 7.972727551355914 50.36033446835338 4.026416806900492 0 0 0
9410 1 11.494859870424165 50.36030360456804 6.514716808271053 0 0 0
9411 1 11.494859870376954 50.360303604622594 4.026416808371904 0 0 0
9474 1 9.733795873651033 49.11608565832632 5.270566830948336 0 0 0
9475 1 9.733793810247045 51.60455263119508 5.270566790595837 0 0 0
9344 1 15.016979913805596 50.36027566329277 6.514716803108386 0 0 0
9345 1 15.016979913765974 50.3602756633579 4.026416803194762 0 0 0
9408 1 13.255920096232572 49.11604931479712 5.270566827367235 0 0 0
9409 1 13.255920995229253 51.60452715129131 5.270566788988059 0 0 0
9278 1 18.53909293933901 50.36025953109919 6.51471679409723 0 0 0
9279 1 18.53909293932052 50.36025953120951 4.026416794140292 0 0 0
9342 1 16.77803463117457 49.11602260513681 5.270566815870768 0 0 0
9343 1 16.77803817544218 51.60450766832451 5.270566782197352 0 0 0
3669 1 0.9284207491736357 52.84881657456636 6.514716758202206 0 0 0
3677 1 0.9284207491466587 52.84881657453876 4.026416758301452 0 0 0
3985 1 0.9284174398795795 55.33726927853707 6.514716734394953 0 0 0
3986 1 0.9284174399336246 55.33726927858757 4.026416734398473 0 0 0
9606 1 2.6894966460668046 54.09304173488997 5.270566747600314 0 0 0
9546 1 4.4505760076255 52.84881124648265 6.514716764063989 0 0 0
9562 1 4.450576007596826 52.84881124651161 4.026416764039498 0 0 0
9564 1 6.2116473753970824 54.09303352389532 5.270566753637034 0 0 0
9914 1 4.450570026532129 55.33726682088843 6.514716737372049 0 0 0
9915 1 4.450570026485553 55.33726682089155 4.0264167373569935 0 0 0
9480 1 7.972722528363229 52.84879580896274 6.514716770271261 0 0 0
9496 1 7.972722528449234 52.84879580898893 4.026416770257726 0 0 0
9848 1 7.97271578534385 55.33725770940937 6.514716742353622 0 0 0
9849 1 7.972715785410427 55.33725770942799 4.026416742487542 0 0 0
9414 1 11.494857075203239 52.84877513261095 6.514716774218684 0 0 0
9430 1 11.494857075242392 52.84877513251918 4.026416774247761 0 0 0
9498 1 9.7337883609674 54.09301867095965 5.270566758003001 0 0 0
9782 1 11.494851739427268 55.33724481441674 6.514716743613348 0 0 0
9783 1 11.49485173942382 55.337244814435984 4.02641674367959 0 0 0
9348 1 15.016980240992263 52.84875576129249 6.514716771560032 0 0 0
9364 1 15.016980241005719 52.84875576128427 4.026416771582364 0 0 0
9432 1 13.255918135064983 54.09300185940626 5.270566757732865 0 0 0
9716 1 15.016978009616404 55.337232212080615 6.514716740337886 0 0 0
9717 1 15.016978009568671 55.337232212169106 4.026416740372524 0 0 0
9282 1 18.539096238811364 52.8487438640583 6.514716763710495 0 0 0
9298 1 18.53909623881904 52.84874386401155 4.026416763616414 0 0 0
9366 1 16.778038795824383 54.09298842670684 5.270566752520955 0 0 0
9650 1 18.539097801396455 55.33722391459739 6.514716736114006 0 0 0
9651 1 18.539097801385804 55.33722391466762 4.02641673617274 0 0 0
4006 1 0.9284150618519789 57.82572569934999 -5.926783290312393 0 0 0
9980 1 2.6894921308950166 56.58149707408058 -7.170933277312667 0 0 1
9981 1 2.6894884030411066 59.06995551955779 -7.170933301758076 0 0 1
9989 1 2.6894921308708963 56.581497074024114 -4.6826332774915365 0 0 0
9999 1 2.6894884029640647 59.06995551947434 -4.682633301787844 0 0 0
9916 1 6.211640682841638 56.58149285180246 -7.170933273631499 0 0 1
9917 1 6.211634470163736 59.06995393406862 -7.170933300797295 0 0 1
9933 1 6.211640682761719 56.58149285187005 -4.682633273642664 0 0 0
9954 1 4.450564466934213 57.82572507993462 -5.926783287115124 0 0 0
9955 1 6.211634470135615 59.06995393411286 -4.68263330087466 0 0 0
9888 1 7.97270881342568 57.82572040665123 -5.92678328524157 0 0 0
9822 1 11.494845570243688 57.82571314968254 -5.926783285284158 0 0 0
9850 1 9.733781628823433 56.581484249404944 -7.170933269952581 0 0 1
9851 1 9.733774904574494 59.06994967841867 -7.170933299581143 0 0 1
9867 1 9.733781628741376 56.581484249440805 -4.682633269993408 0 0 0
9889 1 9.733774904623491 59.0699496784282 -4.682633299812501 0 0 0
9756 1 15.016974608581908 57.825705602629874 -5.926783289576326 0 0 0
9784 1 13.255913509602994 56.58147398299459 -7.170933270894126 0 0 1
9785 1 13.255908411481073 59.06994409337188 -7.170933303923763 0 0 1
9801 1 13.255913509605435 56.58147398291316 -4.682633270972246 0 0 0
9823 1 13.255908411462046 59.06994409333799 -4.682633304087176 0 0 0
9690 1 18.539098246093836 57.825700171448766 -5.926783297467598 0 0 0
9718 1 16.778037745683534 56.58146530712976 -7.170933275747977 0 0 1
9719 1 16.77803589200726 59.06993895099011 -7.17093331170245 0 0 1
9735 1 16.778037745798795 56.581465307152506 -4.682633275861872 0 0 0
9757 1 16.77803589207871 59.06993895095102 -4.682633311786728 0 0 0
4008 1 0.928413449872509 60.31418522599374 -5.9267833157910905 0 0 0
9987 1 2.689485503096352 61.55841651971782 -7.170933330969549 0 0 1
10000 1 2.689485503057179 61.5584165197107 -4.682633331052902 0 0 0
9930 1 6.211629177001192 61.55841655263288 -7.170933334041513 0 0 1
9956 1 6.2116291770049825 61.55841655264562 -4.682633334116955 0 0 0
9958 1 4.450559727196386 60.314185683231145 -5.926783316855178 0 0 0
9892 1 7.9727024500025205 60.31418394227571 -5.926783316849749 0 0 0
9826 1 11.494839605082602 60.31418055020109 -5.926783318870724 0 0 0
9864 1 9.73376889911921 61.558415134107534 -7.170933336370798 0 0 1
9890 1 9.733768899134688 61.55841513418349 -4.682633336416067 0 0 0
9760 1 15.016970935042307 60.31417658158412 -5.926783324309918 0 0 0
9798 1 13.255903598429368 61.558412713247215 -7.170933338817473 0 0 1
9824 1 13.255903598444586 61.55841271331403 -4.682633338915622 0 0 0
9694 1 18.539098030662906 60.31417329898868 -5.926783329442945 0 0 0
9732 1 16.778033798697244 61.558410057831516 -7.170933340837025 0 0 1
9758 1 16.778033798773752 61.55841005787115 -4.682633340918119 0 0 0
4015 1 0.928412430044599 62.80264719563955 -5.926783345428514 0 0 0
4017 1 0.9284118433553735 65.29111098336031 -5.926783381997391 0 0 0
9988 1 2.6894833653010246 64.04687950493819 -7.170933366131934 0 0 1
10006 1 2.689483365240973 64.04687950493442 -4.682633366302357 0 0 0
9931 1 6.211624950073142 64.04688042229787 -7.170933368971463 0 0 1
9970 1 4.4505559378646 62.80264819406214 -5.9267833490884785 0 0 0
9971 1 6.21162495014791 64.04688042226826 -4.682633369138272 0 0 0
9974 1 4.450553072781121 65.29111217323246 -5.926783385972285 0 0 0
9904 1 7.972697095424175 62.802648250048136 -5.926783353538485 0 0 0
9908 1 7.972692862860233 65.29111321107311 -5.926783387603163 0 0 0
9838 1 11.494834383383434 62.8026473426154 -5.926783355558005 0 0 0
9842 1 11.494830124023878 65.29111376523728 -5.9267833859385695 0 0 0
9865 1 9.733763923211361 64.04688071404361 -7.170933372088207 0 0 1
9905 1 9.733763923184862 64.0468807141132 -4.682633372196035 0 0 0
9772 1 15.016967503258806 62.802645759180024 -5.926783354886338 0 0 0
9776 1 15.016964571378285 65.29111366066918 -5.9267833821741505 0 0 0
9799 1 13.255899453621698 64.04688028840991 -7.170933370632858 0 0 1
9839 1 13.255899453624798 64.04688028843228 -4.682633370716073 0 0 0
9706 1 18.53909748160068 62.8026440036447 -5.926783353447525 0 0 0
9710 1 18.539096809494616 65.29111293011842 -5.926783377897802 0 0 0
9733 1 16.778031801898038 64.04687928015747 -7.1709333674568025 0 0 1
9773 1 16.778031801960257 64.04687928016038 -4.6826333675308565 0 0 0
4020 1 0.9284115578823045 67.77957605399932 -5.92678341150053 0 0 0
9998 1 2.6894818742301103 66.5353439481872 -7.17093339879502 0 0 1
10007 1 2.689481874249414 66.53534394816683 -4.6826333987874875 0 0 0
10369 1 2.6894808938623282 69.02380940978595 -7.170933425703498 0 0 1
10384 1 2.6894808937959955 69.02380940980284 -4.682633425813526 0 0 0
9952 1 6.2116217571357035 66.53534525444174 -7.170933401953445 0 0 1
9972 1 6.2116217571503585 66.53534525442291 -4.682633401887372 0 0 0
9978 1 4.450551020091649 67.77957722579015 -5.926783414076501 0 0 0
10303 1 6.21161947082397 69.0238107919432 -7.170933427387556 0 0 1
10328 1 6.21161947074959 69.02381079193157 -4.682633427509478 0 0 0
9912 1 7.972689693567306 67.77957869232506 -5.926783414658978 0 0 0
9846 1 11.49482684679689 67.77957998999001 -5.926783412423996 0 0 0
9886 1 9.733760041395174 66.5353464573043 -7.170933401579384 0 0 1
9906 1 9.733760041461919 66.53534645725375 -4.682633401553042 0 0 0
10237 1 9.733757173884213 69.02381236635074 -7.170933426442003 0 0 1
10262 1 9.733757173893967 69.02381236635134 -4.682633426560503 0 0 0
9780 1 15.016962225479583 67.77958070912719 -5.926783406557213 0 0 0
9820 1 13.255896116118743 66.53534717269353 -7.17093339759882 0 0 1
9840 1 13.25589611612204 66.5353471727491 -4.682633397549789 0 0 0
10171 1 13.255893576309273 69.0238136328043 -7.170933422749573 0 0 1
10196 1 13.255893576344764 69.02381363281326 -4.682633422871332 0 0 0
9714 1 18.539096143497307 67.77958061771196 -5.926783401990746 0 0 0
9754 1 16.778030069820492 66.5353471755587 -7.170933392209542 0 0 1
9774 1 16.778030069847777 66.53534717556772 -4.682633392136505 0 0 0
10105 1 16.7780286685978 69.02381419081638 -7.170933417870629 0 0 1
10130 1 16.778028668668178 69.02381419079511 -4.682633417977124 0 0 0
3997 1 0.9284150618937823 57.82572569933838 -0.9501832903120457 0 0 0
3998 1 0.9284150619094594 57.82572569932921 -3.4384832902952738 0 0 0
9990 1 2.6894921308558417 56.58149707400882 -2.194333277357949 0 0 0
9991 1 2.689488402962399 59.06995551951137 -2.1943333017308166 0 0 0
9936 1 6.211640682786529 56.581492851853604 -2.194333273620476 0 0 0
9937 1 6.211634470176174 59.069953934140656 -2.194333300839773 0 0 0
9938 1 4.45056446694342 57.825725079927444 -0.9501832871821607 0 0 0
9939 1 4.450564466942282 57.82572507990152 -3.4384832870440056 0 0 0
9872 1 7.972708813410018 57.82572040662038 -0.9501832852235241 0 0 0
9873 1 7.9727088134407005 57.825720406620114 -3.4384832851732643 0 0 0
9806 1 11.494845570220964 57.82571314963906 -0.9501832853614307 0 0 0
9807 1 11.494845570218038 57.82571314961011 -3.438483285271499 0 0 0
9870 1 9.73378162879223 56.5814842494705 -2.194333269953687 0 0 0
9871 1 9.73377490460206 59.06994967842458 -2.1943332996267055 0 0 0
9740 1 15.016974608564308 57.82570560262693 -0.9501832896386622 0 0 0
9741 1 15.016974608575902 57.82570560263399 -3.438483289590034 0 0 0
9804 1 13.25591350963434 56.58147398293589 -2.19433327094748 0 0 0
9805 1 13.255908411536753 59.06994409337041 -2.1943333039518884 0 0 0
9674 1 18.539098246045317 57.82570017145695 -0.9501832974921156 0 0 0
9675 1 18.539098246019535 57.825700171447835 -3.4384832973709982 0 0 0
9738 1 16.778037745734924 56.581465307153664 -2.1943332758278316 0 0 0
9739 1 16.778035892045203 59.06993895097435 -2.194333311712509 0 0 0
4000 1 0.928413449877266 60.31418522600621 -0.9501833158462718 0 0 0
4007 1 0.9284134499140215 60.314185225961886 -3.438483315743168 0 0 0
10001 1 2.689485503058643 61.55841651976167 -2.194333331009278 0 0 0
9943 1 4.450559727211889 60.314185683231656 -0.9501833168636364 0 0 0
9957 1 4.4505597271860395 60.31418568323868 -3.4384833167470044 0 0 0
9959 1 6.211629177042891 61.55841655267094 -2.1943333340210063 0 0 0
9877 1 7.9727024499938395 60.31418394224698 -0.9501833168566852 0 0 0
9891 1 7.97270245003208 60.31418394230458 -3.438483316811062 0 0 0
9811 1 11.494839605072386 60.314180550176765 -0.9501833188468755 0 0 0
9825 1 11.494839605058042 60.31418055020197 -3.4384833187529122 0 0 0
9893 1 9.733768899096962 61.55841513415602 -2.1943333363859945 0 0 0
9745 1 15.016970934980693 60.31417658154108 -0.950183324354572 0 0 0
9759 1 15.016970934993385 60.31417658158976 -3.438483324287279 0 0 0
9827 1 13.25590359845766 61.558412713316486 -2.194333338841057 0 0 0
9679 1 18.539098030622995 60.31417329899629 -0.9501833294379499 0 0 0
9693 1 18.53909803064726 60.31417329898385 -3.4384833294321737 0 0 0
9761 1 16.77803379875755 61.558410057884515 -2.194333340878405 0 0 0
4009 1 0.9284124300029718 62.802647195694256 -0.9501833454558337 0 0 0
4010 1 0.9284124300602107 62.802647195663994 -3.4384833454168997 0 0 0
4012 1 0.9284118433700965 65.29111098342109 -0.9501833820267085 0 0 0
4016 1 0.9284118433690915 65.29111098344404 -3.4384833819926968 0 0 0
10002 1 2.689483365176626 64.04687950494251 -2.19433336621325 0 0 0
9960 1 6.211624950111801 64.0468804222816 -2.1943333690339792 0 0 0
9961 1 4.4505559378803925 62.802648194090004 -0.9501833491676722 0 0 0
9962 1 4.450555937909168 62.802648194031086 -3.4384833490987217 0 0 0
9966 1 4.450553072815312 65.29111217323623 -0.9501833860721671 0 0 0
9973 1 4.450553072867749 65.29111217321264 -3.4384833859845316 0 0 0
9895 1 7.972697095468379 62.802648250017484 -0.9501833536379566 0 0 0
9896 1 7.972697095528453 62.80264825002663 -3.438483353560888 0 0 0
9900 1 7.972692862929021 65.29111321109056 -0.9501833875909443 0 0 0
9907 1 7.97269286283007 65.291113211107 -3.4384833875643266 0 0 0
9829 1 11.49483438345274 62.80264734262385 -0.9501833556029978 0 0 0
9830 1 11.49483438336237 62.80264734260625 -3.4384833555730525 0 0 0
9834 1 11.494830124038538 65.29111376522653 -0.9501833859498181 0 0 0
9841 1 11.494830124099664 65.2911137653591 -3.438483385884555 0 0 0
9894 1 9.733763923225931 64.04688071409966 -2.1943333721542944 0 0 0
9763 1 15.016967503255975 62.80264575919333 -0.950183354990041 0 0 0
9764 1 15.016967503222542 62.802645759113126 -3.4384833548913307 0 0 0
9768 1 15.016964571365383 65.29111366060647 -0.9501833822529576 0 0 0
9775 1 15.016964571398727 65.29111366068292 -3.438483382151304 0 0 0
9828 1 13.255899453593136 64.04688028835423 -2.1943333706098 0 0 0
9697 1 18.53909748159131 62.80264400360499 -0.9501833535053837 0 0 0
9698 1 18.53909748156899 62.80264400359997 -3.438483353430834 0 0 0
9702 1 18.539096809468493 65.29111293007759 -0.9501833779147403 0 0 0
9709 1 18.53909680946394 65.29111293018104 -3.4384833779035304 0 0 0
9762 1 16.77803180196784 64.04687928017144 -2.194333367430582 0 0 0
4018 1 0.9284115579262199 67.77957605397447 -0.9501834114151033 0 0 0
4019 1 0.9284115578780526 67.77957605402483 -3.4384834114874643 0 0 0
10008 1 2.6894818742326625 66.53534394818084 -2.194333398688292 0 0 0
10375 1 2.689480893776322 69.02380940977876 -2.194333425732345 0 0 0
9975 1 6.211621757091495 66.53534525440838 -2.1943334019146468 0 0 0
9976 1 4.450551020115383 67.77957722582005 -0.9501834141269339 0 0 0
9977 1 4.450551020138033 67.77957722580662 -3.4384834140690925 0 0 0
10312 1 6.2116194707732895 69.02381079194731 -2.1943334273603714 0 0 0
9910 1 7.97268969355745 67.77957869234828 -0.9501834145629097 0 0 0
9911 1 7.972689693491009 67.7795786922662 -3.438483414594443 0 0 0
9844 1 11.494826846856856 67.77957999003338 -0.9501834123837649 0 0 0
9845 1 11.494826846819143 67.77957998988843 -3.438483412399957 0 0 0
9909 1 9.733760041474403 66.5353464572464 -2.1943334015457974 0 0 0
10246 1 9.733757173903012 69.023812366344 -2.1943334264437437 0 0 0
9778 1 15.016962225449925 67.77958070915649 -0.9501834065277622 0 0 0
9779 1 15.016962225444292 67.77958070906944 -3.4384834065666143 0 0 0
9843 1 13.255896116139334 66.53534717266636 -2.194333397600091 0 0 0
10180 1 13.255893576347395 69.0238136328268 -2.1943334227568334 0 0 0
9712 1 18.539096143503656 67.77958061772509 -0.9501834018886879 0 0 0
9713 1 18.539096143532223 67.77958061767308 -3.438483401992635 0 0 0
9777 1 16.77803006988285 66.53534717551689 -2.194333392234919 0 0 0
10114 1 16.77802866869759 69.02381419077192 -2.19433341779353 0 0 0
3991 1 0.928415061874755 57.825725699365016 1.538116709664926 0 0 0
9982 1 2.6894921309209234 56.581497074088816 0.2939667226841504 0 0 0
9983 1 2.689492130896468 56.581497074006265 2.7822667225372797 0 0 0
9984 1 2.689488402967511 59.06995551948292 2.7822666982041095 0 0 0
9992 1 2.689488403047512 59.069955519554995 0.29396669824444827 0 0 0
9919 1 6.211640682847718 56.58149285181227 0.29396672638720533 0 0 0
9922 1 6.211640682745537 56.581492851849696 2.7822667263602967 0 0 0
9923 1 6.211634470100677 59.06995393412092 2.7822666991691474 0 0 0
9925 1 4.450564466929699 57.825725079930336 1.5381167128633153 0 0 0
9940 1 6.2116344701715045 59.06995393405909 0.2939666991842927 0 0 0
9859 1 7.972708813415321 57.82572040665493 1.538116714763752 0 0 0
9793 1 11.494845570252537 57.82571314965595 1.5381167147300612 0 0 0
9853 1 9.733781628825366 56.58148424941081 0.29396673010943675 0 0 0
9856 1 9.733781628753576 56.58148424945429 2.7822667300192845 0 0 0
9857 1 9.733774904600217 59.069949678434575 2.78226670024598 0 0 0
9874 1 9.733774904586042 59.06994967841672 0.2939667004359133 0 0 0
9727 1 15.016974608582695 57.82570560261248 1.5381167104397118 0 0 0
9787 1 13.25591350959218 56.58147398298476 0.29396672913714655 0 0 0
9790 1 13.255913509625076 56.58147398291331 2.7822667290590193 0 0 0
9791 1 13.255908411455902 59.06994409334916 2.7822666959505917 0 0 0
9808 1 13.255908411469829 59.06994409338055 0.29396669606792464 0 0 0
9661 1 18.539098246098934 57.82570017146156 1.538116702532631 0 0 0
9721 1 16.778037745683022 56.581465307121796 0.2939667242574749 0 0 0
9724 1 16.77803774578588 56.581465307122926 2.782266724146822 0 0 0
9725 1 16.778035892111976 59.069938950948945 2.78226668824704 0 0 0
9742 1 16.778035892009505 59.06993895095883 0.2939666883312579 0 0 0
3999 1 0.9284134498622607 60.314185225969965 1.5381166842118554 0 0 0
9993 1 2.6894855030841875 61.55841651971619 0.2939666690233483 0 0 0
9994 1 2.6894855030432088 61.558416519703655 2.7822666689368547 0 0 0
9941 1 6.211629176993876 61.5584165526258 0.2939666659761867 0 0 0
9942 1 4.450559727188195 60.31418568325167 1.5381166831419748 0 0 0
9944 1 6.211629176980698 61.558416552650456 2.7822666658639053 0 0 0
9876 1 7.972702450006469 60.31418394234732 1.5381166831437871 0 0 0
9810 1 11.49483960507022 60.314180550240614 1.5381166811229017 0 0 0
9875 1 9.73376889912089 61.55841513411117 0.29396666366561836 0 0 0
9878 1 9.733768899141793 61.558415134185736 2.7822666635345756 0 0 0
9744 1 15.01697093506012 60.31417658159763 1.5381166756843914 0 0 0
9809 1 13.255903598446023 61.55841271324788 0.293966661197513 0 0 0
9812 1 13.255903598430917 61.558412713303845 2.7822666610423012 0 0 0
9678 1 18.539098030668896 60.3141732989894 1.5381166705729254 0 0 0
9743 1 16.77803379870359 61.55841005781549 0.2939666591738144 0 0 0
9746 1 16.77803379879867 61.558410057872734 2.7822666590914 0 0 0
4002 1 0.9284124300473289 62.80264719564307 1.5381166545351772 0 0 0
4011 1 0.9284118433494727 65.29111098336465 1.538116617999741 0 0 0
9995 1 2.689483365254724 64.04687950492603 2.7822666337458637 0 0 0
10003 1 2.6894833652957058 64.04687950494059 0.293966633811848 0 0 0
9945 1 6.211624950119372 64.04688042226024 2.7822666309343855 0 0 0
9947 1 4.450555937853883 62.80264819401844 1.5381166508450685 0 0 0
9963 1 6.211624950065412 64.04688042229843 0.2939666309473682 0 0 0
9965 1 4.450553072791618 65.29111217328335 1.538116613998133 0 0 0
9881 1 7.972697095405684 62.80264824999075 1.5381166464121965 0 0 0
9899 1 7.9726928628550215 65.29111321113784 1.5381166123945182 0 0 0
9815 1 11.494834383364314 62.802647342540084 1.5381166444155094 0 0 0
9833 1 11.494830124015564 65.29111376533044 1.5381166140566447 0 0 0
9879 1 9.733763923180357 64.04688071412434 2.7822666278980783 0 0 0
9897 1 9.733763923214267 64.04688071403181 0.29396662780920807 0 0 0
9749 1 15.016967503259078 62.80264575910656 1.5381166450687263 0 0 0
9767 1 15.016964571366625 65.29111366072496 1.538116617833718 0 0 0
9813 1 13.255899453596603 64.04688028842621 2.782266629341552 0 0 0
9831 1 13.255899453602009 64.04688028838765 0.2939666292850083 0 0 0
9683 1 18.539097481617784 62.80264400359593 1.5381166465129021 0 0 0
9701 1 18.539096809498485 65.29111293014807 1.5381166220970146 0 0 0
9747 1 16.778031801979594 64.046879280139 2.782266632504181 0 0 0
9765 1 16.778031801907055 64.04687928013774 0.29396663248595123 0 0 0
4014 1 0.9284115578901331 67.77957605395896 1.5381165884827017 0 0 0
10004 1 2.6894818742379387 66.5353439481889 0.29396660125289015 0 0 0
10005 1 2.689481874273633 66.53534394814142 2.7822666012277315 0 0 0
10370 1 2.6894808938205053 69.02380940980517 2.782266574265402 0 0 0
10376 1 2.689480893865928 69.02380940976354 0.29396657424886535 0 0 0
9964 1 6.2116217571426535 66.53534525445811 0.29396659811001036 0 0 0
9967 1 6.211621757133098 66.5353452543986 2.782266598076016 0 0 0
9969 1 4.450551020125518 67.7795772257427 1.538116585907657 0 0 0
10304 1 6.211619470777315 69.02381079193685 2.782266572593901 0 0 0
10313 1 6.211619470837247 69.02381079194136 0.2939665725450552 0 0 0
9903 1 7.9726896935720175 67.7795786922333 1.5381165853526493 0 0 0
9837 1 11.49482684680496 67.77957998991425 1.5381165875609861 0 0 0
9898 1 9.733760041410296 66.53534645732856 0.2939665984960304 0 0 0
9901 1 9.733760041454861 66.53534645724771 2.7822665983978747 0 0 0
10238 1 9.73375717390137 69.02381236638927 2.7822665735575334 0 0 0
10247 1 9.733757173879319 69.02381236635732 0.2939665734384546 0 0 0
9771 1 15.01696222547259 67.77958070901188 1.538116593423107 0 0 0
9832 1 13.255896116114657 66.53534717268899 0.2939666024467754 0 0 0
9835 1 13.255896116117613 66.53534717273949 2.782266602399722 0 0 0
10172 1 13.255893576338082 69.02381363284232 2.782266577253381 0 0 0
10181 1 13.255893576312737 69.02381363278955 0.2939665771472274 0 0 0
9705 1 18.53909614347019 67.77958061765597 1.5381165979810771 0 0 0
9766 1 16.778030069837506 66.53534717553978 0.29396660785923606 0 0 0
9769 1 16.778030069836525 66.53534717553264 2.7822666078302145 0 0 0
10106 1 16.77802866863973 69.02381419081635 2.7822665821142274 0 0 0
10115 1 16.778028668590533 69.02381419078695 0.2939665820276204 0 0 0
3987 1 0.9284150619178487 57.82572569937462 6.514716709662315 0 0 0
3990 1 0.9284150619440029 57.8257256993189 4.026416709686761 0 0 0
9979 1 2.6894921308770923 56.581497074005846 5.27056672260593 0 0 0
9985 1 2.6894884029709725 59.06995551950347 5.270566698259723 0 0 0
9913 1 6.21164068276015 56.5814928518382 5.270566726373214 0 0 0
9918 1 4.450564466927066 57.825725079918165 6.514716712853503 0 0 0
9924 1 4.450564466924992 57.82572507992283 4.026416712964595 0 0 0
9926 1 6.211634470132914 59.069953934135 5.270566699141596 0 0 0
9852 1 7.9727088133893185 57.825720406593064 6.514716714765639 0 0 0
9858 1 7.972708813389235 57.82572040664721 4.0264167148291685 0 0 0
9786 1 11.494845570214046 57.82571314963807 6.51471671463229 0 0 0
9792 1 11.494845570250764 57.82571314965559 4.026416714744595 0 0 0
9847 1 9.733781628787087 56.581484249504456 5.270566730037829 0 0 0
9860 1 9.733774904561626 59.069949678423356 5.270566700313376 0 0 0
9720 1 15.016974608604045 57.82570560262049 6.514716710327042 0 0 0
9726 1 15.016974608592184 57.82570560266109 4.026416710396786 0 0 0
9781 1 13.255913509667856 56.58147398295179 5.2705667290575615 0 0 0
9794 1 13.25590841155312 59.06994409336943 5.270566696009375 0 0 0
9654 1 18.539098246040172 57.825700171467815 6.514716702488783 0 0 0
9660 1 18.539098246012088 57.82570017142682 4.026416702623963 0 0 0
9715 1 16.77803774572775 56.58146530713217 5.270566724122039 0 0 0
9728 1 16.77803589206682 59.06993895099897 5.2705666882638535 0 0 0
3992 1 0.9284134498838297 60.31418522599163 6.514716684168186 0 0 0
3993 1 0.9284134499335845 60.31418522598686 4.0264166842587805 0 0 0
9986 1 2.689485503053802 61.558416519761444 5.270566668977298 0 0 0
9927 1 6.211629177040493 61.558416552681535 5.270566666004078 0 0 0
9928 1 4.450559727192632 60.31418568326979 6.514716683141473 0 0 0
9929 1 4.450559727166348 60.31418568324398 4.0264166832425135 0 0 0
9862 1 7.9727024499862065 60.314183942291514 6.514716683177582 0 0 0
9863 1 7.972702449988456 60.31418394226916 4.026416683207675 0 0 0
9796 1 11.494839605059685 60.3141805502145 6.514716681171281 0 0 0
9797 1 11.494839605036274 60.31418055014555 4.026416681252861 0 0 0
9861 1 9.733768899087377 61.55841513416001 5.270566663666118 0 0 0
9730 1 15.016970934966427 60.31417658158516 6.514716675663373 0 0 0
9731 1 15.016970935021675 60.31417658155785 4.026416675713941 0 0 0
9795 1 13.255903598449008 61.55841271331523 5.2705666611913555 0 0 0
9664 1 18.53909803063056 60.31417329902469 6.514716670579433 0 0 0
9665 1 18.53909803065284 60.314173298982624 4.026416670605314 0 0 0
9729 1 16.77803379875684 61.558410057926295 5.270566659153801 0 0 0
3994 1 0.9284124300104876 62.80264719567643 6.514716654571644 0 0 0
4001 1 0.928412430067073 62.802647195649804 4.026416654605672 0 0 0
4003 1 0.9284118433834617 65.29111098342091 6.514716617993944 0 0 0
4004 1 0.928411843388808 65.29111098341198 4.026416618005272 0 0 0
9996 1 2.6894833651965384 64.04687950489978 5.270566633759555 0 0 0
9932 1 4.4505559378992725 62.80264819405709 6.514716650864616 0 0 0
9946 1 4.450555937892866 62.8026481940505 4.026416650902872 0 0 0
9948 1 6.211624950108638 64.04688042225473 5.270566630858967 0 0 0
9950 1 4.450553072817629 65.29111217326431 6.514716613966351 0 0 0
9951 1 4.450553072851672 65.29111217312581 4.026416614017193 0 0 0
9866 1 7.972697095484795 62.802648249961955 6.51471664638038 0 0 0
9880 1 7.972697095528555 62.802648250073666 4.026416646422691 0 0 0
9884 1 7.972692862892 65.29111321115481 6.514716612411204 0 0 0
9885 1 7.972692862798077 65.2911132110227 4.026416612411562 0 0 0
9800 1 11.494834383445752 62.802647342564505 6.514716644421699 0 0 0
9814 1 11.494834383360352 62.80264734265761 4.026416644443705 0 0 0
9818 1 11.494830124035259 65.29111376530618 6.514716614060861 0 0 0
9819 1 11.494830124102675 65.29111376527042 4.026416614105648 0 0 0
9882 1 9.733763923212472 64.04688071410331 5.270566627736662 0 0 0
9734 1 15.016967503248834 62.802645759135466 6.51471664501732 0 0 0
9748 1 15.016967503211921 62.80264575917535 4.026416645100499 0 0 0
9752 1 15.016964571364886 65.29111366068047 6.514716617745704 0 0 0
9753 1 15.016964571378027 65.29111366057202 4.026416617821581 0 0 0
9816 1 13.25589945357674 64.046880288341 5.270566629290735 0 0 0
9668 1 18.539097481607897 62.802644003585684 6.5147166465453905 0 0 0
9682 1 18.53909748158646 62.802644003625694 4.026416646590288 0 0 0
9686 1 18.53909680944986 65.2911129301298 6.514716622105847 0 0 0
9687 1 18.5390968094508 65.29111293012139 4.026416622099533 0 0 0
9750 1 16.77803180197203 64.04687928016612 5.270566632501803 0 0 0
4005 1 0.9284115579294868 67.77957605398514 6.5147165885720595 0 0 0
4013 1 0.9284115578991885 67.77957605405902 4.026416588516433 0 0 0
9997 1 2.6894818742276008 66.53534394817984 5.270566601294749 0 0 0
10371 1 2.6894808937918944 69.02380940977956 5.270566574183419 0 0 0
9949 1 6.21162175706206 66.53534525441508 5.27056659813704 0 0 0
9953 1 4.450551020113809 67.77957722575228 6.514716585880121 0 0 0
9968 1 4.450551020150542 67.77957722585731 4.026416585940012 0 0 0
10305 1 6.211619470787054 69.02381079194643 5.270566572533342 0 0 0
9887 1 7.972689693549991 67.77957869225949 6.5147165854203655 0 0 0
9902 1 7.972689693506669 67.77957869234112 4.026416585428234 0 0 0
9821 1 11.494826846876157 67.77957998993683 6.514716587622338 0 0 0
9836 1 11.494826846819377 67.77957998997726 4.0264165876289155 0 0 0
9883 1 9.733760041464155 66.53534645723835 5.27056659853927 0 0 0
10239 1 9.73375717391014 69.02381236633096 5.270566573444891 0 0 0
9755 1 15.016962225431543 67.77958070908709 6.514716593487447 0 0 0
9770 1 15.016962225443429 67.7795807091411 4.026416593425643 0 0 0
9817 1 13.255896116143516 66.53534717267037 5.270566602461937 0 0 0
10173 1 13.255893576346937 69.02381363283926 5.270566577131005 0 0 0
9689 1 18.539096143484883 67.77958061767949 6.514716598095844 0 0 0
9704 1 18.53909614348433 67.77958061772021 4.026416598015286 0 0 0
9751 1 16.778030069854108 66.53534717553174 5.270566607794466 0 0 0
10107 1 16.778028668679738 69.02381419078358 5.270566582119928 0 0 0
4326 1 0.9284114662055266 70.2680419800491 -5.926783437372198 0 0 0
4335 1 0.9284114890399197 72.75650843050464 -5.926783462836907 0 0 0
10373 1 2.689480298088697 71.51227553635576 -7.170933451726275 0 0 1
10385 1 2.6894802979725827 71.51227553632931 -4.6826334515649926 0 0 0
10309 1 6.2116179232751305 71.51227681297995 -7.170933452155768 0 0 1
10329 1 6.211617923278406 71.51227681295754 -4.682633452019573 0 0 0
10331 1 4.45054962860627 70.26804301526936 -5.9267834395005625 0 0 0
10349 1 4.450548750693662 72.75650928279265 -5.926783463883478 0 0 0
10265 1 7.972687448669629 70.2680445643958 -5.926783440122323 0 0 0
10283 1 7.9726859438150095 72.75651071212069 -5.926783463224443 0 0 0
10199 1 11.494824456133003 70.26804613463129 -5.926783437590624 0 0 0
10217 1 11.494822805673572 72.75651226687197 -5.926783464278054 0 0 0
10243 1 9.733755165730654 71.51227842586586 -7.170933451704101 0 0 1
10263 1 9.73375516572861 71.51227842589297 -4.682633451529792 0 0 0
10133 1 15.016960449838422 70.26804722726993 -5.926783435109599 0 0 0
10151 1 15.016959179636086 72.75651345153129 -5.926783465382106 0 0 0
10177 1 13.255891745690839 71.51227986242566 -7.170933450446199 0 0 1
10197 1 13.255891745658605 71.51227986239392 -4.682633450317415 0 0 0
10067 1 18.539095550530767 70.2680474978219 -5.926783431895647 0 0 0
10085 1 18.539095061944177 72.75651388741474 -5.926783466208643 0 0 0
10111 1 16.77802759661347 71.51228066402997 -7.1709334496031785 0 0 1
10131 1 16.778027596596008 71.51228066400576 -4.682633449471056 0 0 0
4337 1 0.9284115750279476 75.24497517392534 -5.92678349171623 0 0 0
10374 1 2.6894799769776974 74.000742061984 -7.170933477164918 0 0 1
10395 1 2.6894799770116555 74.00074206197979 -4.682633477081404 0 0 0
10310 1 6.211616944750992 74.00074314729173 -7.17093347649694 0 0 1
10350 1 6.211616944677877 74.00074314733945 -4.682633476535751 0 0 0
10353 1 4.450548242940011 75.24497583319402 -5.926783490281925 0 0 0
10287 1 7.972685007273865 75.24497704669953 -5.926783490721618 0 0 0
10221 1 11.494821736723738 75.24497842780865 -5.9267834919765265 0 0 0
10244 1 9.733753841965578 74.00074461188156 -7.170933476583533 0 0 1
10284 1 9.733753841999643 74.00074461179341 -4.682633476622813 0 0 0
10155 1 15.01695831965493 75.24497953608211 -5.926783495476616 0 0 0
10178 1 13.25589049827327 74.00074598830787 -7.170933478602626 0 0 1
10218 1 13.25589049835596 74.00074598823379 -4.682633478635403 0 0 0
10089 1 18.539094686495453 75.2449800200186 -5.926783498478302 0 0 0
10112 1 16.77802682316797 74.00074684029963 -7.170933480867529 0 0 1
10152 1 16.778026823125384 74.00074684031567 -4.682633480928727 0 0 0
4342 1 0.928411685185089 77.73344205020352 -5.926783524833894 0 0 0
10382 1 2.6894798395368924 76.48920880224152 -7.170933507109911 0 0 1
10383 1 2.6894798206617008 78.97767562657073 -7.1709335387775965 0 0 1
10396 1 2.689479839605463 76.48920880224703 -4.682633507081352 0 0 0
10402 1 2.6894798206762562 78.97767562660353 -4.6826335387163835 0 0 0
10325 1 6.211616384755154 76.48920966612293 -7.17093350616878 0 0 1
10326 1 6.211616112089308 78.97767627654524 -7.170933538754237 0 0 1
10351 1 6.2116163847435635 76.48920966611793 -4.68263350603009 0 0 0
10363 1 4.450547997061494 77.73344253373446 -5.926783523144177 0 0 0
10364 1 6.211616112095199 78.97767627650853 -4.682633538717659 0 0 0
10297 1 7.97268448187822 77.73344350006123 -5.92678352238045 0 0 0
10231 1 11.494821100951578 77.73344463936944 -5.9267835220282805 0 0 0
10259 1 9.733753035983028 76.48921089414908 -7.170933506477954 0 0 1
10260 1 9.733752597543594 78.97767724381171 -7.1709335389084385 0 0 1
10285 1 9.733753035967077 76.48921089413496 -4.682633506325018 0 0 0
10298 1 9.733752597556693 78.97767724381285 -4.682633538918308 0 0 0
10165 1 15.016957775493223 77.7334455891023 -5.926783523484821 0 0 0
10193 1 13.255889703711187 76.48921209215067 -7.170933508705358 0 0 1
10194 1 13.255889242101091 78.97767821809606 -7.170933538142 0 0 1
10219 1 13.255889703721037 76.48921209218692 -4.6826335085612145 0 0 0
10232 1 13.255889242098021 78.97767821809425 -4.6826335381314275 0 0 0
10099 1 18.53909440766141 77.73344604771967 -5.926783526969058 0 0 0
10127 1 16.77802629430192 76.4892128812158 -7.170933511485602 0 0 1
10128 1 16.778025954439798 78.97767888691818 -7.170933539240676 0 0 1
10153 1 16.778026294304965 76.48921288118324 -4.682633511400914 0 0 0
10166 1 16.778025954486658 78.97767888689515 -4.682633539244188 0 0 0
4344 1 0.9284117988320109 80.22190896550879 -5.926783552006143 0 0 0
4660 1 0.9284119038171104 82.71037590153084 -5.926783579244325 0 0 0
10394 1 2.689479867683868 81.4661424366111 -7.170933565381391 0 0 1
10403 1 2.6894798675799003 81.46614243660102 -4.6826335653831945 0 0 0
10348 1 6.211616028123371 81.46614290181046 -7.170933566618409 0 0 1
10365 1 6.211616028117232 81.4661429018044 -4.682633566613807 0 0 0
10367 1 4.450547921322991 80.22190930149677 -5.926783553798767 0 0 0
10735 1 4.450547942861627 82.71037612043763 -5.926783579764079 0 0 0
10301 1 7.972684238575427 80.22191002821697 -5.926783553313674 0 0 0
10669 1 7.972684176534307 82.71037663816082 -5.926783579562479 0 0 0
10235 1 11.494820771741294 80.22191091504683 -5.92678355446058 0 0 0
10282 1 9.733752411161282 81.46614362179085 -7.170933566506293 0 0 1
10299 1 9.733752411250581 81.46614362180443 -4.682633566399754 0 0 0
10603 1 11.494820645499614 82.71037729001975 -5.9267835796543835 0 0 0
10169 1 15.016957465700582 80.221911676318 -5.92678355394093 0 0 0
10216 1 13.255889013849986 81.46614436945934 -7.170933567675452 0 0 1
10233 1 13.25588901370558 81.46614436943986 -4.6826335675970165 0 0 0
10537 1 15.016957313057821 82.71037787208532 -5.926783583120713 0 0 0
10103 1 18.539094211765363 80.22191207574932 -5.926783555147251 0 0 0
10150 1 16.778025753537698 81.46614490677973 -7.170933570468817 0 0 1
10167 1 16.77802575349697 81.46614490677143 -4.6826335704142705 0 0 0
10471 1 18.539094082786136 82.71037819534376 -5.926783584752035 0 0 0
4319 1 0.9284114662127108 70.26804198005745 -0.9501834373087171 0 0 0
4325 1 0.928411466208254 70.26804198010349 -3.4384834373489754 0 0 0
4327 1 0.9284114890620779 72.75650843048403 -0.9501834628357629 0 0 0
4328 1 0.9284114891217587 72.75650843050862 -3.438483462810329 0 0 0
10386 1 2.6894802979958246 71.5122755363572 -2.194333451654188 0 0 0
10316 1 4.450549628594553 70.26804301533664 -0.9501834395307007 0 0 0
10330 1 4.450549628591235 70.26804301535063 -3.4384834395514168 0 0 0
10332 1 6.2116179232620325 71.5122768129358 -2.1943334521382565 0 0 0
10334 1 4.450548750650754 72.75650928275631 -0.9501834638600366 0 0 0
10335 1 4.450548750670784 72.75650928266641 -3.4384834638643262 0 0 0
10250 1 7.97268744863875 70.26804456437206 -0.950183440149229 0 0 0
10264 1 7.97268744868461 70.26804456452246 -3.4384834401480986 0 0 0
10268 1 7.972685943822974 72.75651071218292 -0.9501834632973704 0 0 0
10269 1 7.972685943812809 72.75651071201438 -3.4384834632949377 0 0 0
10184 1 11.494824456134376 70.26804613463473 -0.9501834375542445 0 0 0
10198 1 11.494824456159852 70.26804613473863 -3.4384834375933884 0 0 0
10202 1 11.494822805667193 72.75651226691049 -0.9501834642887502 0 0 0
10203 1 11.494822805679787 72.75651226674987 -3.438483464273387 0 0 0
10266 1 9.733755165743872 71.51227842589093 -2.194333451690062 0 0 0
10118 1 15.016960449911366 70.2680472273243 -0.9501834351089918 0 0 0
10132 1 15.016960449859498 70.2680472274532 -3.4384834351514373 0 0 0
10136 1 15.016959179592336 72.75651345144873 -0.9501834652880032 0 0 0
10137 1 15.016959179630609 72.75651345139097 -3.438483465357062 0 0 0
10200 1 13.25589174576794 71.51227986239918 -2.1943334504199967 0 0 0
10052 1 18.539095550558585 70.26804749787243 -0.9501834318430896 0 0 0
10066 1 18.53909555057973 70.26804749796426 -3.4384834318724518 0 0 0
10070 1 18.53909506184064 72.75651388735582 -0.9501834661735671 0 0 0
10071 1 18.53909506185687 72.7565138872929 -3.4384834661824817 0 0 0
10134 1 16.778027596657207 71.51228066393774 -2.194333449538447 0 0 0
4330 1 0.9284115751091431 75.24497517395444 -0.9501834917515773 0 0 0
4336 1 0.9284115750818587 75.24497517392038 -3.4384834917197398 0 0 0
10387 1 2.6894799769782627 74.00074206202285 -2.1943334770577296 0 0 0
10333 1 6.211616944673976 74.00074314732684 -2.194333476491883 0 0 0
10339 1 4.450548242917276 75.24497583321659 -0.9501834902365234 0 0 0
10352 1 4.450548242973546 75.24497583333196 -3.4384834902871724 0 0 0
10273 1 7.9726850073177165 75.24497704668936 -0.9501834906274783 0 0 0
10286 1 7.972685007300918 75.24497704673028 -3.438483490765799 0 0 0
10207 1 11.494821736717947 75.24497842776276 -0.9501834918632587 0 0 0
10220 1 11.494821736732021 75.24497842788175 -3.4384834919102296 0 0 0
10267 1 9.733753841935181 74.00074461190619 -2.1943334765995752 0 0 0
10141 1 15.016958319576997 75.24497953602729 -0.9501834954955621 0 0 0
10154 1 15.016958319668566 75.24497953615447 -3.4384834955695216 0 0 0
10201 1 13.255890498398642 74.00074598821973 -2.194333478636747 0 0 0
10075 1 18.53909468648775 75.24498002001624 -0.9501834984419584 0 0 0
10088 1 18.5390946864832 75.24498002001506 -3.4384834984439374 0 0 0
10135 1 16.77802682320421 74.00074684029282 -2.1943334809034445 0 0 0
4338 1 0.9284116852493083 77.73344205018286 -0.950183524798273 0 0 0
4339 1 0.9284116852550715 77.7334420500763 -3.43848352483529 0 0 0
10397 1 2.6894798395580173 76.48920880226338 -2.194333507122822 0 0 0
10398 1 2.6894798207249213 78.97767562659018 -2.1943335387813283 0 0 0
10354 1 6.211616384747299 76.48920966617212 -2.1943335061996403 0 0 0
10355 1 6.211616112063849 78.977676276541 -2.1943335387460188 0 0 0
10356 1 4.450547997092691 77.73344253369098 -0.950183523054029 0 0 0
10357 1 4.4505479971762885 77.73344253373614 -3.4384835232063 0 0 0
10290 1 7.972684481878887 77.73344350009641 -0.9501835223234953 0 0 0
10291 1 7.972684481833206 77.73344350007265 -3.43848352234245 0 0 0
10224 1 11.49482110090112 77.7334446394193 -0.950183521983868 0 0 0
10225 1 11.494821100899893 77.73344463932183 -3.4384835219958263 0 0 0
10288 1 9.733753035970583 76.48921089414422 -2.1943335064608998 0 0 0
10289 1 9.733752597543225 78.97767724380061 -2.19433353889921 0 0 0
10158 1 15.016957775498922 77.73344558910047 -0.950183523456291 0 0 0
10159 1 15.01695777547347 77.73344558902875 -3.4384835234663464 0 0 0
10222 1 13.255889703738806 76.48921209217333 -2.194333508739396 0 0 0
10223 1 13.255889242082548 78.97767821811492 -2.1943335381663496 0 0 0
10092 1 18.539094407683532 77.73344604773874 -0.9501835269870508 0 0 0
10093 1 18.539094407633634 77.73344604764279 -3.438483526975763 0 0 0
10156 1 16.778026294317637 76.48921288122528 -2.194333511552446 0 0 0
10157 1 16.778025954474874 78.97767888690467 -2.194333539223081 0 0 0
4341 1 0.928411798823568 80.2219089654996 -0.9501835519848633 0 0 0
4343 1 0.9284117988333402 80.22190896547377 -3.438483552022423 0 0 0
4651 1 0.9284119037968618 82.71037590155252 -0.950183579153515 0 0 0
4652 1 0.9284119037558968 82.71037590155377 -3.4384835791654935 0 0 0
10404 1 2.6894798676112073 81.46614243658459 -2.1943335653546296 0 0 0
10361 1 4.450547921374501 80.22190930143695 -0.950183553720765 0 0 0
10366 1 4.450547921337091 80.2219093014905 -3.438483553754388 0 0 0
10368 1 6.211616028069044 81.46614290183092 -2.1943335666501342 0 0 0
10718 1 4.45054794283954 82.71037612041266 -0.9501835797025522 0 0 0
10719 1 4.450547942806186 82.71037612040051 -3.438483579781472 0 0 0
10295 1 7.972684238613558 80.22191002830206 -0.9501835532901906 0 0 0
10300 1 7.972684238597391 80.22191002827873 -3.438483553242219 0 0 0
10652 1 7.972684176561689 82.71037663814288 -0.95018357955719 0 0 0
10653 1 7.972684176547207 82.71037663808016 -3.438483579569289 0 0 0
10229 1 11.494820771746204 80.22191091502046 -0.9501835544840249 0 0 0
10234 1 11.494820771720619 80.22191091506075 -3.4384835544303236 0 0 0
10302 1 9.733752411193208 81.4661436217708 -2.194333566493582 0 0 0
10586 1 11.494820645480203 82.71037728999995 -0.9501835795843103 0 0 0
10587 1 11.494820645507653 82.71037728997108 -3.438483579586344 0 0 0
10163 1 15.016957465710947 80.22191167635714 -0.9501835538256552 0 0 0
10168 1 15.016957465690274 80.22191167633932 -3.4384835538499723 0 0 0
10236 1 13.255889013789679 81.46614436943605 -2.1943335676617157 0 0 0
10520 1 15.016957313055594 82.71037787211957 -0.9501835830852535 0 0 0
10521 1 15.016957313007735 82.71037787205854 -3.438483583125601 0 0 0
10097 1 18.53909421175668 80.22191207576475 -0.9501835551185751 0 0 0
10102 1 18.5390942117535 80.22191207574683 -3.4384835551115467 0 0 0
10170 1 16.77802575352724 81.46614490676801 -2.1943335704391513 0 0 0
10454 1 18.539094082751273 82.71037819522076 -0.950183584722097 0 0 0
10455 1 18.53909408275412 82.71037819523339 -3.438483584749952 0 0 0
4318 1 0.9284114662074777 70.26804198006289 1.5381165626304314 0 0 0
4321 1 0.9284114890253466 72.75650843047659 1.5381165371212433 0 0 0
10377 1 2.6894802980756256 71.51227553637172 0.29396654832051655 0 0 0
10378 1 2.6894802979791264 71.51227553631442 2.7822665483999756 0 0 0
10314 1 6.21161792325766 71.512276812988 0.29396654791391275 0 0 0
10315 1 4.450549628617991 70.26804301533487 1.5381165604804246 0 0 0
10317 1 6.21161792328277 71.51227681297519 2.7822665479011692 0 0 0
10320 1 4.450548750685361 72.75650928273346 1.5381165360758045 0 0 0
10249 1 7.972687448655579 70.26804456449884 1.5381165598765045 0 0 0
10254 1 7.972685943815499 72.75651071203342 1.5381165367084977 0 0 0
10183 1 11.494824456125457 70.26804613475257 1.5381165624083948 0 0 0
10188 1 11.494822805681864 72.75651226677606 1.5381165356825162 0 0 0
10248 1 9.733755165733967 71.5122784258885 0.2939665483586426 0 0 0
10251 1 9.733755165714337 71.51227842591544 2.782266548387986 0 0 0
10117 1 15.016960449822038 70.26804722736453 1.5381165648863298 0 0 0
10122 1 15.016959179640267 72.75651345144172 1.538116534591383 0 0 0
10182 1 13.255891745697081 71.51227986243526 0.2939665496387942 0 0 0
10185 1 13.255891745632162 71.51227986240683 2.782266549588262 0 0 0
10051 1 18.539095550550094 70.26804749786878 1.5381165681212392 0 0 0
10056 1 18.53909506193752 72.75651388735466 1.5381165337626785 0 0 0
10116 1 16.778027596625765 71.51228066401495 0.2939665504729207 0 0 0
10119 1 16.778027596580294 71.51228066399491 2.7822665504800215 0 0 0
4329 1 0.9284115750300975 75.24497517395871 1.538116508290142 0 0 0
10379 1 2.6894799769862514 74.00074206199142 2.7822665229879293 0 0 0
10388 1 2.6894799769673488 74.00074206199194 0.2939665227723197 0 0 0
10318 1 6.2116169446979885 74.00074314734644 2.7822665235396626 0 0 0
10336 1 6.2116169447642795 74.00074314727382 0.29396652340716894 0 0 0
10338 1 4.450548242945801 75.24497583323429 1.5381165097252245 0 0 0
10272 1 7.972685007307148 75.24497704677107 1.538116509257082 0 0 0
10206 1 11.494821736739326 75.24497842788608 1.5381165080124255 0 0 0
10252 1 9.733753842004717 74.00074461180829 2.7822665234632167 0 0 0
10270 1 9.73375384198258 74.00074461186787 0.29396652326953876 0 0 0
10140 1 15.016958319633565 75.24497953614096 1.5381165045178824 0 0 0
10186 1 13.255890498341124 74.00074598822259 2.782266521468663 0 0 0
10204 1 13.255890498275605 74.00074598830265 0.29396652128045087 0 0 0
10074 1 18.53909468649604 75.2449800200696 1.5381165015352185 0 0 0
10120 1 16.77802682313085 74.00074684032282 2.782266519162435 0 0 0
10138 1 16.778026823173423 74.00074684030385 0.29396651903306825 0 0 0
4332 1 0.9284116851811003 77.73344205018896 1.5381164751322254 0 0 0
10389 1 2.689479839548096 76.48920880226653 0.29396649292113336 0 0 0
10390 1 2.689479839585823 76.4892088022534 2.782266492883041 0 0 0
10391 1 2.689479820672069 78.97767562659413 2.7822664613046206 0 0 0
10399 1 2.689479820678774 78.97767562657144 0.29396646119940756 0 0 0
10337 1 6.211616384789573 76.48920966611794 0.2939664939179162 0 0 0
10340 1 6.211616384781783 76.48920966607822 2.7822664939075668 0 0 0
10341 1 6.21161611209156 78.97767627651776 2.782266461349325 0 0 0
10343 1 4.45054799708894 77.73344253365741 1.5381164768921542 0 0 0
10358 1 6.2116161121073805 78.97767627654291 0.29396646124154885 0 0 0
10277 1 7.972684481886411 77.73344349998605 1.5381164776280716 0 0 0
10211 1 11.494821100959639 77.73344463930165 1.538116477978825 0 0 0
10271 1 9.733753035992715 76.48921089416 0.2939664935916545 0 0 0
10274 1 9.733753035989956 76.48921089412087 2.7822664936140513 0 0 0
10275 1 9.733752597546282 78.9776772438192 2.7822664611589274 0 0 0
10292 1 9.733752597524584 78.9776772438162 0.29396646104150875 0 0 0
10145 1 15.016957775466476 77.73344558903014 1.5381164764939668 0 0 0
10205 1 13.255889703699815 76.48921209216735 0.29396649139169506 0 0 0
10208 1 13.255889703714303 76.48921209214869 2.7822664913584547 0 0 0
10209 1 13.255889242110605 78.97767821809613 2.7822664619396313 0 0 0
10226 1 13.255889242089937 78.97767821808714 0.29396646183576536 0 0 0
10079 1 18.539094407665125 77.7334460476839 1.5381164730209815 0 0 0
10139 1 16.778026294290257 76.48921288123782 0.2939664885862705 0 0 0
10142 1 16.77802629428529 76.48921288115339 2.7822664885606714 0 0 0
10143 1 16.778025954476522 78.97767888688288 2.7822664607956344 0 0 0
10160 1 16.778025954429644 78.9776788868995 0.2939664607208092 0 0 0
4340 1 0.9284117988004804 80.22190896549982 1.5381164479910931 0 0 0
4647 1 0.9284119038225555 82.71037590154084 1.5381164207757376 0 0 0
10400 1 2.6894798676622527 81.46614243661087 0.29396643461315913 0 0 0
10401 1 2.6894798675963814 81.46614243657663 2.782266434598928 0 0 0
10359 1 6.211616028099433 81.46614290181515 0.2939664333854109 0 0 0
10360 1 4.4505479213279315 80.22190930152132 1.5381164461880452 0 0 0
10362 1 6.211616028097999 81.4661429017993 2.782266433363927 0 0 0
10709 1 4.450547942869652 82.7103761204337 1.5381164202428528 0 0 0
10294 1 7.972684238558449 80.22191002829221 1.5381164466773714 0 0 0
10643 1 7.972684176496982 82.7103766381615 1.5381164204459705 0 0 0
10228 1 11.494820771760777 80.22191091511758 1.5381164455320913 0 0 0
10293 1 9.733752411166172 81.46614362180081 0.29396643352229773 0 0 0
10296 1 9.73375241122672 81.46614362179605 2.782266433537989 0 0 0
10577 1 11.494820645523713 82.71037728999033 1.538116420342086 0 0 0
10162 1 15.016957465692109 80.22191167637763 1.538116446069391 0 0 0
10227 1 13.25588901386609 81.46614436946405 0.2939664323444028 0 0 0
10230 1 13.25588901373014 81.46614436945927 2.7822664323531763 0 0 0
10511 1 15.016957313062703 82.71037787206106 1.5381164168495818 0 0 0
10096 1 18.539094211762688 80.22191207579212 1.5381164448711377 0 0 0
10161 1 16.778025753546373 81.46614490677017 0.2939664295363144 0 0 0
10164 1 16.778025753492688 81.46614490676399 2.7822664295674695 0 0 0
10445 1 18.539094082796023 82.71037819533694 1.5381164152593276 0 0 0
4315 1 0.9284114662311795 70.26804198010764 6.514716562710473 0 0 0
4316 1 0.928411466226285 70.26804198006772 4.026416562645509 0 0 0
4317 1 0.9284114890570554 72.75650843044194 6.5147165372096465 0 0 0
4320 1 0.9284114891435213 72.75650843050302 4.026416537193168 0 0 0
10372 1 2.689480298023007 71.51227553636346 5.270566548381662 0 0 0
10306 1 6.211617923270221 71.51227681297664 5.270566547947573 0 0 0
10307 1 4.450549628619983 70.26804301539703 6.514716560508243 0 0 0
10308 1 4.450549628627994 70.26804301528325 4.026416560429409 0 0 0
10311 1 4.450548750656137 72.75650928268297 6.514716536161829 0 0 0
10319 1 4.450548750656388 72.75650928273386 4.026416536142356 0 0 0
10241 1 7.9726874486283945 70.26804456445355 6.514716559858949 0 0 0
10242 1 7.972687448687575 70.26804456443021 4.026416559829 0 0 0
10245 1 7.972685943818553 72.75651071208893 6.514716536757804 0 0 0
10253 1 7.972685943835806 72.75651071209757 4.026416536731557 0 0 0
10175 1 11.494824456134326 70.26804613473291 6.514716562464747 0 0 0
10176 1 11.494824456132573 70.26804613466513 4.026416562398181 0 0 0
10179 1 11.494822805651243 72.75651226680968 6.514716535768485 0 0 0
10187 1 11.494822805649678 72.7565122668627 4.026416535740828 0 0 0
10240 1 9.733755165740925 71.51227842590247 5.2705665484011215 0 0 0
10109 1 15.016960449893272 70.2680472274403 6.514716564943005 0 0 0
10110 1 15.016960449836116 70.26804722737977 4.0264165648577235 0 0 0
10113 1 15.016959179565019 72.75651345136123 6.514716534714366 0 0 0
10121 1 15.016959179616954 72.75651345148033 4.02641653465259 0 0 0
10174 1 13.25589174572573 71.51227986242753 5.270566549677304 0 0 0
10043 1 18.53909555054816 70.26804749795218 6.514716568161523 0 0 0
10044 1 18.539095550572554 70.26804749791583 4.02641656812442 0 0 0
10047 1 18.539095061849267 72.75651388728258 6.514716533855993 0 0 0
10055 1 18.539095061840744 72.75651388734246 4.026416533830015 0 0 0
10108 1 16.778027596635905 71.51228066396172 5.2705665505143475 0 0 0
4322 1 0.9284115751075873 75.244975173971 6.514716508270721 0 0 0
4323 1 0.9284115750884909 75.24497517389713 4.026416508269869 0 0 0
10380 1 2.689479976943631 74.00074206200281 5.270566522884137 0 0 0
10321 1 6.211616944679645 74.00074314732286 5.270566523427795 0 0 0
10323 1 4.450548242909247 75.24497583324084 6.514716509772945 0 0 0
10324 1 4.450548242948715 75.24497583326023 4.026416509700844 0 0 0
10257 1 7.972685007302709 75.24497704675784 6.514716509407045 0 0 0
10258 1 7.972685007338268 75.24497704664002 4.0264165092268005 0 0 0
10191 1 11.494821736718947 75.24497842783832 6.5147165081795 0 0 0
10192 1 11.494821736714526 75.24497842778142 4.026416508074999 0 0 0
10255 1 9.733753841927992 74.00074461190448 5.270566523330564 0 0 0
10125 1 15.016958319570625 75.24497953608702 6.514716504519623 0 0 0
10126 1 15.016958319663846 75.24497953604204 4.026416504422845 0 0 0
10189 1 13.255890498370146 74.00074598820827 5.270566521286405 0 0 0
10059 1 18.539094686494227 75.2449800200182 6.514716501578677 0 0 0
10060 1 18.53909468648215 75.24498001993707 4.026416501541883 0 0 0
10123 1 16.778026823203657 74.00074684026973 5.270566519030984 0 0 0
4324 1 0.9284116852309355 77.73344205015914 6.514716475203792 0 0 0
4331 1 0.9284116852551849 77.7334420500871 4.026416475165911 0 0 0
10381 1 2.689479839545395 76.48920880225697 5.270566492913421 0 0 0
10392 1 2.6894798207203094 78.9776756265652 5.270566461181515 0 0 0
10322 1 6.211616384764012 76.48920966614943 5.270566493866188 0 0 0
10327 1 4.450547997068442 77.73344253361849 6.514716476901223 0 0 0
10342 1 4.450547997174442 77.73344253374287 4.026416476786229 0 0 0
10344 1 6.211616112051714 78.97767627651683 5.270566461179244 0 0 0
10261 1 7.972684481862626 77.73344350001962 6.514716477662554 0 0 0
10276 1 7.972684481846198 77.73344350012734 4.026416477658264 0 0 0
10195 1 11.49482110092659 77.73344463933321 6.514716477981597 0 0 0
10210 1 11.494821100888908 77.73344463939725 4.026416478004985 0 0 0
10256 1 9.733753035971965 76.48921089415879 5.27056649361085 0 0 0
10278 1 9.733752597541013 78.97767724379936 5.270566461032453 0 0 0
10129 1 15.016957775502428 77.73344558903545 6.514716476533282 0 0 0
10144 1 15.016957775483926 77.73344558907742 4.026416476538745 0 0 0
10190 1 13.255889703733022 76.48921209216024 5.2705664913309045 0 0 0
10212 1 13.255889242099892 78.9776782181028 5.270566461757227 0 0 0
10063 1 18.539094407681333 77.73344604769684 6.514716472990474 0 0 0
10078 1 18.539094407614556 77.73344604767215 4.026416473011988 0 0 0
10124 1 16.778026294315683 76.4892128812106 5.2705664884946035 0 0 0
10146 1 16.778025954483205 78.97767888688144 5.270566460694108 0 0 0
4333 1 0.9284117988057342 80.22190896550025 6.514716448024526 0 0 0
4334 1 0.9284117988394254 80.22190896544487 4.026416447975607 0 0 0
4645 1 0.9284119037895653 82.71037590155322 6.514716420824004 0 0 0
4646 1 0.9284119037760327 82.71037590153136 4.026416420839803 0 0 0
10393 1 2.6894798676215985 81.46614243657919 5.2705664346423164 0 0 0
10345 1 6.211616028082136 81.46614290184036 5.2705664333728235 0 0 0
10346 1 4.450547921391336 80.22190930147448 6.514716446303377 0 0 0
10347 1 4.450547921308683 80.22190930145568 4.026416446244164 0 0 0
10706 1 4.450547942867662 82.71037612041889 6.514716420287903 0 0 0
10708 1 4.4505479427926025 82.71037612045887 4.026416420244319 0 0 0
10280 1 7.9726842386025645 80.22191002834363 6.514716446744501 0 0 0
10281 1 7.9726842385952486 80.22191002822512 4.026416446763014 0 0 0
10640 1 7.9726841765604295 82.71037663815063 6.5147164204362324 0 0 0
10642 1 7.9726841765393885 82.710376638136 4.026416420433598 0 0 0
10214 1 11.494820771775894 80.22191091508982 6.514716445514881 0 0 0
10215 1 11.494820771717677 80.22191091502033 4.026416445548768 0 0 0
10279 1 9.733752411171226 81.46614362176024 5.270566433546419 0 0 0
10574 1 11.494820645482557 82.71037728996723 6.514716420401969 0 0 0
10576 1 11.49482064549759 82.71037729000884 4.026416420419723 0 0 0
10148 1 15.016957465708318 80.22191167642977 6.514716446161816 0 0 0
10149 1 15.016957465712501 80.22191167630302 4.026416446140544 0 0 0
10213 1 13.25588901379032 81.46614436945934 5.270566432371173 0 0 0
10508 1 15.016957313012353 82.7103778721016 6.514716416949233 0 0 0
10510 1 15.016957313023866 82.71037787209677 4.026416416890681 0 0 0
10082 1 18.53909421174966 80.22191207580543 6.514716444872388 0 0 0
10083 1 18.539094211737005 80.22191207573213 4.026416444877163 0 0 0
10147 1 16.778025753511987 81.4661449067781 5.270566429599646 0 0 0
10442 1 18.539094082745514 82.71037819520782 6.51471641525439 0 0 0
10444 1 18.539094082738796 82.7103781952616 4.026416415251563 0 0 0
4662 1 0.9284119909298771 85.19884300563021 -5.926783604195442 0 0 0
10771 1 2.689479947466349 83.95460910889521 -7.170933592563134 0 0 1
10775 1 2.689480035700821 86.44307524588847 -7.170933613730792 0 0 1
10786 1 2.6894799474694566 83.95460910884529 -4.682633592560493 0 0 0
10787 1 2.6894800357035384 86.4430752459849 -4.68263361371988 0 0 0
10705 1 6.211616055999923 83.95460941978942 -7.170933592157336 0 0 1
10714 1 6.211616145652985 86.4430754393101 -7.170933612779998 0 0 1
10736 1 6.2116160560252505 83.95460941977866 -4.682633592134822 0 0 0
10737 1 6.211616145681426 86.44307543930309 -4.68263361263997 0 0 0
10739 1 4.450548022566168 85.19884313362223 -5.926783601870997 0 0 0
10673 1 7.972684223342934 85.19884347979745 -5.926783603617691 0 0 0
10607 1 11.494820641397203 85.19884393757286 -5.92678360624407 0 0 0
10639 1 9.733752382537997 83.95460992773226 -7.170933592973695 0 0 1
10648 1 9.73375244071562 86.44307577871975 -7.170933616883967 0 0 1
10670 1 9.733752382572407 83.95460992774093 -4.682633593013505 0 0 0
10671 1 9.733752440704091 86.4430757787323 -4.682633616875097 0 0 0
10541 1 15.01695726317521 85.19884435721889 -5.926783608831849 0 0 0
10573 1 13.255888933550228 83.95461047361492 -7.17093359451863 0 0 1
10582 1 13.255888945085484 86.44307615609117 -7.17093362176998 0 0 1
10604 1 13.255888933519914 83.95461047364044 -4.6826335945170525 0 0 0
10605 1 13.255888945075979 86.44307615605611 -4.682633621682382 0 0 0
10475 1 18.53909400578994 85.19884460858266 -5.926783610440385 0 0 0
10507 1 16.778025652047457 83.95461088262036 -7.170933597251329 0 0 1
10516 1 16.778025613313442 86.44307645123222 -7.170933621050424 0 0 1
10538 1 16.778025652099114 83.95461088268999 -4.682633597261227 0 0 0
10539 1 16.778025613251412 86.44307645122437 -4.682633621048409 0 0 0
4671 1 0.9284120593418062 87.68731105543685 -5.926783625589156 0 0 0
10776 1 2.6894801186488886 88.93153915765792 -7.170933632723578 0 0 1
10795 1 2.6894801186664963 88.93153915768124 -4.6826336327059375 0 0 0
4673 1 0.9284121099922477 90.17578367809863 -5.926783642769246 0 0 0
10715 1 6.211616253106213 88.93153926560004 -7.170933637740688 0 0 1
10755 1 4.4505481211565066 87.6873111201788 -5.926783623629808 0 0 0
10756 1 6.211616253215402 88.93153926561597 -4.68263363775802 0 0 0
10759 1 4.4505482190854755 90.17578369990194 -5.926783643472454 0 0 0
10689 1 7.972684318850981 87.68731133722312 -5.926783628014546 0 0 0
10693 1 7.972684433268196 90.17578382081513 -5.926783647598186 0 0 0
10623 1 11.494820706555329 87.6873116383677 -5.926783632930839 0 0 0
10649 1 9.733752540917736 88.93153947480609 -7.170933643245023 0 0 1
10690 1 9.733752540947265 88.93153947489387 -4.682633643243973 0 0 0
10627 1 11.494820799359623 90.17578400651034 -5.926783651158927 0 0 0
10557 1 15.016957276163952 87.68731192760593 -5.926783632195962 0 0 0
10583 1 13.255889003852555 88.93153972139885 -7.170933643088864 0 0 1
10624 1 13.255889003838718 88.93153972139187 -4.6826336430619175 0 0 0
10561 1 15.016957319517408 90.1757841918644 -5.92678365061294 0 0 0
10491 1 18.53909396228334 87.6873121111608 -5.926783628941266 0 0 0
10517 1 16.7780256145995 88.93153992445347 -7.170933638875813 0 0 1
10558 1 16.778025614545072 88.93153992452007 -4.682633638871958 0 0 0
10495 1 18.53909394051054 90.17578432355496 -5.926783646175064 0 0 0
4678 1 0.9284121466383133 92.66427737427108 -5.926783662620521 0 0 0
10784 1 2.6894801900922087 91.4199930858101 -7.170933651944105 0 0 1
10796 1 2.6894801900966216 91.41999308584569 -4.68263365207908 0 0 0
10732 1 6.211616362807547 91.41999313381781 -7.170933652925942 0 0 1
10757 1 6.211616362852825 91.41999313381942 -4.682633652941479 0 0 0
10767 1 4.4505483070638565 92.66427736889591 -5.926783660181765 0 0 0
10701 1 7.972684544793478 92.66427742455517 -5.926783660352324 0 0 0
10635 1 11.494820900016432 92.66427752394797 -5.9267836620651915 0 0 0
10666 1 9.733752651459714 91.41999325034105 -7.170933655790952 0 0 1
10691 1 9.733752651432738 91.41999325032333 -4.682633655826437 0 0 0
10569 1 15.01695737333728 92.6642776383266 -5.926783662789902 0 0 0
10600 1 13.255889084039934 91.41999339746863 -7.170933657122109 0 0 1
10625 1 13.25588908401754 91.41999339744439 -4.682633657257301 0 0 0
10503 1 18.53909393237334 92.66427772711803 -5.926783661603521 0 0 0
10534 1 16.778025632267294 91.41999353254452 -7.170933656806081 0 0 1
10559 1 16.778025632320166 91.41999353254161 -4.682633656745071 0 0 0
4680 1 0.9284121713579528 95.15286353974658 -5.926783673236847 0 0 0
10785 1 2.689480247248784 93.90840360419946 -7.170933666773285 0 0 1
10800 1 2.6894802472997505 93.90840360423057 -4.682633666777391 0 0 0
11030 1 2.6894802911902507 96.39661406649105 -7.170933677307875 0 0 1
11039 1 2.6894802912475257 96.39661406648422 -4.682633677398852 0 0 0
10733 1 6.211616458748065 93.90840361453462 -7.170933664596352 0 0 1
10768 1 6.211616458768697 93.90840361450277 -4.6826336645868585 0 0 0
10770 1 4.450548377842264 95.1528635183889 -5.926783671710575 0 0 0
10988 1 6.211616536231239 96.39661405067653 -7.170933675193077 0 0 1
11003 1 6.211616536204898 96.39661405066248 -4.682633675213439 0 0 0
10704 1 7.972684640273082 95.15286353154215 -5.926783669583315 0 0 0
10638 1 11.494820986715414 95.15286357550856 -5.926783668932687 0 0 0
10667 1 9.73375275649637 93.90840366597091 -7.170933664906522 0 0 1
10702 1 9.733752756508657 93.9084036659724 -4.682633664933221 0 0 0
10946 1 9.733752842731585 96.39661406345904 -7.170933672341662 0 0 1
10961 1 9.733752842692564 96.39661406347925 -4.682633672363644 0 0 0
10572 1 15.016957425661445 95.15286363665248 -5.926783669706429 0 0 0
10601 1 13.255889159669266 93.90840374659611 -7.170933667754238 0 0 1
10636 1 13.255889159640205 93.90840374664151 -4.682633667690128 0 0 0
10904 1 13.255889227400754 96.39661409659644 -7.170933670340369 0 0 1
10919 1 13.255889227380047 96.39661409659159 -4.682633670283035 0 0 0
10506 1 18.53909393280238 95.15286369580441 -5.926783673332092 0 0 0
10535 1 16.778025660243955 93.90840382934314 -7.170933667796665 0 0 1
10570 1 16.778025660233336 93.90840382937517 -4.682633667837479 0 0 0
10862 1 16.778025685036145 96.39661414451936 -7.170933673865274 0 0 1
10877 1 16.778025684997818 96.396614144526 -4.682633673924263 0 0 0
4654 1 0.9284119908860047 85.19884300561554 -0.950183604277036 0 0 0
4661 1 0.9284119908618913 85.19884300552582 -3.4384836041848392 0 0 0
10777 1 2.6894799474861157 83.95460910884206 -2.1943335925983445 0 0 0
10788 1 2.689480035734912 86.44307524596114 -2.1943336136913953 0 0 0
10717 1 6.211616056029679 83.95460941977427 -2.1943335922218097 0 0 0
10723 1 4.450548022566174 85.1988431336485 -0.9501836019348672 0 0 0
10738 1 4.450548022566347 85.1988431336365 -3.4384836018605376 0 0 0
10740 1 6.211616145687042 86.44307543925166 -2.194333612658486 0 0 0
10657 1 7.972684223278317 85.19884347984785 -0.9501836035333068 0 0 0
10672 1 7.972684223310845 85.19884347987463 -3.4384836035746345 0 0 0
10591 1 11.49482064133888 85.19884393747374 -0.9501836062015745 0 0 0
10606 1 11.49482064140117 85.19884393752814 -3.4384836062590494 0 0 0
10651 1 9.733752382565275 83.95460992777842 -2.1943335929220034 0 0 0
10674 1 9.73375244070523 86.44307577878203 -2.1943336168065906 0 0 0
10525 1 15.016957263149896 85.19884435725723 -0.9501836087798753 0 0 0
10540 1 15.016957263187717 85.19884435721364 -3.438483608838083 0 0 0
10585 1 13.255888933487336 83.9546104736002 -2.194333594501927 0 0 0
10608 1 13.255888944984425 86.44307615605445 -2.1943336217454643 0 0 0
10459 1 18.539094005825348 85.19884460858513 -0.9501836105004952 0 0 0
10474 1 18.539094005804127 85.19884460856257 -3.438483610435517 0 0 0
10519 1 16.77802565201316 83.95461088265198 -2.1943335972646567 0 0 0
10542 1 16.77802561324693 86.44307645129639 -2.1943336210298594 0 0 0
4663 1 0.9284120593084821 87.6873110552901 -0.9501836256004422 0 0 0
4664 1 0.9284120592913958 87.68731105542456 -3.4384836256375975 0 0 0
10789 1 2.6894801187169826 88.93153915771946 -2.1943336327125937 0 0 0
4666 1 0.9284121100091017 90.17578367808795 -0.9501836427635112 0 0 0
4672 1 0.9284121099537279 90.17578367801202 -3.43848364276711 0 0 0
10741 1 6.211616253226935 88.93153926556775 -2.194333637796632 0 0 0
10742 1 4.450548121137175 87.68731112018271 -0.9501836236530905 0 0 0
10743 1 4.450548121147199 87.68731112016401 -3.4384836236135903 0 0 0
10747 1 4.450548219082223 90.17578369989913 -0.9501836435632799 0 0 0
10758 1 4.450548219046782 90.1757836998421 -3.438483643554039 0 0 0
10676 1 7.9726843188412735 87.68731133723023 -0.9501836279914276 0 0 0
10677 1 7.9726843188611 87.68731133717446 -3.4384836280010815 0 0 0
10681 1 7.972684433259984 90.17578382075642 -0.9501836476571517 0 0 0
10692 1 7.9726844332178475 90.17578382068342 -3.4384836476360148 0 0 0
10610 1 11.494820706578997 87.6873116383202 -0.9501836329644786 0 0 0
10611 1 11.494820706542077 87.6873116383016 -3.4384836329358994 0 0 0
10675 1 9.73375254090097 88.93153947481143 -2.194333643207086 0 0 0
10615 1 11.494820799408432 90.17578400650754 -0.9501836512093002 0 0 0
10626 1 11.494820799469736 90.17578400652526 -3.438483651130402 0 0 0
10544 1 15.016957276169416 87.68731192762738 -0.9501836322966427 0 0 0
10545 1 15.016957276163295 87.68731192759583 -3.438483632189863 0 0 0
10609 1 13.255889003847768 88.93153972136969 -2.1943336430182114 0 0 0
10549 1 15.016957319558479 90.1757841918785 -0.9501836506524743 0 0 0
10560 1 15.01695731950605 90.1757841918333 -3.4384836506038656 0 0 0
10478 1 18.539093962392027 87.68731211117543 -0.9501836289119607 0 0 0
10479 1 18.53909396232704 87.68731211116358 -3.4384836289458485 0 0 0
10543 1 16.778025614575803 88.93153992448777 -2.1943336387977914 0 0 0
10483 1 18.539093940539686 90.17578432351178 -0.9501836462215352 0 0 0
10494 1 18.539093940532336 90.17578432353723 -3.438483646196085 0 0 0
4674 1 0.9284121466766967 92.66427737427318 -0.9501836626417469 0 0 0
4675 1 0.9284121466587084 92.6642773743653 -3.438483662619915 0 0 0
10797 1 2.689480190101421 91.41999308581956 -2.1943336519688694 0 0 0
10760 1 6.211616362813716 91.41999313383963 -2.1943336529474045 0 0 0
10762 1 4.450548307033248 92.664277368843 -0.9501836602527893 0 0 0
10763 1 4.450548307018802 92.66427736893056 -3.438483660209841 0 0 0
10696 1 7.972684544730367 92.66427742452417 -0.9501836603919995 0 0 0
10697 1 7.972684544696099 92.66427742458733 -3.4384836603991493 0 0 0
10630 1 11.49482090005501 92.664277523881 -0.9501836620887282 0 0 0
10631 1 11.494820900070666 92.66427752390848 -3.438483662062384 0 0 0
10694 1 9.733752651382078 91.41999325028527 -2.1943336557435003 0 0 0
10564 1 15.016957373367578 92.66427763842202 -0.9501836628022307 0 0 0
10565 1 15.016957373403143 92.66427763835398 -3.4384836627798494 0 0 0
10628 1 13.255889083973724 91.41999339745492 -2.1943336571497594 0 0 0
10498 1 18.539093932385477 92.66427772712066 -0.9501836616870613 0 0 0
10499 1 18.539093932429928 92.66427772719042 -3.4384836616744217 0 0 0
10562 1 16.77802563231637 91.41999353261416 -2.1943336567443255 0 0 0
4677 1 0.9284121713017924 95.15286353974346 -0.9501836732532599 0 0 0
4679 1 0.9284121713701394 95.15286353973238 -3.4384836732081068 0 0 0
10798 1 2.689480247307126 93.90840360417687 -2.1943336667890394 0 0 0
11040 1 2.68948029122356 96.39661406649505 -2.1943336773070086 0 0 0
10761 1 6.211616458768502 93.90840361453661 -2.1943336645588842 0 0 0
10766 1 4.45054837783001 95.15286351834244 -0.9501836718041787 0 0 0
10769 1 4.450548377914264 95.15286351830031 -3.438483671729722 0 0 0
11004 1 6.21161653624446 96.39661405066627 -2.194333675219293 0 0 0
10700 1 7.972684640232576 95.15286353157114 -0.9501836696530221 0 0 0
10703 1 7.97268464026036 95.15286353157332 -3.4384836695648384 0 0 0
10634 1 11.49482098677788 95.15286357550696 -0.9501836689885337 0 0 0
10637 1 11.494820986760429 95.1528635754968 -3.43848366901604 0 0 0
10695 1 9.733752756494681 93.90840366590895 -2.1943336648703444 0 0 0
10962 1 9.733752842722119 96.39661406349204 -2.194333672343162 0 0 0
10568 1 15.016957425654724 95.1528636367281 -0.9501836697853473 0 0 0
10571 1 15.01695742564835 95.15286363667963 -3.438483669686814 0 0 0
10629 1 13.255889159628595 93.90840374660239 -2.194333667719672 0 0 0
10920 1 13.255889227447629 96.39661409662207 -2.194333670362289 0 0 0
10502 1 18.539093932822052 95.15286369583028 -0.9501836734121548 0 0 0
10505 1 18.539093932794874 95.15286369579232 -3.438483673370957 0 0 0
10563 1 16.778025660165525 93.9084038293999 -2.1943336678183747 0 0 0
10878 1 16.77802568494489 96.39661414456104 -2.1943336738282975 0 0 0
4653 1 0.9284119909269558 85.19884300558437 1.5381163957447732 0 0 0
10772 1 2.689479947468907 83.9546091088572 2.782266407437285 0 0 0
10778 1 2.689479947476641 83.95460910888845 0.29396640740278446 0 0 0
10779 1 2.6894800357082436 86.44307524588535 0.29396638624554716 0 0 0
10780 1 2.689480035690781 86.44307524599094 2.7822663862958437 0 0 0
10707 1 6.2116160560248606 83.9546094198109 2.7822664078851425 0 0 0
10720 1 6.211616055995389 83.95460941979302 0.29396640781476785 0 0 0
10721 1 6.211616145663778 86.4430754393262 0.29396638724850993 0 0 0
10722 1 4.450548022570051 85.1988431336281 1.5381163981234856 0 0 0
10724 1 6.211616145666818 86.44307543929735 2.782266387364128 0 0 0
10656 1 7.972684223338626 85.19884347983609 1.5381163963991178 0 0 0
10590 1 11.494820641388682 85.19884393759851 1.5381163937434421 0 0 0
10641 1 9.733752382568818 83.95460992773656 2.7822664070470235 0 0 0
10654 1 9.733752382523642 83.95460992771227 0.2939664070010599 0 0 0
10655 1 9.733752440722746 86.4430757787234 0.2939663831319544 0 0 0
10658 1 9.733752440705842 86.44307577873838 2.782266383136576 0 0 0
10524 1 15.016957263145937 85.19884435723152 1.5381163911589792 0 0 0
10575 1 13.255888933520875 83.95461047367212 2.7822664055130373 0 0 0
10588 1 13.255888933556768 83.95461047360611 0.29396640543561114 0 0 0
10589 1 13.255888945061537 86.44307615610694 0.29396637825899885 0 0 0
10592 1 13.255888945062186 86.44307615605929 2.782266378325944 0 0 0
10458 1 18.539094005803587 85.19884460858087 1.538116389556984 0 0 0
10509 1 16.778025652093547 83.95461088270011 2.7822664027376325 0 0 0
10522 1 16.77802565204741 83.95461088261226 0.2939664026769542 0 0 0
10523 1 16.778025613295696 86.44307645122736 0.29396637898971417 0 0 0
10526 1 16.778025613226195 86.44307645122572 2.7822663789591355 0 0 0
4656 1 0.9284120593407188 87.68731105546908 1.5381163744291566 0 0 0
10781 1 2.6894801186784716 88.93153915768808 2.7822663672735994 0 0 0
10790 1 2.6894801186400175 88.93153915766055 0.29396636724722985 0 0 0
4665 1 0.9284121100022712 90.17578367805591 1.5381163572054686 0 0 0
10725 1 6.211616253232086 88.93153926562243 2.782266362202869 0 0 0
10727 1 4.450548121168942 87.68731112020473 1.538116376353242 0 0 0
10744 1 6.211616253119676 88.93153926560775 0.29396636225964984 0 0 0
10746 1 4.450548219083971 90.17578369986178 1.5381163565080191 0 0 0
10661 1 7.97268431883766 87.687311337215 1.5381163719910897 0 0 0
10680 1 7.972684433245993 90.17578382080647 1.5381163523704968 0 0 0
10595 1 11.494820706553877 87.68731163839459 1.5381163670685658 0 0 0
10659 1 9.733752540926801 88.93153947489861 2.782266356745869 0 0 0
10678 1 9.733752540915233 88.93153947482142 0.29396635677871624 0 0 0
10614 1 11.494820799387352 90.17578400653132 1.5381163488432976 0 0 0
10529 1 15.01695727612889 87.68731192760893 1.538116367795493 0 0 0
10593 1 13.255889003836241 88.93153972140503 2.7822663569468005 0 0 0
10612 1 13.25588900386375 88.93153972141462 0.29396635695622975 0 0 0
10548 1 15.016957319530233 90.17578419184919 1.5381163493960337 0 0 0
10463 1 18.539093962297027 87.6873121111738 1.538116371060248 0 0 0
10527 1 16.77802561452926 88.93153992450159 2.7822663611446257 0 0 0
10546 1 16.778025614607 88.9315399244286 0.2939663611628215 0 0 0
10482 1 18.53909394052109 90.17578432350935 1.5381163538145395 0 0 0
4668 1 0.9284121466434263 92.66427737433239 1.5381163373966367 0 0 0
10791 1 2.6894801900885406 91.41999308582389 0.29396634800480453 0 0 0
10792 1 2.689480190118992 91.41999308583965 2.782266347962897 0 0 0
10745 1 6.21161636278928 91.41999313381405 0.2939663470530636 0 0 0
10748 1 6.2116163628266605 91.4199931338145 2.7822663470708098 0 0 0
10751 1 4.450548307071539 92.66427736894443 1.5381163398041708 0 0 0
10685 1 7.9726845447587635 92.6642774245656 1.5381163396181126 0 0 0
10619 1 11.494820900022408 92.66427752392539 1.5381163379270024 0 0 0
10679 1 9.733752651442158 91.41999325033596 0.29396634419809575 0 0 0
10682 1 9.733752651412964 91.4199932503234 2.782266344190109 0 0 0
10553 1 15.016957373336478 92.66427763833984 1.5381163372053013 0 0 0
10613 1 13.255889084066276 91.41999339746849 0.29396634286173134 0 0 0
10616 1 13.25588908403112 91.41999339743394 2.7822663427430236 0 0 0
10487 1 18.539093932396124 92.66427772716246 1.5381163383858103 0 0 0
10547 1 16.778025632303653 91.41999353254049 0.2939663431911768 0 0 0
10550 1 16.778025632326884 91.41999353252244 2.782266343279288 0 0 0
4676 1 0.9284121713331835 95.15286353968818 1.538116326741939 0 0 0
10793 1 2.6894802473085258 93.9084036042354 2.782266333175619 0 0 0
10799 1 2.6894802472655672 93.90840360421501 0.2939663332591414 0 0 0
11032 1 2.6894802911909896 96.39661406647144 0.2939663226538921 0 0 0
11033 1 2.6894802912412974 96.3966140664758 2.7822663226215276 0 0 0
10749 1 6.211616458769218 93.90840361451322 2.7822663353772845 0 0 0
10764 1 6.211616458752395 93.90840361453019 0.29396633539699235 0 0 0
10765 1 4.450548377874133 95.15286351837246 1.5381163282558865 0 0 0
10991 1 6.211616536236947 96.39661405067342 0.29396632479080304 0 0 0
10992 1 6.211616536202545 96.39661405065551 2.78226632480358 0 0 0
10699 1 7.9726846402753555 95.15286353150834 1.5381163304094796 0 0 0
10633 1 11.494820986748275 95.15286357548106 1.5381163310549921 0 0 0
10683 1 9.733752756517175 93.90840366597988 2.7822663350508363 0 0 0
10698 1 9.73375275651385 93.90840366594955 0.29396633515349585 0 0 0
10949 1 9.733752842724446 96.39661406345196 0.29396632760076985 0 0 0
10950 1 9.733752842693777 96.39661406348654 2.7822663276289394 0 0 0
10567 1 15.016957425615152 95.15286363664637 1.5381163302594487 0 0 0
10617 1 13.255889159629755 93.90840374661936 2.7822663323171914 0 0 0
10632 1 13.255889159657086 93.9084037465924 0.2939663322619883 0 0 0
10907 1 13.255889227410528 96.39661409660262 0.2939663295990128 0 0 0
10908 1 13.255889227364996 96.39661409660732 2.7822663296881265 0 0 0
10501 1 18.539093932799013 95.15286369578547 1.538116326650926 0 0 0
10551 1 16.77802566021423 93.90840382937321 2.782266332155501 0 0 0
10566 1 16.77802566023528 93.90840382935605 0.29396633223928914 0 0 0
10865 1 16.77802568501643 96.39661414453948 0.29396632613322365 0 0 0
10866 1 16.778025684975983 96.3966141445288 2.782266326092158 0 0 0
4648 1 0.928411990872945 85.19884300558651 6.51471639577203 0 0 0
4649 1 0.9284119908647392 85.19884300554075 4.026416395807106 0 0 0
10773 1 2.6894799474552067 83.9546091088382 5.270566407433716 0 0 0
10774 1 2.6894800357148614 86.44307524595335 5.270566386273604 0 0 0
10710 1 6.211616056025766 83.95460941981015 5.270566407766778 0 0 0
10711 1 6.21161614565483 86.44307543924386 5.270566387342687 0 0 0
10712 1 4.450548022544908 85.1988431336483 6.514716398072827 0 0 0
10713 1 4.450548022526179 85.19884313363993 4.026416398136189 0 0 0
10646 1 7.972684223269719 85.19884347988904 6.514716396460907 0 0 0
10647 1 7.972684223330555 85.19884347988437 4.026416396432988 0 0 0
10580 1 11.494820641353067 85.19884393750303 6.514716393798518 0 0 0
10581 1 11.494820641385155 85.19884393751758 4.026416393718245 0 0 0
10644 1 9.733752382583429 83.95460992777943 5.270566407017245 0 0 0
10645 1 9.733752440710708 86.44307577879114 5.270566383191189 0 0 0
10514 1 15.01695726315061 85.19884435726937 6.514716391238678 0 0 0
10515 1 15.016957263204532 85.1988443571796 4.026416391146694 0 0 0
10578 1 13.255888933491034 83.95461047361266 5.2705664054594115 0 0 0
10579 1 13.255888944993574 86.4430761560424 5.2705663782459515 0 0 0
10448 1 18.539094005852444 85.19884460857647 6.5147163895056 0 0 0
10449 1 18.539094005783358 85.19884460856368 4.026416389544098 0 0 0
10512 1 16.77802565200091 83.95461088264018 5.270566402751216 0 0 0
10513 1 16.778025613248367 86.44307645129167 5.270566378931949 0 0 0
4650 1 0.9284120593086225 87.68731105534467 6.514716374384072 0 0 0
4655 1 0.9284120593016958 87.68731105539254 4.026416374367964 0 0 0
10782 1 2.689480118738512 88.93153915772328 5.270566367311297 0 0 0
4657 1 0.9284121100104564 90.17578367803517 6.514716357249713 0 0 0
4658 1 0.9284121099832774 90.17578367807226 4.026416357231415 0 0 0
10716 1 4.450548121136497 87.68731112018814 6.51471637633833 0 0 0
10726 1 4.450548121128818 87.68731112013991 4.0264163763680525 0 0 0
10728 1 6.211616253221251 88.93153926556342 5.270566362223985 0 0 0
10730 1 4.4505482191013055 90.17578369986698 6.514716356471933 0 0 0
10731 1 4.450548219049929 90.17578369986646 4.02641635645104 0 0 0
10650 1 7.972684318806495 87.6873113372348 6.514716371993646 0 0 0
10660 1 7.972684318845822 87.6873113371756 4.026416372000935 0 0 0
10664 1 7.9726844332512385 90.17578382072304 6.5147163523583425 0 0 0
10665 1 7.97268443323089 90.17578382070643 4.0264163523725855 0 0 0
10584 1 11.49482070659143 87.68731163830564 6.514716367030251 0 0 0
10594 1 11.494820706538604 87.68731163833183 4.026416367060323 0 0 0
10662 1 9.73375254089305 88.93153947479325 5.270566356779199 0 0 0
10598 1 11.494820799406899 90.17578400650972 6.514716348795995 0 0 0
10599 1 11.494820799432865 90.17578400655162 4.026416348874412 0 0 0
10518 1 15.01695727617058 87.68731192762036 6.514716367703747 0 0 0
10528 1 15.016957276167027 87.68731192758746 4.026416367812212 0 0 0
10596 1 13.255889003832394 88.931539721358 5.270566356973643 0 0 0
10532 1 15.01695731950825 90.17578419185887 6.514716349321651 0 0 0
10533 1 15.016957319502975 90.17578419184493 4.026416349394825 0 0 0
10452 1 18.539093962405207 87.6873121112015 6.5147163710651705 0 0 0
10462 1 18.53909396230513 87.68731211115337 4.026416371043168 0 0 0
10530 1 16.778025614562047 88.9315399244909 5.270566361177447 0 0 0
10466 1 18.539093940538816 90.17578432349057 6.514716353785676 0 0 0
10467 1 18.53909394052352 90.17578432357216 4.026416353815515 0 0 0
4659 1 0.9284121466834472 92.66427737431906 6.514716337347702 0 0 0
4667 1 0.9284121466953309 92.66427737431891 4.0264163373774515 0 0 0
10783 1 2.6894801901243914 91.41999308582523 5.270566347998925 0 0 0
10729 1 6.2116163628162955 91.41999313383367 5.27056634704626 0 0 0
10734 1 4.450548307060264 92.66427736888829 6.514716339750729 0 0 0
10750 1 4.450548307009892 92.66427736891703 4.026416339797682 0 0 0
10668 1 7.972684544726508 92.66427742452572 6.514716339636739 0 0 0
10684 1 7.972684544693999 92.66427742456193 4.026416339600685 0 0 0
10602 1 11.494820900058668 92.66427752390156 6.514716337930998 0 0 0
10618 1 11.49482090005084 92.66427752388657 4.026416337953963 0 0 0
10663 1 9.733752651360623 91.41999325029187 5.270566344241936 0 0 0
10536 1 15.016957373347191 92.66427763844322 6.514716337223395 0 0 0
10552 1 15.016957373414169 92.6642776383384 4.026416337240287 0 0 0
10597 1 13.255889083974521 91.41999339746488 5.270566342859448 0 0 0
10470 1 18.539093932403805 92.6642777271351 6.514716338305627 0 0 0
10486 1 18.539093932424773 92.66427772717039 4.026416338311093 0 0 0
10531 1 16.778025632290657 91.41999353260464 5.270566343237375 0 0 0
4669 1 0.9284121713064034 95.15286353971605 6.514716326763252 0 0 0
4670 1 0.9284121713738122 95.15286353977375 4.026416326778816 0 0 0
10794 1 2.6894802473184383 93.90840360418622 5.270566333263887 0 0 0
11029 1 2.6894802912282185 96.39661406651591 5.27056632264765 0 0 0
10752 1 6.2116164587617675 93.90840361453192 5.270566335485306 0 0 0
10753 1 4.45054837781411 95.15286351833177 6.514716328231595 0 0 0
10754 1 4.4505483778954575 95.15286351834098 4.0264163282752925 0 0 0
10987 1 6.211616536232453 96.39661405065183 5.270566324783676 0 0 0
10687 1 7.972684640205513 95.15286353155831 6.5147163303667535 0 0 0
10688 1 7.9726846402713045 95.15286353158419 4.026416330434393 0 0 0
10621 1 11.494820986790959 95.15286357549752 6.514716331039638 0 0 0
10622 1 11.494820986757324 95.15286357551284 4.026416330995023 0 0 0
10686 1 9.733752756486865 93.90840366593606 5.270566335150006 0 0 0
10945 1 9.733752842736006 96.39661406350616 5.2705663276384564 0 0 0
10555 1 15.016957425625083 95.15286363671242 6.514716330258538 0 0 0
10556 1 15.01695742561443 95.15286363670101 4.026416330316428 0 0 0
10620 1 13.255889159628648 93.90840374659805 5.270566332303941 0 0 0
10903 1 13.255889227414304 96.3966140966217 5.270566329651192 0 0 0
10489 1 18.539093932838572 95.1528636957961 6.514716326606191 0 0 0
10490 1 18.53909393278534 95.15286369581368 4.026416326638896 0 0 0
10554 1 16.778025660159106 93.90840382939453 5.2705663322152905 0 0 0
10861 1 16.77802568494133 96.39661414454928 5.270566326138678 0 0 0
4987 1 0.928412189861663 97.64189498356738 -5.9267836793603275 0 0 0
4989 1 0.9284122066323457 100.13214108715773 -5.926783684053822 0 0 0
11031 1 2.689480328317186 98.88366403348746 -7.170933681936991 0 0 1
11047 1 2.6894803282408946 98.88366403351729 -4.682633681951267 0 0 0
10989 1 6.211616597446607 98.88366400464992 -7.170933680387677 0 0 1
11017 1 4.450548435792596 97.6418949519706 -5.926783678800224 0 0 0
11018 1 6.211616597503673 98.88366400469853 -4.682633680316535 0 0 0
11021 1 4.450548479861009 100.1321410534752 -5.926783683104041 0 0 0
10975 1 7.9726847154047125 97.64189493917243 -5.926783677809776 0 0 0
10979 1 7.972684771748407 100.13214102471036 -5.926783681849708 0 0 0
10933 1 11.494821058846771 97.64189494863662 -5.926783675569786 0 0 0
10937 1 11.49482111092405 100.13214100944984 -5.926783680620114 0 0 0
10947 1 9.733752908166444 98.88366398974406 -7.170933679041374 0 0 1
10976 1 9.733752908131665 98.88366398972866 -4.68263367899653 0 0 0
10891 1 15.016957469420984 97.64189497485255 -5.9267836756241605 0 0 0
10895 1 15.016957501754876 100.13214101597178 -5.926783681052094 0 0 0
10905 1 13.25588928070668 98.88366399516163 -7.1709336781449124 0 0 1
10934 1 13.255889280668315 98.88366399511888 -4.682633678111028 0 0 0
10849 1 18.539093934670277 97.64189501189905 -5.926783678877687 0 0 0
10853 1 18.539093934067015 100.13214103746772 -5.9267836823212345 0 0 0
10863 1 16.77802570582535 98.88366401784673 -7.170933680351004 0 0 1
10892 1 16.778025705810503 98.8836640178031 -4.682633680338049 0 0 0
4992 1 0.9284122249626073 102.62518842496303 -5.926783683581612 0 0 0
11037 1 2.689480357309011 101.36562141562356 -7.170933684071516 0 0 1
11038 1 2.6894803812267982 103.84911924444651 -7.170933685891561 0 0 1
11048 1 2.689480357388819 101.36562141561578 -4.682633684053287 0 0 0
11052 1 2.689480381250274 103.84911924438411 -4.682633685934827 0 0 0
11000 1 6.211616641822194 101.36562138063528 -7.170933683966651 0 0 1
11001 1 6.211616674190165 103.84911920545858 -7.170933686347013 0 0 1
11019 1 6.211616641818892 101.36562138063287 -4.682633683992368 0 0 0
11027 1 4.450548513101891 102.62518839170346 -5.926783684794436 0 0 0
11028 1 6.21161667414741 103.84911920544066 -4.682633686387298 0 0 0
10985 1 7.97268481255888 102.62518835436647 -5.926783685431709 0 0 0
10943 1 11.494821144261355 102.62518832622767 -5.926783685288822 0 0 0
10958 1 9.73375295681163 101.3656213493408 -7.170933683479691 0 0 1
10959 1 9.733752985859288 103.84911915993506 -7.170933686455264 0 0 1
10977 1 9.733752956789251 101.36562134938993 -4.682633683532457 0 0 0
10986 1 9.733752985781774 103.8491191599623 -4.682633686435789 0 0 0
10901 1 15.016957518570518 102.62518831786113 -5.926783684537529 0 0 0
10916 1 13.255889315523671 101.36562133437312 -7.170933684041805 0 0 1
10917 1 13.255889332219144 103.84911912760374 -7.170933685936675 0 0 1
10935 1 13.25588931550003 101.36562133432639 -4.68263368403281 0 0 0
10944 1 13.255889332206054 103.8491191276179 -4.682633686064538 0 0 0
10859 1 18.539093927113115 102.62518833198239 -5.926783684295413 0 0 0
10874 1 16.778025718117995 101.36562133972522 -7.17093368270698 0 0 1
10875 1 16.77802571582423 103.84911911693203 -7.170933683805509 0 0 1
10893 1 16.77802571813425 101.36562133970934 -4.68263368277555 0 0 0
10902 1 16.778025715878233 103.84911911695228 -4.682633683858958 0 0 0
4981 1 0.9284121899098501 97.64189498359032 -0.9501836793927078 0 0 0
4982 1 0.9284121898569513 97.6418949836587 -3.4384836794856386 0 0 0
4984 1 0.9284122067114462 100.13214108720254 -0.9501836840788177 0 0 0
4988 1 0.9284122066644741 100.13214108709846 -3.4384836840122697 0 0 0
11041 1 2.6894803282940236 98.88366403354372 -2.194333681989118 0 0 0
11005 1 6.211616597468516 98.88366400469197 -2.194333680399847 0 0 0
11006 1 4.4505484357813545 97.64189495194137 -0.9501836788051756 0 0 0
11007 1 4.450548435737256 97.64189495198087 -3.438483678754257 0 0 0
11011 1 4.450548479862097 100.13214105343107 -0.9501836830742282 0 0 0
11020 1 4.450548479818804 100.1321410534434 -3.438483683086124 0 0 0
10964 1 7.972684715300853 97.64189493916464 -0.9501836778256105 0 0 0
10965 1 7.972684715274568 97.64189493914864 -3.4384836777591836 0 0 0
10969 1 7.972684771738131 100.13214102466192 -0.9501836818459558 0 0 0
10978 1 7.972684771735332 100.13214102469709 -3.43848368184501 0 0 0
10922 1 11.494821058852269 97.64189494863251 -0.9501836755991516 0 0 0
10923 1 11.494821058913764 97.64189494867225 -3.438483675524578 0 0 0
10927 1 11.494821110929644 100.13214100946402 -0.9501836806143937 0 0 0
10936 1 11.49482111093648 100.13214100946641 -3.438483680631131 0 0 0
10963 1 9.733752908222511 98.88366398976129 -2.1943336790229164 0 0 0
10880 1 15.016957469454876 97.64189497480777 -0.9501836757070353 0 0 0
10881 1 15.016957469486755 97.64189497485536 -3.4384836756525483 0 0 0
10885 1 15.01695750181265 100.13214101588798 -0.950183681043497 0 0 0
10894 1 15.016957501765775 100.13214101588332 -3.438483681042418 0 0 0
10921 1 13.255889280701725 98.88366399505695 -2.1943336781105343 0 0 0
10838 1 18.539093934661715 97.64189501190958 -0.9501836788870749 0 0 0
10839 1 18.539093934651415 97.6418950118986 -3.43848367885312 0 0 0
10843 1 18.539093933976424 100.13214103745705 -0.9501836822545519 0 0 0
10852 1 18.539093933991975 100.13214103742067 -3.438483682281778 0 0 0
10879 1 16.77802570579743 98.8836640178341 -2.1943336803123463 0 0 0
4990 1 0.9284122249757979 102.62518842494977 -0.9501836834473936 0 0 0
4991 1 0.9284122249272806 102.62518842497425 -3.4384836834938515 0 0 0
11049 1 2.689480357331122 101.36562141562146 -2.1943336839793806 0 0 0
11050 1 2.6894803812242536 103.84911924439662 -2.194333685870169 0 0 0
11022 1 6.2116166418409975 101.36562138066384 -2.194333683948249 0 0 0
11023 1 6.211616674133161 103.8491192054743 -2.1943336863064613 0 0 0
11024 1 4.45054851315503 102.6251883917428 -0.9501836847887892 0 0 0
11025 1 4.450548513106178 102.62518839173721 -3.438483684732707 0 0 0
10982 1 7.972684812584129 102.62518835447567 -0.9501836854119173 0 0 0
10983 1 7.972684812562327 102.62518835438965 -3.4384836854510628 0 0 0
10940 1 11.494821144261735 102.62518832628155 -0.9501836852379681 0 0 0
10941 1 11.494821144232034 102.62518832623074 -3.4384836853226903 0 0 0
10980 1 9.73375295680807 101.36562134942382 -2.1943336834625584 0 0 0
10981 1 9.733752985781488 103.84911915993912 -2.1943336864665883 0 0 0
10898 1 15.016957518571086 102.62518831781301 -0.950183684529427 0 0 0
10899 1 15.016957518490317 102.62518831785286 -3.4384836845022586 0 0 0
10938 1 13.25588931548842 101.36562133437016 -2.1943336840074013 0 0 0
10939 1 13.255889332201846 103.84911912764922 -2.1943336860116966 0 0 0
10856 1 18.539093927125908 102.62518833197727 -0.9501836843615461 0 0 0
10857 1 18.539093927115328 102.62518833197507 -3.438483684319504 0 0 0
10896 1 16.778025718124486 101.3656213397123 -2.1943336827030047 0 0 0
10897 1 16.778025715887445 103.84911911695932 -2.194333683819947 0 0 0
4977 1 0.9284121898537877 97.64189498359097 1.5381163206023667 0 0 0
4983 1 0.928412206652633 100.1321410871295 1.5381163159502842 0 0 0
11034 1 2.689480328247759 98.8836640335072 2.782266317994101 0 0 0
11042 1 2.689480328322519 98.88366403348991 0.29396631806482804 0 0 0
10993 1 6.2116165975008295 98.88366400466792 2.782266319651869 0 0 0
10995 1 4.450548435783731 97.64189495200674 1.5381163211986413 0 0 0
11008 1 6.211616597441029 98.88366400466539 0.29396631966633935 0 0 0
11010 1 4.450548479879927 100.13214105346644 1.5381163168967569 0 0 0
10953 1 7.972684715382919 97.64189493918667 1.538116322179184 0 0 0
10968 1 7.972684771758147 100.13214102469313 1.5381163181603044 0 0 0
10911 1 11.494821058864533 97.64189494863065 1.5381163243846434 0 0 0
10926 1 11.494821110917519 100.13214100944103 1.5381163193690977 0 0 0
10951 1 9.733752908152775 98.88366398971245 2.7822663209851166 0 0 0
10966 1 9.733752908166467 98.8836639897434 0.29396632098003356 0 0 0
10869 1 15.016957469395928 97.64189497488316 1.5381163243928457 0 0 0
10884 1 15.016957501757497 100.13214101594758 1.538116318959071 0 0 0
10909 1 13.255889280655374 98.88366399513262 2.782266321861389 0 0 0
10924 1 13.2558892807009 98.88366399516036 0.2939663218669156 0 0 0
10827 1 18.539093934664997 97.6418950119149 1.5381163211099371 0 0 0
10842 1 18.539093934082224 100.13214103744481 1.538116317710544 0 0 0
10867 1 16.77802570580532 98.88366401780814 2.782266319643995 0 0 0
10882 1 16.778025705834118 98.88366401785382 0.2939663196794404 0 0 0
4986 1 0.9284122249666154 102.62518842497 1.5381163164103988 0 0 0
11043 1 2.689480357317389 101.36562141562915 0.2939663159422543 0 0 0
11044 1 2.6894803573909054 101.36562141561599 2.782266315993036 0 0 0
11045 1 2.689480381250564 103.84911924442082 2.782266314091171 0 0 0
11051 1 2.6894803812041883 103.84911924442468 0.2939663140934895 0 0 0
11009 1 6.211616641826961 101.36562138063182 0.2939663160607012 0 0 0
11012 1 6.2116166418301 101.36562138061616 2.782266316074477 0 0 0
11013 1 6.211616674151418 103.84911920545694 2.782266313632067 0 0 0
11015 1 4.450548513113824 102.62518839170812 1.5381163152445851 0 0 0
11026 1 6.211616674188576 103.849119205427 0.293966313638961 0 0 0
10973 1 7.972684812543238 102.62518835438414 1.5381163146002572 0 0 0
10931 1 11.494821144275507 102.6251883262332 1.5381163147540968 0 0 0
10967 1 9.733752956802393 101.36562134935393 0.29396631652083416 0 0 0
10970 1 9.733752956769463 101.3656213493744 2.782266316515626 0 0 0
10971 1 9.733752985785179 103.84911915996288 2.7822663136148997 0 0 0
10984 1 9.733752985851977 103.84911915991212 0.2939663135602287 0 0 0
10889 1 15.01695751854641 102.62518831785991 1.538116315466743 0 0 0
10925 1 13.255889315533269 101.36562133435493 0.29396631599544465 0 0 0
10928 1 13.255889315517598 101.36562133432243 2.78226631598822 0 0 0
10929 1 13.255889332223907 103.8491191276277 2.7822663139680643 0 0 0
10942 1 13.255889332215762 103.84911912759844 0.2939663140497974 0 0 0
10847 1 18.53909392710439 102.62518833199452 1.5381163156877165 0 0 0
10883 1 16.778025718109507 101.36562133973901 0.2939663173100797 0 0 0
10886 1 16.778025718128944 101.3656213397337 2.782266317237868 0 0 0
10887 1 16.77802571588124 103.84911911695976 2.782266316155879 0 0 0
10900 1 16.778025715819286 103.84911911693004 0.2939663161843597 0 0 0
4975 1 0.9284121898941003 97.64189498363093 6.51471632062024 0 0 0
4976 1 0.9284121898471354 97.64189498361245 4.026416320515366 0 0 0
4978 1 0.9284122066924572 100.13214108714602 6.51471631593046 0 0 0
4979 1 0.9284122066857394 100.13214108709333 4.026416315986507 0 0 0
11035 1 2.689480328281191 98.88366403353794 5.270566318060075 0 0 0
10990 1 4.450548435789208 97.64189495198673 6.514716321226096 0 0 0
10994 1 4.450548435721125 97.64189495197131 4.026416321235933 0 0 0
10996 1 6.211616597489087 98.88366400466495 5.2705663196085215 0 0 0
10998 1 4.450548479875321 100.13214105339006 6.514716316908424 0 0 0
10999 1 4.450548479808776 100.13214105345433 4.026416316927197 0 0 0
10948 1 7.972684715312438 97.64189493917647 6.514716322182779 0 0 0
10952 1 7.972684715309822 97.64189493911802 4.026416322235668 0 0 0
10956 1 7.972684771730345 100.13214102462678 6.514716318172957 0 0 0
10957 1 7.97268477174416 100.13214102469664 4.0264163181607975 0 0 0
10906 1 11.494821058878834 97.64189494865192 6.51471632444408 0 0 0
10910 1 11.494821058902685 97.64189494864587 4.026416324461943 0 0 0
10914 1 11.494821110934232 100.1321410094383 6.514716319360274 0 0 0
10915 1 11.494821110931637 100.13214100946979 4.026416319372172 0 0 0
10954 1 9.733752908242218 98.88366398975718 5.270566320985501 0 0 0
10864 1 15.016957469428403 97.64189497480305 6.514716324288883 0 0 0
10868 1 15.016957469467302 97.64189497482835 4.0264163243391105 0 0 0
10872 1 15.016957501788937 100.13214101587079 6.514716318971001 0 0 0
10873 1 15.016957501788434 100.1321410158976 4.026416318947884 0 0 0
10912 1 13.255889280685254 98.88366399507704 5.270566321885914 0 0 0
10822 1 18.539093934658958 97.64189501194069 6.514716321111557 0 0 0
10826 1 18.53909393464175 97.64189501186563 4.026416321144372 0 0 0
10830 1 18.539093933986234 100.13214103744625 6.514716317702237 0 0 0
10831 1 18.53909393398361 100.13214103743942 4.026416317711608 0 0 0
10870 1 16.778025705790583 98.88366401783986 5.270566319690954 0 0 0
4980 1 0.9284122249919399 102.62518842496087 6.514716316539822 0 0 0
4985 1 0.9284122249297078 102.62518842498328 4.0264163165200575 0 0 0
11036 1 2.6894803573107753 101.36562141562221 5.270566316006386 0 0 0
11046 1 2.6894803812529613 103.84911924443948 5.270566314133235 0 0 0
10997 1 6.2116166418467325 101.36562138066067 5.270566316021419 0 0 0
11002 1 4.45054851317361 102.62518839173688 6.514716315195694 0 0 0
11014 1 4.450548513101229 102.62518839172873 4.026416315292185 0 0 0
11016 1 6.211616674147597 103.84911920551356 5.2705663136827186 0 0 0
10960 1 7.97268481258851 102.62518835445717 6.514716314565037 0 0 0
10972 1 7.972684812550539 102.62518835439873 4.026416314573348 0 0 0
10918 1 11.494821144270702 102.62518832627437 6.514716314732457 0 0 0
10930 1 11.494821144248796 102.62518832620232 4.026416314689357 0 0 0
10955 1 9.733752956806942 101.36562134940674 5.270566316506682 0 0 0
10974 1 9.733752985795974 103.84911915995124 5.270566313508186 0 0 0
10876 1 15.016957518573705 102.62518831781807 6.514716315482282 0 0 0
10888 1 15.016957518509779 102.6251883178744 4.026416315516552 0 0 0
10913 1 13.255889315500546 101.36562133437701 5.270566315965742 0 0 0
10932 1 13.255889332214062 103.84911912766842 5.270566313982657 0 0 0
10834 1 18.539093927127304 102.62518833199752 6.514716315671721 0 0 0
10846 1 18.53909392712274 102.62518833199343 4.026416315678051 0 0 0
10871 1 16.77802571812528 101.36562133973136 5.270566317274698 0 0 0
10890 1 16.778025715877774 103.84911911696199 5.270566316154928 0 0 0

Velocities

174 0 0 0
176 0 0 0
177 0 0 0
123 0 0 0
124 0 0 0
125 0 0 0
129 0 0 0
139 0 0 0
175 0 0 0
69 0 0 0
83 0 0 0
140 0 0 0
33 0 0 0
34 0 0 0
84 0 0 0
85 0 0 0
86 0 0 0
87 0 0 0
32 0 0 0
38 0 0 0
46 0 0 0
7 0 0 0
10 0 0 0
11 0 0 0
12 0 0 0
47 0 0 0
5390 0 0 0
181 0 0 0
187 0 0 0
200 0 0 0
204 0 0 0
188 0 0 0
189 0 0 0
190 0 0 0
191 0 0 0
141 0 0 0
142 0 0 0
143 0 0 0
147 0 0 0
149 0 0 0
91 0 0 0
97 0 0 0
100 0 0 0
101 0 0 0
150 0 0 0
49 0 0 0
50 0 0 0
98 0 0 0
99 0 0 0
48 0 0 0
53 0 0 0
54 0 0 0
5412 0 0 0
160 0 0 0
161 0 0 0
164 0 0 0
109 0 0 0
111 0 0 0
126 0 0 0
128 0 0 0
162 0 0 0
178 0 0 0
68 0 0 0
127 0 0 0
130 0 0 0
21 0 0 0
67 0 0 0
70 0 0 0
71 0 0 0
73 0 0 0
88 0 0 0
19 0 0 0
35 0 0 0
37 0 0 0
6 0 0 0
9 0 0 0
36 0 0 0
39 0 0 0
5378 0 0 0
5379 0 0 0
180 0 0 0
196 0 0 0
201 0 0 0
202 0 0 0
203 0 0 0
179 0 0 0
182 0 0 0
183 0 0 0
185 0 0 0
192 0 0 0
131 0 0 0
133 0 0 0
144 0 0 0
146 0 0 0
90 0 0 0
95 0 0 0
145 0 0 0
148 0 0 0
42 0 0 0
89 0 0 0
92 0 0 0
93 0 0 0
102 0 0 0
40 0 0 0
51 0 0 0
52 0 0 0
5410 0 0 0
5411 0 0 0
152 0 0 0
156 0 0 0
163 0 0 0
105 0 0 0
110 0 0 0
112 0 0 0
114 0 0 0
115 0 0 0
165 0 0 0
58 0 0 0
59 0 0 0
113 0 0 0
15 0 0 0
20 0 0 0
57 0 0 0
63 0 0 0
72 0 0 0
74 0 0 0
22 0 0 0
24 0 0 0
25 0 0 0
2 0 0 0
3 0 0 0
5 0 0 0
8 0 0 0
23 0 0 0
5372 0 0 0
167 0 0 0
168 0 0 0
197 0 0 0
198 0 0 0
166 0 0 0
172 0 0 0
184 0 0 0
186 0 0 0
119 0 0 0
132 0 0 0
134 0 0 0
136 0 0 0
137 0 0 0
76 0 0 0
77 0 0 0
81 0 0 0
94 0 0 0
135 0 0 0
29 0 0 0
41 0 0 0
75 0 0 0
96 0 0 0
43 0 0 0
44 0 0 0
45 0 0 0
5408 0 0 0
151 0 0 0
153 0 0 0
155 0 0 0
103 0 0 0
104 0 0 0
106 0 0 0
108 0 0 0
154 0 0 0
157 0 0 0
56 0 0 0
107 0 0 0
116 0 0 0
14 0 0 0
55 0 0 0
60 0 0 0
61 0 0 0
62 0 0 0
64 0 0 0
13 0 0 0
16 0 0 0
18 0 0 0
1 0 0 0
4 0 0 0
17 0 0 0
26 0 0 0
5371 0 0 0
5373 0 0 0
159 0 0 0
193 0 0 0
194 0 0 0
195 0 0 0
199 0 0 0
158 0 0 0
169 0 0 0
170 0 0 0
171 0 0 0
173 0 0 0
117 0 0 0
118 0 0 0
120 0 0 0
122 0 0 0
66 0 0 0
80 0 0 0
121 0 0 0
138 0 0 0
28 0 0 0
65 0 0 0
78 0 0 0
79 0 0 0
82 0 0 0
27 0 0 0
30 0 0 0
31 0 0 0
5407 0 0 0
5409 0 0 0
424 0 0 0
425 0 0 0
429 0 0 0
445 0 0 0
500 0 0 0
333 0 0 0
349 0 0 0
423 0 0 0
446 0 0 0
350 0 0 0
351 0 0 0
352 0 0 0
353 0 0 0
267 0 0 0
268 0 0 0
269 0 0 0
273 0 0 0
288 0 0 0
224 0 0 0
234 0 0 0
237 0 0 0
238 0 0 0
289 0 0 0
209 0 0 0
210 0 0 0
235 0 0 0
236 0 0 0
518 0 0 0
447 0 0 0
448 0 0 0
449 0 0 0
357 0 0 0
373 0 0 0
291 0 0 0
292 0 0 0
374 0 0 0
290 0 0 0
241 0 0 0
244 0 0 0
5764 0 0 0
520 0 0 0
521 0 0 0
525 0 0 0
535 0 0 0
558 0 0 0
453 0 0 0
467 0 0 0
519 0 0 0
536 0 0 0
468 0 0 0
469 0 0 0
470 0 0 0
471 0 0 0
375 0 0 0
376 0 0 0
377 0 0 0
381 0 0 0
391 0 0 0
296 0 0 0
306 0 0 0
309 0 0 0
310 0 0 0
392 0 0 0
245 0 0 0
246 0 0 0
307 0 0 0
308 0 0 0
566 0 0 0
568 0 0 0
569 0 0 0
537 0 0 0
538 0 0 0
539 0 0 0
543 0 0 0
545 0 0 0
567 0 0 0
475 0 0 0
481 0 0 0
546 0 0 0
394 0 0 0
395 0 0 0
482 0 0 0
483 0 0 0
484 0 0 0
485 0 0 0
393 0 0 0
399 0 0 0
401 0 0 0
313 0 0 0
316 0 0 0
317 0 0 0
318 0 0 0
402 0 0 0
5800 0 0 0
411 0 0 0
428 0 0 0
490 0 0 0
501 0 0 0
332 0 0 0
409 0 0 0
426 0 0 0
427 0 0 0
430 0 0 0
331 0 0 0
334 0 0 0
335 0 0 0
337 0 0 0
354 0 0 0
253 0 0 0
255 0 0 0
270 0 0 0
272 0 0 0
223 0 0 0
228 0 0 0
271 0 0 0
274 0 0 0
208 0 0 0
222 0 0 0
225 0 0 0
226 0 0 0
239 0 0 0
502 0 0 0
503 0 0 0
431 0 0 0
433 0 0 0
450 0 0 0
356 0 0 0
277 0 0 0
355 0 0 0
358 0 0 0
275 0 0 0
293 0 0 0
240 0 0 0
5750 0 0 0
5751 0 0 0
506 0 0 0
524 0 0 0
550 0 0 0
559 0 0 0
452 0 0 0
504 0 0 0
522 0 0 0
523 0 0 0
526 0 0 0
451 0 0 0
454 0 0 0
455 0 0 0
457 0 0 0
472 0 0 0
359 0 0 0
361 0 0 0
378 0 0 0
380 0 0 0
295 0 0 0
300 0 0 0
379 0 0 0
382 0 0 0
243 0 0 0
294 0 0 0
297 0 0 0
298 0 0 0
311 0 0 0
560 0 0 0
561 0 0 0
564 0 0 0
527 0 0 0
529 0 0 0
540 0 0 0
542 0 0 0
562 0 0 0
570 0 0 0
474 0 0 0
541 0 0 0
544 0 0 0
385 0 0 0
473 0 0 0
476 0 0 0
477 0 0 0
479 0 0 0
486 0 0 0
383 0 0 0
396 0 0 0
398 0 0 0
312 0 0 0
315 0 0 0
397 0 0 0
400 0 0 0
5796 0 0 0
5797 0 0 0
405 0 0 0
410 0 0 0
414 0 0 0
415 0 0 0
491 0 0 0
322 0 0 0
323 0 0 0
412 0 0 0
413 0 0 0
321 0 0 0
327 0 0 0
336 0 0 0
338 0 0 0
249 0 0 0
254 0 0 0
256 0 0 0
258 0 0 0
259 0 0 0
214 0 0 0
215 0 0 0
219 0 0 0
227 0 0 0
257 0 0 0
206 0 0 0
207 0 0 0
213 0 0 0
229 0 0 0
492 0 0 0
419 0 0 0
432 0 0 0
434 0 0 0
340 0 0 0
341 0 0 0
263 0 0 0
276 0 0 0
339 0 0 0
278 0 0 0
230 0 0 0
231 0 0 0
5744 0 0 0
496 0 0 0
505 0 0 0
509 0 0 0
510 0 0 0
551 0 0 0
436 0 0 0
437 0 0 0
507 0 0 0
508 0 0 0
435 0 0 0
441 0 0 0
456 0 0 0
458 0 0 0
345 0 0 0
360 0 0 0
362 0 0 0
364 0 0 0
365 0 0 0
280 0 0 0
281 0 0 0
285 0 0 0
299 0 0 0
363 0 0 0
233 0 0 0
242 0 0 0
279 0 0 0
301 0 0 0
552 0 0 0
556 0 0 0
563 0 0 0
514 0 0 0
528 0 0 0
530 0 0 0
532 0 0 0
533 0 0 0
565 0 0 0
460 0 0 0
461 0 0 0
531 0 0 0
369 0 0 0
384 0 0 0
459 0 0 0
465 0 0 0
478 0 0 0
480 0 0 0
386 0 0 0
388 0 0 0
389 0 0 0
302 0 0 0
303 0 0 0
305 0 0 0
314 0 0 0
387 0 0 0
5792 0 0 0
404 0 0 0
408 0 0 0
487 0 0 0
488 0 0 0
320 0 0 0
403 0 0 0
406 0 0 0
407 0 0 0
416 0 0 0
319 0 0 0
324 0 0 0
325 0 0 0
326 0 0 0
328 0 0 0
247 0 0 0
248 0 0 0
250 0 0 0
252 0 0 0
212 0 0 0
218 0 0 0
251 0 0 0
260 0 0 0
205 0 0 0
211 0 0 0
216 0 0 0
217 0 0 0
220 0 0 0
489 0 0 0
493 0 0 0
417 0 0 0
418 0 0 0
420 0 0 0
330 0 0 0
262 0 0 0
329 0 0 0
342 0 0 0
261 0 0 0
264 0 0 0
221 0 0 0
5743 0 0 0
5745 0 0 0
495 0 0 0
499 0 0 0
547 0 0 0
548 0 0 0
422 0 0 0
494 0 0 0
497 0 0 0
498 0 0 0
511 0 0 0
421 0 0 0
438 0 0 0
439 0 0 0
440 0 0 0
442 0 0 0
343 0 0 0
344 0 0 0
346 0 0 0
348 0 0 0
266 0 0 0
284 0 0 0
347 0 0 0
366 0 0 0
232 0 0 0
265 0 0 0
282 0 0 0
283 0 0 0
286 0 0 0
549 0 0 0
553 0 0 0
555 0 0 0
512 0 0 0
513 0 0 0
515 0 0 0
517 0 0 0
554 0 0 0
557 0 0 0
444 0 0 0
516 0 0 0
534 0 0 0
368 0 0 0
443 0 0 0
462 0 0 0
463 0 0 0
464 0 0 0
466 0 0 0
367 0 0 0
370 0 0 0
372 0 0 0
287 0 0 0
304 0 0 0
371 0 0 0
390 0 0 0
5791 0 0 0
5793 0 0 0
753 0 0 0
769 0 0 0
836 0 0 0
770 0 0 0
675 0 0 0
676 0 0 0
677 0 0 0
609 0 0 0
624 0 0 0
585 0 0 0
586 0 0 0
625 0 0 0
584 0 0 0
854 0 0 0
856 0 0 0
857 0 0 0
771 0 0 0
772 0 0 0
773 0 0 0
777 0 0 0
793 0 0 0
855 0 0 0
681 0 0 0
697 0 0 0
794 0 0 0
627 0 0 0
628 0 0 0
698 0 0 0
699 0 0 0
700 0 0 0
701 0 0 0
626 0 0 0
632 0 0 0
642 0 0 0
589 0 0 0
592 0 0 0
593 0 0 0
594 0 0 0
643 0 0 0
6130 0 0 0
861 0 0 0
875 0 0 0
908 0 0 0
920 0 0 0
876 0 0 0
877 0 0 0
878 0 0 0
879 0 0 0
795 0 0 0
796 0 0 0
797 0 0 0
801 0 0 0
811 0 0 0
705 0 0 0
719 0 0 0
722 0 0 0
723 0 0 0
812 0 0 0
645 0 0 0
646 0 0 0
720 0 0 0
721 0 0 0
644 0 0 0
649 0 0 0
652 0 0 0
6184 0 0 0
922 0 0 0
923 0 0 0
883 0 0 0
889 0 0 0
921 0 0 0
890 0 0 0
813 0 0 0
814 0 0 0
815 0 0 0
727 0 0 0
733 0 0 0
653 0 0 0
654 0 0 0
734 0 0 0
752 0 0 0
826 0 0 0
837 0 0 0
751 0 0 0
754 0 0 0
661 0 0 0
663 0 0 0
678 0 0 0
608 0 0 0
578 0 0 0
607 0 0 0
610 0 0 0
576 0 0 0
587 0 0 0
838 0 0 0
839 0 0 0
842 0 0 0
755 0 0 0
757 0 0 0
774 0 0 0
776 0 0 0
840 0 0 0
858 0 0 0
680 0 0 0
775 0 0 0
778 0 0 0
613 0 0 0
679 0 0 0
682 0 0 0
683 0 0 0
685 0 0 0
702 0 0 0
611 0 0 0
629 0 0 0
631 0 0 0
588 0 0 0
591 0 0 0
630 0 0 0
633 0 0 0
6116 0 0 0
6117 0 0 0
860 0 0 0
898 0 0 0
909 0 0 0
910 0 0 0
911 0 0 0
859 0 0 0
862 0 0 0
863 0 0 0
865 0 0 0
880 0 0 0
779 0 0 0
781 0 0 0
798 0 0 0
800 0 0 0
704 0 0 0
709 0 0 0
799 0 0 0
802 0 0 0
636 0 0 0
703 0 0 0
706 0 0 0
707 0 0 0
724 0 0 0
634 0 0 0
647 0 0 0
648 0 0 0
6176 0 0 0
6177 0 0 0
914 0 0 0
882 0 0 0
912 0 0 0
924 0 0 0
881 0 0 0
884 0 0 0
803 0 0 0
805 0 0 0
816 0 0 0
726 0 0 0
651 0 0 0
725 0 0 0
728 0 0 0
742 0 0 0
743 0 0 0
827 0 0 0
741 0 0 0
657 0 0 0
662 0 0 0
664 0 0 0
598 0 0 0
599 0 0 0
573 0 0 0
577 0 0 0
597 0 0 0
579 0 0 0
828 0 0 0
832 0 0 0
841 0 0 0
747 0 0 0
756 0 0 0
758 0 0 0
760 0 0 0
761 0 0 0
843 0 0 0
666 0 0 0
667 0 0 0
759 0 0 0
603 0 0 0
612 0 0 0
665 0 0 0
671 0 0 0
684 0 0 0
686 0 0 0
614 0 0 0
616 0 0 0
617 0 0 0
580 0 0 0
581 0 0 0
583 0 0 0
590 0 0 0
615 0 0 0
6110 0 0 0
845 0 0 0
846 0 0 0
899 0 0 0
900 0 0 0
844 0 0 0
850 0 0 0
864 0 0 0
866 0 0 0
765 0 0 0
780 0 0 0
782 0 0 0
784 0 0 0
785 0 0 0
688 0 0 0
689 0 0 0
693 0 0 0
708 0 0 0
783 0 0 0
621 0 0 0
635 0 0 0
687 0 0 0
710 0 0 0
637 0 0 0
638 0 0 0
639 0 0 0
6170 0 0 0
904 0 0 0
913 0 0 0
868 0 0 0
869 0 0 0
915 0 0 0
867 0 0 0
789 0 0 0
804 0 0 0
806 0 0 0
712 0 0 0
713 0 0 0
641 0 0 0
650 0 0 0
711 0 0 0
740 0 0 0
823 0 0 0
824 0 0 0
739 0 0 0
744 0 0 0
655 0 0 0
656 0 0 0
658 0 0 0
596 0 0 0
572 0 0 0
595 0 0 0
600 0 0 0
571 0 0 0
574 0 0 0
825 0 0 0
829 0 0 0
831 0 0 0
745 0 0 0
746 0 0 0
748 0 0 0
750 0 0 0
830 0 0 0
833 0 0 0
660 0 0 0
749 0 0 0
762 0 0 0
602 0 0 0
659 0 0 0
668 0 0 0
669 0 0 0
670 0 0 0
672 0 0 0
601 0 0 0
604 0 0 0
606 0 0 0
575 0 0 0
582 0 0 0
605 0 0 0
618 0 0 0
6109 0 0 0
6111 0 0 0
835 0 0 0
895 0 0 0
896 0 0 0
897 0 0 0
901 0 0 0
834 0 0 0
847 0 0 0
848 0 0 0
849 0 0 0
851 0 0 0
763 0 0 0
764 0 0 0
766 0 0 0
768 0 0 0
674 0 0 0
692 0 0 0
767 0 0 0
786 0 0 0
620 0 0 0
673 0 0 0
690 0 0 0
691 0 0 0
694 0 0 0
619 0 0 0
622 0 0 0
623 0 0 0
6169 0 0 0
6171 0 0 0
903 0 0 0
853 0 0 0
902 0 0 0
905 0 0 0
852 0 0 0
870 0 0 0
787 0 0 0
788 0 0 0
790 0 0 0
696 0 0 0
640 0 0 0
695 0 0 0
714 0 0 0
927 0 0 0
929 0 0 0
935 0 0 0
1191 0 0 0
930 0 0 0
1102 0 0 0
1103 0 0 0
1104 0 0 0
891 0 0 0
892 0 0 0
893 0 0 0
1015 0 0 0
1031 0 0 0
819 0 0 0
821 0 0 0
973 0 0 0
974 0 0 0
1032 0 0 0
736 0 0 0
737 0 0 0
822 0 0 0
972 0 0 0
735 0 0 0
946 0 0 0
949 0 0 0
950 0 0 0
1193 0 0 0
1194 0 0 0
1198 0 0 0
1214 0 0 0
1257 0 0 0
1108 0 0 0
1124 0 0 0
1192 0 0 0
1215 0 0 0
1125 0 0 0
1126 0 0 0
1127 0 0 0
1128 0 0 0
1033 0 0 0
1034 0 0 0
1035 0 0 0
1039 0 0 0
1055 0 0 0
978 0 0 0
988 0 0 0
991 0 0 0
992 0 0 0
1056 0 0 0
951 0 0 0
952 0 0 0
989 0 0 0
990 0 0 0
1273 0 0 0
1275 0 0 0
1276 0 0 0
1216 0 0 0
1217 0 0 0
1218 0 0 0
1222 0 0 0
1232 0 0 0
1274 0 0 0
1132 0 0 0
1146 0 0 0
1233 0 0 0
1058 0 0 0
1059 0 0 0
1147 0 0 0
1148 0 0 0
1149 0 0 0
1150 0 0 0
1057 0 0 0
1063 0 0 0
1072 0 0 0
995 0 0 0
998 0 0 0
999 0 0 0
1000 0 0 0
1073 0 0 0
6562 0 0 0
1280 0 0 0
1286 0 0 0
1299 0 0 0
1287 0 0 0
1234 0 0 0
1235 0 0 0
1236 0 0 0
1154 0 0 0
1160 0 0 0
1075 0 0 0
1076 0 0 0
1161 0 0 0
1074 0 0 0
926 0 0 0
933 0 0 0
936 0 0 0
1175 0 0 0
1176 0 0 0
925 0 0 0
928 0 0 0
1088 0 0 0
1090 0 0 0
1105 0 0 0
885 0 0 0
887 0 0 0
894 0 0 0
1014 0 0 0
818 0 0 0
961 0 0 0
1013 0 0 0
1016 0 0 0
731 0 0 0
817 0 0 0
820 0 0 0
959 0 0 0
975 0 0 0
729 0 0 0
738 0 0 0
944 0 0 0
945 0 0 0
6480 0 0 0
1179 0 0 0
1197 0 0 0
1247 0 0 0
1258 0 0 0
1107 0 0 0
1177 0 0 0
1195 0 0 0
1196 0 0 0
1199 0 0 0
1106 0 0 0
1109 0 0 0
1110 0 0 0
1112 0 0 0
1129 0 0 0
1017 0 0 0
1019 0 0 0
1036 0 0 0
1038 0 0 0
977 0 0 0
982 0 0 0
1037 0 0 0
1040 0 0 0
948 0 0 0
976 0 0 0
979 0 0 0
980 0 0 0
993 0 0 0
1259 0 0 0
1260 0 0 0
1263 0 0 0
1200 0 0 0
1202 0 0 0
1219 0 0 0
1221 0 0 0
1261 0 0 0
1277 0 0 0
1131 0 0 0
1220 0 0 0
1223 0 0 0
1043 0 0 0
1130 0 0 0
1133 0 0 0
1134 0 0 0
1136 0 0 0
1151 0 0 0
1041 0 0 0
1060 0 0 0
1062 0 0 0
994 0 0 0
997 0 0 0
1061 0 0 0
1064 0 0 0
6550 0 0 0
6551 0 0 0
1279 0 0 0
1295 0 0 0
1300 0 0 0
1278 0 0 0
1281 0 0 0
1224 0 0 0
1226 0 0 0
1237 0 0 0
1153 0 0 0
1067 0 0 0
1152 0 0 0
1155 0 0 0
1065 0 0 0
1077 0 0 0
917 0 0 0
918 0 0 0
934 0 0 0
1167 0 0 0
916 0 0 0
1084 0 0 0
1089 0 0 0
1091 0 0 0
873 0 0 0
886 0 0 0
888 0 0 0
1004 0 0 0
1005 0 0 0
808 0 0 0
809 0 0 0
955 0 0 0
960 0 0 0
1003 0 0 0
717 0 0 0
730 0 0 0
807 0 0 0
962 0 0 0
732 0 0 0
938 0 0 0
939 0 0 0
940 0 0 0
1171 0 0 0
1178 0 0 0
1182 0 0 0
1183 0 0 0
1248 0 0 0
1093 0 0 0
1094 0 0 0
1180 0 0 0
1181 0 0 0
1092 0 0 0
1098 0 0 0
1111 0 0 0
1113 0 0 0
1009 0 0 0
1018 0 0 0
1020 0 0 0
1022 0 0 0
1023 0 0 0
964 0 0 0
965 0 0 0
969 0 0 0
981 0 0 0
1021 0 0 0
943 0 0 0
947 0 0 0
963 0 0 0
983 0 0 0
1249 0 0 0
1253 0 0 0
1262 0 0 0
1187 0 0 0
1201 0 0 0
1203 0 0 0
1205 0 0 0
1206 0 0 0
1264 0 0 0
1115 0 0 0
1116 0 0 0
1204 0 0 0
1027 0 0 0
1042 0 0 0
1114 0 0 0
1120 0 0 0
1135 0 0 0
1137 0 0 0
1044 0 0 0
1046 0 0 0
1047 0 0 0
984 0 0 0
985 0 0 0
987 0 0 0
996 0 0 0
1045 0 0 0
6544 0 0 0
1266 0 0 0
1267 0 0 0
1296 0 0 0
1265 0 0 0
1210 0 0 0
1225 0 0 0
1227 0 0 0
1139 0 0 0
1140 0 0 0
1051 0 0 0
1066 0 0 0
1138 0 0 0
1068 0 0 0
907 0 0 0
931 0 0 0
932 0 0 0
1166 0 0 0
1168 0 0 0
906 0 0 0
919 0 0 0
1082 0 0 0
1083 0 0 0
1085 0 0 0
871 0 0 0
872 0 0 0
874 0 0 0
1002 0 0 0
792 0 0 0
954 0 0 0
1001 0 0 0
1006 0 0 0
716 0 0 0
791 0 0 0
810 0 0 0
953 0 0 0
956 0 0 0
715 0 0 0
718 0 0 0
937 0 0 0
941 0 0 0
6475 0 0 0
1170 0 0 0
1174 0 0 0
1244 0 0 0
1245 0 0 0
1087 0 0 0
1169 0 0 0
1172 0 0 0
1173 0 0 0
1184 0 0 0
1086 0 0 0
1095 0 0 0
1096 0 0 0
1097 0 0 0
1099 0 0 0
1007 0 0 0
1008 0 0 0
1010 0 0 0
1012 0 0 0
958 0 0 0
968 0 0 0
1011 0 0 0
1024 0 0 0
942 0 0 0
957 0 0 0
966 0 0 0
967 0 0 0
970 0 0 0
1246 0 0 0
1250 0 0 0
1252 0 0 0
1185 0 0 0
1186 0 0 0
1188 0 0 0
1190 0 0 0
1251 0 0 0
1254 0 0 0
1101 0 0 0
1189 0 0 0
1207 0 0 0
1026 0 0 0
1100 0 0 0
1117 0 0 0
1118 0 0 0
1119 0 0 0
1121 0 0 0
1025 0 0 0
1028 0 0 0
1030 0 0 0
971 0 0 0
986 0 0 0
1029 0 0 0
1048 0 0 0
6543 0 0 0
6545 0 0 0
1256 0 0 0
1292 0 0 0
1293 0 0 0
1255 0 0 0
1268 0 0 0
1208 0 0 0
1209 0 0 0
1211 0 0 0
1123 0 0 0
1050 0 0 0
1122 0 0 0
1141 0 0 0
1049 0 0 0
1052 0 0 0
1303 0 0 0
1505 0 0 0
1506 0 0 0
1288 0 0 0
1289 0 0 0
1290 0 0 0
1426 0 0 0
1442 0 0 0
1504 0 0 0
1240 0 0 0
1242 0 0 0
1443 0 0 0
1163 0 0 0
1164 0 0 0
1243 0 0 0
1366 0 0 0
1367 0 0 0
1368 0 0 0
1162 0 0 0
1323 0 0 0
1333 0 0 0
1079 0 0 0
1080 0 0 0
1081 0 0 0
1308 0 0 0
1309 0 0 0
1334 0 0 0
1510 0 0 0
1526 0 0 0
1569 0 0 0
1585 0 0 0
1527 0 0 0
1528 0 0 0
1529 0 0 0
1530 0 0 0
1444 0 0 0
1445 0 0 0
1446 0 0 0
1450 0 0 0
1464 0 0 0
1372 0 0 0
1387 0 0 0
1390 0 0 0
1391 0 0 0
1465 0 0 0
1336 0 0 0
1337 0 0 0
1388 0 0 0
1389 0 0 0
1335 0 0 0
1340 0 0 0
1343 0 0 0
6895 0 0 0
1587 0 0 0
1588 0 0 0
1534 0 0 0
1544 0 0 0
1586 0 0 0
1545 0 0 0
1466 0 0 0
1467 0 0 0
1468 0 0 0
1395 0 0 0
1403 0 0 0
1344 0 0 0
1345 0 0 0
1404 0 0 0
1592 0 0 0
1598 0 0 0
1611 0 0 0
1615 0 0 0
1599 0 0 0
1600 0 0 0
1601 0 0 0
1602 0 0 0
1546 0 0 0
1547 0 0 0
1548 0 0 0
1552 0 0 0
1554 0 0 0
1472 0 0 0
1478 0 0 0
1481 0 0 0
1482 0 0 0
1555 0 0 0
1406 0 0 0
1407 0 0 0
1479 0 0 0
1480 0 0 0
1405 0 0 0
1410 0 0 0
1411 0 0 0
6917 0 0 0
1301 0 0 0
1302 0 0 0
1492 0 0 0
1282 0 0 0
1284 0 0 0
1291 0 0 0
1425 0 0 0
1490 0 0 0
1507 0 0 0
1239 0 0 0
1424 0 0 0
1427 0 0 0
1158 0 0 0
1238 0 0 0
1241 0 0 0
1352 0 0 0
1354 0 0 0
1369 0 0 0
1156 0 0 0
1165 0 0 0
1322 0 0 0
1078 0 0 0
1307 0 0 0
1321 0 0 0
1324 0 0 0
6580 0 0 0
6581 0 0 0
1509 0 0 0
1559 0 0 0
1570 0 0 0
1571 0 0 0
1572 0 0 0
1508 0 0 0
1511 0 0 0
1512 0 0 0
1514 0 0 0
1531 0 0 0
1428 0 0 0
1430 0 0 0
1447 0 0 0
1449 0 0 0
1371 0 0 0
1376 0 0 0
1448 0 0 0
1451 0 0 0
1327 0 0 0
1370 0 0 0
1373 0 0 0
1374 0 0 0
1392 0 0 0
1325 0 0 0
1338 0 0 0
1339 0 0 0
6883 0 0 0
6884 0 0 0
1575 0 0 0
1533 0 0 0
1573 0 0 0
1589 0 0 0
1532 0 0 0
1535 0 0 0
1452 0 0 0
1454 0 0 0
1469 0 0 0
1394 0 0 0
1342 0 0 0
1393 0 0 0
1396 0 0 0
1591 0 0 0
1607 0 0 0
1612 0 0 0
1613 0 0 0
1614 0 0 0
1590 0 0 0
1593 0 0 0
1594 0 0 0
1596 0 0 0
1603 0 0 0
1536 0 0 0
1538 0 0 0
1549 0 0 0
1551 0 0 0
1471 0 0 0
1476 0 0 0
1550 0 0 0
1553 0 0 0
1399 0 0 0
1470 0 0 0
1473 0 0 0
1474 0 0 0
1483 0 0 0
1397 0 0 0
1408 0 0 0
1409 0 0 0
6915 0 0 0
6916 0 0 0
1297 0 0 0
1486 0 0 0
1491 0 0 0
1271 0 0 0
1283 0 0 0
1285 0 0 0
1415 0 0 0
1416 0 0 0
1493 0 0 0
1229 0 0 0
1230 0 0 0
1414 0 0 0
1144 0 0 0
1157 0 0 0
1228 0 0 0
1348 0 0 0
1353 0 0 0
1355 0 0 0
1159 0 0 0
1313 0 0 0
1314 0 0 0
1069 0 0 0
1070 0 0 0
1305 0 0 0
1306 0 0 0
1312 0 0 0
6579 0 0 0
1495 0 0 0
1496 0 0 0
1560 0 0 0
1561 0 0 0
1494 0 0 0
1500 0 0 0
1513 0 0 0
1515 0 0 0
1420 0 0 0
1429 0 0 0
1431 0 0 0
1433 0 0 0
1434 0 0 0
1357 0 0 0
1358 0 0 0
1362 0 0 0
1375 0 0 0
1432 0 0 0
1318 0 0 0
1326 0 0 0
1356 0 0 0
1377 0 0 0
1328 0 0 0
1329 0 0 0
1330 0 0 0
6877 0 0 0
1565 0 0 0
1574 0 0 0
1517 0 0 0
1518 0 0 0
1576 0 0 0
1516 0 0 0
1438 0 0 0
1453 0 0 0
1455 0 0 0
1379 0 0 0
1380 0 0 0
1332 0 0 0
1341 0 0 0
1378 0 0 0
1578 0 0 0
1579 0 0 0
1608 0 0 0
1609 0 0 0
1577 0 0 0
1583 0 0 0
1595 0 0 0
1597 0 0 0
1522 0 0 0
1537 0 0 0
1539 0 0 0
1541 0 0 0
1542 0 0 0
1457 0 0 0
1458 0 0 0
1462 0 0 0
1475 0 0 0
1540 0 0 0
1384 0 0 0
1398 0 0 0
1456 0 0 0
1477 0 0 0
1400 0 0 0
1401 0 0 0
1402 0 0 0
6913 0 0 0
1294 0 0 0
1298 0 0 0
1485 0 0 0
1269 0 0 0
1270 0 0 0
1272 0 0 0
1413 0 0 0
1484 0 0 0
1487 0 0 0
1213 0 0 0
1412 0 0 0
1417 0 0 0
1143 0 0 0
1212 0 0 0
1231 0 0 0
1346 0 0 0
1347 0 0 0
1349 0 0 0
1142 0 0 0
1145 0 0 0
1311 0 0 0
1053 0 0 0
1054 0 0 0
1071 0 0 0
1304 0 0 0
1310 0 0 0
1315 0 0 0
1489 0 0 0
1556 0 0 0
1557 0 0 0
1558 0 0 0
1562 0 0 0
1488 0 0 0
1497 0 0 0
1498 0 0 0
1499 0 0 0
1501 0 0 0
1418 0 0 0
1419 0 0 0
1421 0 0 0
1423 0 0 0
1351 0 0 0
1361 0 0 0
1422 0 0 0
1435 0 0 0
1317 0 0 0
1350 0 0 0
1359 0 0 0
1360 0 0 0
1363 0 0 0
1316 0 0 0
1319 0 0 0
1320 0 0 0
6876 0 0 0
6878 0 0 0
1564 0 0 0
1503 0 0 0
1563 0 0 0
1566 0 0 0
1502 0 0 0
1519 0 0 0
1436 0 0 0
1437 0 0 0
1439 0 0 0
1365 0 0 0
1331 0 0 0
1364 0 0 0
1381 0 0 0
1568 0 0 0
1604 0 0 0
1605 0 0 0
1606 0 0 0
1610 0 0 0
1567 0 0 0
1580 0 0 0
1581 0 0 0
1582 0 0 0
1584 0 0 0
1520 0 0 0
1521 0 0 0
1523 0 0 0
1525 0 0 0
1441 0 0 0
1461 0 0 0
1524 0 0 0
1543 0 0 0
1383 0 0 0
1440 0 0 0
1459 0 0 0
1460 0 0 0
1463 0 0 0
1382 0 0 0
1385 0 0 0
1386 0 0 0
6912 0 0 0
6914 0 0 0
1835 0 0 0
1836 0 0 0
1840 0 0 0
1856 0 0 0
1911 0 0 0
1744 0 0 0
1760 0 0 0
1834 0 0 0
1857 0 0 0
1761 0 0 0
1762 0 0 0
1763 0 0 0
1764 0 0 0
1678 0 0 0
1679 0 0 0
1680 0 0 0
1684 0 0 0
1699 0 0 0
1635 0 0 0
1645 0 0 0
1648 0 0 0
1649 0 0 0
1700 0 0 0
1620 0 0 0
1621 0 0 0
1646 0 0 0
1647 0 0 0
1929 0 0 0
1858 0 0 0
1859 0 0 0
1860 0 0 0
1768 0 0 0
1784 0 0 0
1702 0 0 0
1703 0 0 0
1785 0 0 0
1701 0 0 0
1652 0 0 0
1655 0 0 0
7269 0 0 0
1931 0 0 0
1932 0 0 0
1936 0 0 0
1946 0 0 0
1969 0 0 0
1864 0 0 0
1878 0 0 0
1930 0 0 0
1947 0 0 0
1879 0 0 0
1880 0 0 0
1881 0 0 0
1882 0 0 0
1786 0 0 0
1787 0 0 0
1788 0 0 0
1792 0 0 0
1802 0 0 0
1707 0 0 0
1717 0 0 0
1720 0 0 0
1721 0 0 0
1803 0 0 0
1656 0 0 0
1657 0 0 0
1718 0 0 0
1719 0 0 0
1977 0 0 0
1979 0 0 0
1980 0 0 0
1948 0 0 0
1949 0 0 0
1950 0 0 0
1954 0 0 0
1956 0 0 0
1978 0 0 0
1886 0 0 0
1892 0 0 0
1957 0 0 0
1805 0 0 0
1806 0 0 0
1893 0 0 0
1894 0 0 0
1895 0 0 0
1896 0 0 0
1804 0 0 0
1810 0 0 0
1812 0 0 0
1724 0 0 0
1727 0 0 0
1728 0 0 0
1729 0 0 0
1813 0 0 0
7305 0 0 0
1822 0 0 0
1839 0 0 0
1901 0 0 0
1912 0 0 0
1743 0 0 0
1820 0 0 0
1837 0 0 0
1838 0 0 0
1841 0 0 0
1742 0 0 0
1745 0 0 0
1746 0 0 0
1748 0 0 0
1765 0 0 0
1664 0 0 0
1666 0 0 0
1681 0 0 0
1683 0 0 0
1634 0 0 0
1639 0 0 0
1682 0 0 0
1685 0 0 0
1619 0 0 0
1633 0 0 0
1636 0 0 0
1637 0 0 0
1650 0 0 0
1913 0 0 0
1914 0 0 0
1842 0 0 0
1844 0 0 0
1861 0 0 0
1767 0 0 0
1688 0 0 0
1766 0 0 0
1769 0 0 0
1686 0 0 0
1704 0 0 0
1651 0 0 0
7255 0 0 0
7256 0 0 0
1917 0 0 0
1935 0 0 0
1961 0 0 0
1970 0 0 0
1863 0 0 0
1915 0 0 0
1933 0 0 0
1934 0 0 0
1937 0 0 0
1862 0 0 0
1865 0 0 0
1866 0 0 0
1868 0 0 0
1883 0 0 0
1770 0 0 0
1772 0 0 0
1789 0 0 0
1791 0 0 0
1706 0 0 0
1711 0 0 0
1790 0 0 0
1793 0 0 0
1654 0 0 0
1705 0 0 0
1708 0 0 0
1709 0 0 0
1722 0 0 0
1971 0 0 0
1972 0 0 0
1975 0 0 0
1938 0 0 0
1940 0 0 0
1951 0 0 0
1953 0 0 0
1973 0 0 0
1981 0 0 0
1885 0 0 0
1952 0 0 0
1955 0 0 0
1796 0 0 0
1884 0 0 0
1887 0 0 0
1888 0 0 0
1890 0 0 0
1897 0 0 0
1794 0 0 0
1807 0 0 0
1809 0 0 0
1723 0 0 0
1726 0 0 0
1808 0 0 0
1811 0 0 0
7301 0 0 0
7302 0 0 0
1816 0 0 0
1821 0 0 0
1825 0 0 0
1826 0 0 0
1902 0 0 0
1733 0 0 0
1734 0 0 0
1823 0 0 0
1824 0 0 0
1732 0 0 0
1738 0 0 0
1747 0 0 0
1749 0 0 0
1660 0 0 0
1665 0 0 0
1667 0 0 0
1669 0 0 0
1670 0 0 0
1625 0 0 0
1626 0 0 0
1630 0 0 0
1638 0 0 0
1668 0 0 0
1617 0 0 0
1618 0 0 0
1624 0 0 0
1640 0 0 0
1903 0 0 0
1830 0 0 0
1843 0 0 0
1845 0 0 0
1751 0 0 0
1752 0 0 0
1674 0 0 0
1687 0 0 0
1750 0 0 0
1689 0 0 0
1641 0 0 0
1642 0 0 0
7249 0 0 0
1907 0 0 0
1916 0 0 0
1920 0 0 0
1921 0 0 0
1962 0 0 0
1847 0 0 0
1848 0 0 0
1918 0 0 0
1919 0 0 0
1846 0 0 0
1852 0 0 0
1867 0 0 0
1869 0 0 0
1756 0 0 0
1771 0 0 0
1773 0 0 0
1775 0 0 0
1776 0 0 0
1691 0 0 0
1692 0 0 0
1696 0 0 0
1710 0 0 0
1774 0 0 0
1644 0 0 0
1653 0 0 0
1690 0 0 0
1712 0 0 0
1963 0 0 0
1967 0 0 0
1974 0 0 0
1925 0 0 0
1939 0 0 0
1941 0 0 0
1943 0 0 0
1944 0 0 0
1976 0 0 0
1871 0 0 0
1872 0 0 0
1942 0 0 0
1780 0 0 0
1795 0 0 0
1870 0 0 0
1876 0 0 0
1889 0 0 0
1891 0 0 0
1797 0 0 0
1799 0 0 0
1800 0 0 0
1713 0 0 0
1714 0 0 0
1716 0 0 0
1725 0 0 0
1798 0 0 0
7297 0 0 0
1815 0 0 0
1819 0 0 0
1898 0 0 0
1899 0 0 0
1731 0 0 0
1814 0 0 0
1817 0 0 0
1818 0 0 0
1827 0 0 0
1730 0 0 0
1735 0 0 0
1736 0 0 0
1737 0 0 0
1739 0 0 0
1658 0 0 0
1659 0 0 0
1661 0 0 0
1663 0 0 0
1623 0 0 0
1629 0 0 0
1662 0 0 0
1671 0 0 0
1616 0 0 0
1622 0 0 0
1627 0 0 0
1628 0 0 0
1631 0 0 0
1900 0 0 0
1904 0 0 0
1828 0 0 0
1829 0 0 0
1831 0 0 0
1741 0 0 0
1673 0 0 0
1740 0 0 0
1753 0 0 0
1672 0 0 0
1675 0 0 0
1632 0 0 0
7248 0 0 0
7250 0 0 0
1906 0 0 0
1910 0 0 0
1958 0 0 0
1959 0 0 0
1833 0 0 0
1905 0 0 0
1908 0 0 0
1909 0 0 0
1922 0 0 0
1832 0 0 0
1849 0 0 0
1850 0 0 0
1851 0 0 0
1853 0 0 0
1754 0 0 0
1755 0 0 0
1757 0 0 0
1759 0 0 0
1677 0 0 0
1695 0 0 0
1758 0 0 0
1777 0 0 0
1643 0 0 0
1676 0 0 0
1693 0 0 0
1694 0 0 0
1697 0 0 0
1960 0 0 0
1964 0 0 0
1966 0 0 0
1923 0 0 0
1924 0 0 0
1926 0 0 0
1928 0 0 0
1965 0 0 0
1968 0 0 0
1855 0 0 0
1927 0 0 0
1945 0 0 0
1779 0 0 0
1854 0 0 0
1873 0 0 0
1874 0 0 0
1875 0 0 0
1877 0 0 0
1778 0 0 0
1781 0 0 0
1783 0 0 0
1698 0 0 0
1715 0 0 0
1782 0 0 0
1801 0 0 0
7296 0 0 0
7298 0 0 0
2166 0 0 0
2182 0 0 0
2249 0 0 0
2183 0 0 0
2088 0 0 0
2089 0 0 0
2090 0 0 0
2022 0 0 0
2037 0 0 0
1997 0 0 0
1998 0 0 0
2038 0 0 0
1996 0 0 0
2267 0 0 0
2269 0 0 0
2270 0 0 0
2184 0 0 0
2185 0 0 0
2186 0 0 0
2190 0 0 0
2206 0 0 0
2268 0 0 0
2094 0 0 0
2110 0 0 0
2207 0 0 0
2040 0 0 0
2041 0 0 0
2111 0 0 0
2112 0 0 0
2113 0 0 0
2114 0 0 0
2039 0 0 0
2045 0 0 0
2055 0 0 0
2001 0 0 0
2004 0 0 0
2005 0 0 0
2006 0 0 0
2007 0 0 0
2056 0 0 0
2274 0 0 0
2288 0 0 0
2321 0 0 0
2333 0 0 0
2289 0 0 0
2290 0 0 0
2291 0 0 0
2292 0 0 0
2208 0 0 0
2209 0 0 0
2210 0 0 0
2214 0 0 0
2224 0 0 0
2118 0 0 0
2132 0 0 0
2135 0 0 0
2136 0 0 0
2225 0 0 0
2058 0 0 0
2059 0 0 0
2133 0 0 0
2134 0 0 0
2057 0 0 0
2062 0 0 0
2065 0 0 0
7687 0 0 0
2335 0 0 0
2336 0 0 0
2340 0 0 0
2342 0 0 0
2348 0 0 0
2296 0 0 0
2302 0 0 0
2334 0 0 0
2343 0 0 0
2303 0 0 0
2304 0 0 0
2305 0 0 0
2306 0 0 0
2226 0 0 0
2227 0 0 0
2228 0 0 0
2232 0 0 0
2234 0 0 0
2140 0 0 0
2146 0 0 0
2149 0 0 0
2150 0 0 0
2235 0 0 0
2066 0 0 0
2067 0 0 0
2147 0 0 0
2148 0 0 0
2165 0 0 0
2239 0 0 0
2250 0 0 0
2164 0 0 0
2167 0 0 0
2074 0 0 0
2076 0 0 0
2091 0 0 0
2021 0 0 0
1989 0 0 0
2020 0 0 0
2023 0 0 0
1987 0 0 0
1999 0 0 0
2251 0 0 0
2252 0 0 0
2255 0 0 0
2168 0 0 0
2170 0 0 0
2187 0 0 0
2189 0 0 0
2253 0 0 0
2271 0 0 0
2093 0 0 0
2188 0 0 0
2191 0 0 0
2026 0 0 0
2092 0 0 0
2095 0 0 0
2096 0 0 0
2098 0 0 0
2115 0 0 0
2024 0 0 0
2042 0 0 0
2044 0 0 0
2000 0 0 0
7620 0 0 0
7621 0 0 0
2003 0 0 0
2043 0 0 0
2046 0 0 0
2273 0 0 0
2311 0 0 0
2322 0 0 0
2323 0 0 0
2324 0 0 0
2272 0 0 0
2275 0 0 0
2276 0 0 0
2278 0 0 0
2293 0 0 0
2192 0 0 0
2194 0 0 0
2211 0 0 0
2213 0 0 0
2117 0 0 0
2122 0 0 0
2212 0 0 0
2215 0 0 0
2049 0 0 0
2116 0 0 0
2119 0 0 0
2120 0 0 0
2137 0 0 0
2047 0 0 0
2060 0 0 0
2061 0 0 0
7679 0 0 0
7680 0 0 0
2327 0 0 0
2339 0 0 0
2346 0 0 0
2349 0 0 0
2295 0 0 0
2325 0 0 0
2337 0 0 0
2338 0 0 0
2341 0 0 0
2294 0 0 0
2297 0 0 0
2298 0 0 0
2300 0 0 0
2307 0 0 0
2216 0 0 0
2218 0 0 0
2229 0 0 0
2231 0 0 0
2139 0 0 0
2144 0 0 0
2230 0 0 0
2233 0 0 0
2064 0 0 0
2138 0 0 0
2141 0 0 0
2142 0 0 0
2151 0 0 0
2155 0 0 0
2156 0 0 0
2240 0 0 0
2154 0 0 0
2070 0 0 0
2075 0 0 0
2077 0 0 0
2011 0 0 0
2012 0 0 0
1984 0 0 0
1988 0 0 0
2010 0 0 0
1990 0 0 0
2241 0 0 0
2245 0 0 0
2254 0 0 0
2160 0 0 0
2169 0 0 0
2171 0 0 0
2173 0 0 0
2174 0 0 0
2256 0 0 0
2079 0 0 0
2080 0 0 0
2172 0 0 0
2016 0 0 0
2025 0 0 0
2078 0 0 0
2084 0 0 0
2097 0 0 0
2099 0 0 0
2027 0 0 0
2029 0 0 0
2030 0 0 0
1991 0 0 0
1992 0 0 0
7615 0 0 0
1995 0 0 0
2002 0 0 0
2028 0 0 0
2258 0 0 0
2259 0 0 0
2312 0 0 0
2313 0 0 0
2257 0 0 0
2263 0 0 0
2277 0 0 0
2279 0 0 0
2178 0 0 0
2193 0 0 0
2195 0 0 0
2197 0 0 0
2198 0 0 0
2101 0 0 0
2102 0 0 0
2106 0 0 0
2121 0 0 0
2196 0 0 0
2034 0 0 0
2048 0 0 0
2100 0 0 0
2123 0 0 0
2050 0 0 0
2051 0 0 0
2052 0 0 0
7673 0 0 0
2317 0 0 0
2326 0 0 0
2330 0 0 0
2331 0 0 0
2347 0 0 0
2281 0 0 0
2282 0 0 0
2328 0 0 0
2329 0 0 0
2280 0 0 0
2286 0 0 0
2299 0 0 0
2301 0 0 0
2202 0 0 0
2217 0 0 0
2219 0 0 0
2221 0 0 0
2222 0 0 0
2125 0 0 0
2126 0 0 0
2130 0 0 0
2143 0 0 0
2220 0 0 0
2054 0 0 0
2063 0 0 0
2124 0 0 0
2145 0 0 0
2153 0 0 0
2236 0 0 0
2237 0 0 0
2152 0 0 0
2157 0 0 0
2068 0 0 0
2069 0 0 0
2071 0 0 0
2009 0 0 0
1983 0 0 0
2008 0 0 0
2013 0 0 0
1982 0 0 0
1985 0 0 0
2238 0 0 0
2242 0 0 0
2244 0 0 0
2158 0 0 0
2159 0 0 0
2161 0 0 0
2163 0 0 0
2243 0 0 0
2246 0 0 0
2073 0 0 0
2162 0 0 0
2175 0 0 0
2015 0 0 0
2072 0 0 0
2081 0 0 0
2082 0 0 0
2083 0 0 0
2085 0 0 0
2014 0 0 0
2017 0 0 0
2019 0 0 0
1986 0 0 0
1993 0 0 0
7614 0 0 0
1994 0 0 0
2018 0 0 0
2031 0 0 0
2248 0 0 0
2308 0 0 0
2309 0 0 0
2310 0 0 0
2314 0 0 0
2247 0 0 0
2260 0 0 0
2261 0 0 0
2262 0 0 0
2264 0 0 0
2176 0 0 0
2177 0 0 0
2179 0 0 0
2181 0 0 0
2087 0 0 0
2105 0 0 0
2180 0 0 0
2199 0 0 0
2033 0 0 0
2086 0 0 0
2103 0 0 0
2104 0 0 0
2107 0 0 0
2032 0 0 0
2035 0 0 0
2036 0 0 0
7672 0 0 0
7674 0 0 0
2316 0 0 0
2320 0 0 0
2344 0 0 0
2345 0 0 0
2266 0 0 0
2315 0 0 0
2318 0 0 0
2319 0 0 0
2332 0 0 0
2265 0 0 0
2283 0 0 0
2284 0 0 0
2285 0 0 0
2287 0 0 0
2200 0 0 0
2201 0 0 0
2203 0 0 0
2205 0 0 0
2109 0 0 0
2129 0 0 0
2204 0 0 0
2223 0 0 0
2053 0 0 0
2108 0 0 0
2127 0 0 0
2128 0 0 0
2131 0 0 0
2582 0 0 0
2506 0 0 0
2507 0 0 0
2505 0 0 0
2427 0 0 0
2443 0 0 0
2444 0 0 0
2385 0 0 0
2386 0 0 0
2384 0 0 0
2358 0 0 0
2361 0 0 0
7967 0 0 0
2584 0 0 0
2585 0 0 0
2589 0 0 0
2603 0 0 0
2636 0 0 0
2511 0 0 0
2527 0 0 0
2583 0 0 0
2604 0 0 0
2528 0 0 0
2529 0 0 0
2530 0 0 0
2531 0 0 0
2445 0 0 0
2446 0 0 0
2447 0 0 0
2451 0 0 0
2465 0 0 0
2390 0 0 0
2400 0 0 0
2403 0 0 0
2404 0 0 0
2466 0 0 0
2362 0 0 0
2363 0 0 0
2401 0 0 0
2402 0 0 0
2648 0 0 0
2650 0 0 0
2651 0 0 0
7736 0 0 0
7737 0 0 0
2605 0 0 0
2606 0 0 0
2607 0 0 0
2611 0 0 0
2617 0 0 0
2649 0 0 0
2535 0 0 0
2545 0 0 0
2618 0 0 0
2468 0 0 0
2469 0 0 0
2546 0 0 0
2547 0 0 0
2548 0 0 0
2549 0 0 0
2467 0 0 0
2473 0 0 0
2479 0 0 0
2407 0 0 0
2410 0 0 0
2411 0 0 0
2412 0 0 0
2480 0 0 0
8020 0 0 0
2655 0 0 0
2657 0 0 0
2663 0 0 0
2658 0 0 0
2619 0 0 0
2620 0 0 0
2621 0 0 0
2553 0 0 0
2555 0 0 0
2482 0 0 0
2483 0 0 0
2556 0 0 0
2481 0 0 0
2566 0 0 0
2567 0 0 0
2493 0 0 0
2491 0 0 0
2508 0 0 0
2426 0 0 0
2425 0 0 0
2428 0 0 0
2372 0 0 0
2370 0 0 0
2387 0 0 0
2356 0 0 0
2357 0 0 0
7954 0 0 0
2570 0 0 0
2588 0 0 0
2626 0 0 0
2637 0 0 0
2510 0 0 0
2568 0 0 0
2586 0 0 0
2587 0 0 0
2590 0 0 0
2509 0 0 0
2512 0 0 0
2513 0 0 0
2515 0 0 0
2532 0 0 0
2429 0 0 0
2431 0 0 0
2448 0 0 0
2450 0 0 0
2389 0 0 0
2394 0 0 0
2449 0 0 0
2452 0 0 0
2360 0 0 0
2388 0 0 0
2391 0 0 0
2392 0 0 0
2405 0 0 0
2638 0 0 0
2639 0 0 0
2642 0 0 0
7734 0 0 0
2591 0 0 0
2593 0 0 0
2608 0 0 0
2610 0 0 0
2640 0 0 0
2652 0 0 0
2534 0 0 0
2609 0 0 0
2612 0 0 0
2455 0 0 0
2533 0 0 0
2536 0 0 0
2537 0 0 0
2539 0 0 0
2550 0 0 0
2453 0 0 0
2470 0 0 0
2472 0 0 0
2406 0 0 0
2409 0 0 0
2471 0 0 0
2474 0 0 0
8012 0 0 0
8013 0 0 0
2654 0 0 0
2661 0 0 0
2664 0 0 0
2653 0 0 0
2656 0 0 0
2613 0 0 0
2615 0 0 0
2622 0 0 0
2552 0 0 0
2477 0 0 0
2551 0 0 0
2554 0 0 0
2475 0 0 0
2484 0 0 0
2558 0 0 0
2487 0 0 0
2492 0 0 0
2494 0 0 0
2416 0 0 0
2417 0 0 0
2415 0 0 0
2366 0 0 0
2371 0 0 0
2373 0 0 0
2351 0 0 0
2352 0 0 0
2353 0 0 0
2562 0 0 0
2569 0 0 0
2573 0 0 0
2574 0 0 0
2627 0 0 0
2496 0 0 0
2497 0 0 0
2571 0 0 0
2572 0 0 0
2495 0 0 0
2501 0 0 0
2514 0 0 0
2516 0 0 0
2421 0 0 0
2430 0 0 0
2432 0 0 0
2434 0 0 0
2435 0 0 0
2375 0 0 0
2376 0 0 0
2380 0 0 0
2393 0 0 0
2433 0 0 0
2355 0 0 0
2359 0 0 0
2374 0 0 0
2395 0 0 0
2628 0 0 0
2632 0 0 0
2641 0 0 0
7724 0 0 0
7733 0 0 0
2578 0 0 0
2592 0 0 0
2594 0 0 0
2596 0 0 0
2597 0 0 0
2643 0 0 0
2518 0 0 0
2519 0 0 0
2595 0 0 0
2439 0 0 0
2454 0 0 0
2517 0 0 0
2523 0 0 0
2538 0 0 0
2540 0 0 0
2456 0 0 0
2458 0 0 0
2459 0 0 0
2396 0 0 0
2397 0 0 0
2399 0 0 0
2408 0 0 0
2457 0 0 0
8006 0 0 0
2645 0 0 0
2646 0 0 0
2662 0 0 0
2644 0 0 0
2601 0 0 0
2614 0 0 0
2616 0 0 0
2542 0 0 0
2543 0 0 0
2463 0 0 0
2476 0 0 0
2541 0 0 0
2478 0 0 0
2557 0 0 0
2559 0 0 0
2486 0 0 0
2485 0 0 0
2488 0 0 0
2414 0 0 0
2413 0 0 0
2418 0 0 0
2365 0 0 0
2364 0 0 0
2367 0 0 0
2350 0 0 0
7948 0 0 0
7949 0 0 0
2561 0 0 0
2565 0 0 0
2623 0 0 0
2624 0 0 0
2490 0 0 0
2560 0 0 0
2563 0 0 0
2564 0 0 0
2575 0 0 0
2489 0 0 0
2498 0 0 0
2499 0 0 0
2500 0 0 0
2502 0 0 0
2419 0 0 0
2420 0 0 0
2422 0 0 0
2424 0 0 0
2369 0 0 0
2379 0 0 0
2423 0 0 0
2436 0 0 0
2354 0 0 0
2368 0 0 0
2377 0 0 0
2378 0 0 0
2381 0 0 0
2625 0 0 0
2629 0 0 0
2631 0 0 0
7723 0 0 0
2576 0 0 0
2577 0 0 0
2579 0 0 0
2581 0 0 0
2630 0 0 0
2633 0 0 0
2504 0 0 0
2580 0 0 0
2598 0 0 0
2438 0 0 0
2503 0 0 0
2520 0 0 0
2521 0 0 0
2522 0 0 0
2524 0 0 0
2437 0 0 0
2440 0 0 0
2442 0 0 0
2382 0 0 0
2383 0 0 0
2398 0 0 0
2441 0 0 0
2460 0 0 0
8007 0 0 0
2635 0 0 0
2659 0 0 0
2660 0 0 0
2634 0 0 0
2647 0 0 0
2599 0 0 0
2600 0 0 0
2602 0 0 0
2526 0 0 0
2544 0 0 0
2525 0 0 0
2462 0 0 0
2464 0 0 0
2461 0 0 0
8040 0 0 0
8050 0 0 0
8068 0 0 0
8085 0 0 0
2921 0 0 0
2940 0 0 0
2966 0 0 0
2975 0 0 0
2855 0 0 0
2902 0 0 0
2919 0 0 0
2836 0 0 0
2853 0 0 0
2874 0 0 0
2770 0 0 0
2787 0 0 0
2789 0 0 0
2808 0 0 0
2704 0 0 0
2721 0 0 0
2723 0 0 0
2742 0 0 0
8052 0 0 0
8069 0 0 0
8082 0 0 0
8107 0 0 0
8108 0 0 0
2944 0 0 0
2967 0 0 0
2973 0 0 0
2985 0 0 0
2986 0 0 0
2903 0 0 0
2916 0 0 0
2941 0 0 0
2942 0 0 0
2837 0 0 0
2850 0 0 0
2875 0 0 0
2876 0 0 0
2878 0 0 0
2771 0 0 0
2784 0 0 0
2809 0 0 0
2810 0 0 0
2812 0 0 0
2705 0 0 0
2718 0 0 0
2743 0 0 0
2744 0 0 0
2746 0 0 0
8059 0 0 0
8061 0 0 0
8083 0 0 0
8123 0 0 0
2956 0 0 0
2960 0 0 0
2974 0 0 0
2992 0 0 0
2917 0 0 0
2957 0 0 0
2851 0 0 0
2890 0 0 0
2891 0 0 0
2894 0 0 0
2785 0 0 0
2824 0 0 0
2825 0 0 0
2828 0 0 0
2719 0 0 0
2758 0 0 0
2759 0 0 0
2762 0 0 0
8064 0 0 0
8104 0 0 0
8124 0 0 0
2964 0 0 0
2984 0 0 0
2993 0 0 0
2938 0 0 0
2958 0 0 0
2872 0 0 0
2892 0 0 0
2898 0 0 0
2806 0 0 0
2826 0 0 0
2832 0 0 0
2740 0 0 0
2760 0 0 0
2766 0 0 0
8033 0 0 0
8039 0 0 0
8041 0 0 0
8042 0 0 0
8088 0 0 0
2907 0 0 0
2920 0 0 0
2924 0 0 0
2925 0 0 0
2976 0 0 0
2841 0 0 0
2854 0 0 0
2922 0 0 0
2856 0 0 0
2858 0 0 0
2859 0 0 0
2775 0 0 0
2788 0 0 0
2790 0 0 0
2792 0 0 0
2793 0 0 0
2709 0 0 0
2722 0 0 0
2724 0 0 0
2726 0 0 0
2727 0 0 0
8044 0 0 0
8051 0 0 0
8089 0 0 0
8111 0 0 0
2929 0 0 0
2943 0 0 0
2977 0 0 0
2987 0 0 0
2923 0 0 0
2945 0 0 0
2857 0 0 0
2863 0 0 0
2877 0 0 0
2879 0 0 0
2791 0 0 0
2797 0 0 0
2811 0 0 0
2813 0 0 0
2725 0 0 0
2731 0 0 0
2745 0 0 0
2747 0 0 0
8053 0 0 0
8054 0 0 0
8056 0 0 0
8060 0 0 0
8112 0 0 0
2947 0 0 0
2948 0 0 0
2952 0 0 0
2959 0 0 0
2988 0 0 0
2946 0 0 0
2880 0 0 0
2881 0 0 0
2882 0 0 0
2886 0 0 0
2893 0 0 0
2814 0 0 0
2815 0 0 0
2816 0 0 0
2820 0 0 0
2827 0 0 0
2748 0 0 0
2749 0 0 0
2750 0 0 0
2754 0 0 0
2761 0 0 0
8062 0 0 0
8063 0 0 0
8127 0 0 0
2962 0 0 0
2963 0 0 0
2994 0 0 0
2961 0 0 0
2895 0 0 0
2896 0 0 0
2897 0 0 0
2829 0 0 0
2830 0 0 0
2831 0 0 0
2763 0 0 0
2764 0 0 0
2765 0 0 0
8032 0 0 0
8035 0 0 0
8071 0 0 0
8074 0 0 0
2906 0 0 0
2911 0 0 0
2968 0 0 0
2969 0 0 0
2840 0 0 0
2905 0 0 0
2908 0 0 0
2839 0 0 0
2842 0 0 0
2845 0 0 0
2773 0 0 0
2774 0 0 0
2776 0 0 0
2779 0 0 0
2707 0 0 0
2708 0 0 0
2710 0 0 0
2713 0 0 0
8043 0 0 0
8075 0 0 0
8092 0 0 0
8093 0 0 0
8096 0 0 0
2928 0 0 0
2970 0 0 0
2978 0 0 0
2979 0 0 0
2980 0 0 0
2909 0 0 0
2926 0 0 0
2927 0 0 0
2930 0 0 0
2843 0 0 0
2860 0 0 0
2861 0 0 0
2862 0 0 0
2864 0 0 0
2777 0 0 0
2794 0 0 0
2795 0 0 0
2796 0 0 0
2798 0 0 0
2711 0 0 0
2728 0 0 0
2729 0 0 0
2730 0 0 0
2732 0 0 0
8046 0 0 0
8055 0 0 0
8097 0 0 0
8115 0 0 0
2933 0 0 0
2951 0 0 0
2981 0 0 0
2989 0 0 0
2931 0 0 0
2949 0 0 0
2865 0 0 0
2867 0 0 0
2883 0 0 0
2885 0 0 0
2799 0 0 0
2801 0 0 0
2817 0 0 0
2819 0 0 0
2733 0 0 0
2735 0 0 0
2751 0 0 0
2753 0 0 0
8058 0 0 0
8116 0 0 0
8119 0 0 0
2955 0 0 0
2990 0 0 0
2991 0 0 0
2950 0 0 0
2953 0 0 0
2884 0 0 0
2887 0 0 0
2889 0 0 0
2818 0 0 0
2821 0 0 0
2823 0 0 0
2752 0 0 0
2755 0 0 0
2757 0 0 0
8029 0 0 0
8030 0 0 0
8031 0 0 0
8034 0 0 0
8065 0 0 0
2900 0 0 0
2901 0 0 0
2904 0 0 0
2910 0 0 0
2965 0 0 0
2834 0 0 0
2835 0 0 0
2899 0 0 0
2833 0 0 0
2838 0 0 0
2844 0 0 0
2767 0 0 0
2768 0 0 0
2769 0 0 0
2772 0 0 0
2778 0 0 0
2701 0 0 0
2702 0 0 0
2703 0 0 0
2706 0 0 0
2712 0 0 0
8036 0 0 0
8037 0 0 0
8078 0 0 0
8079 0 0 0
2914 0 0 0
2915 0 0 0
2971 0 0 0
2972 0 0 0
2912 0 0 0
2913 0 0 0
2846 0 0 0
2847 0 0 0
2848 0 0 0
2849 0 0 0
2780 0 0 0
2781 0 0 0
2782 0 0 0
2783 0 0 0
2714 0 0 0
2715 0 0 0
2716 0 0 0
2717 0 0 0
8038 0 0 0
8045 0 0 0
8047 0 0 0
8048 0 0 0
8100 0 0 0
2918 0 0 0
2932 0 0 0
2936 0 0 0
2937 0 0 0
2982 0 0 0
2934 0 0 0
2852 0 0 0
2866 0 0 0
2868 0 0 0
2870 0 0 0
2871 0 0 0
2786 0 0 0
2800 0 0 0
2802 0 0 0
2804 0 0 0
2805 0 0 0
2720 0 0 0
2734 0 0 0
2736 0 0 0
2738 0 0 0
2739 0 0 0
8049 0 0 0
8057 0 0 0
8101 0 0 0
2939 0 0 0
2954 0 0 0
2983 0 0 0
2935 0 0 0
2869 0 0 0
2873 0 0 0
2888 0 0 0
2803 0 0 0
2807 0 0 0
2822 0 0 0
2737 0 0 0
2741 0 0 0
2756 0 0 0
8436 0 0 0
8455 0 0 0
8461 0 0 0
8480 0 0 0
8481 0 0 0
3251 0 0 0
3289 0 0 0
3293 0 0 0
3304 0 0 0
3305 0 0 0
3223 0 0 0
3229 0 0 0
3248 0 0 0
3249 0 0 0
3157 0 0 0
3163 0 0 0
3182 0 0 0
3183 0 0 0
3185 0 0 0
3091 0 0 0
3097 0 0 0
3116 0 0 0
3117 0 0 0
3119 0 0 0
3025 0 0 0
3031 0 0 0
3050 0 0 0
3051 0 0 0
3053 0 0 0
8445 0 0 0
8447 0 0 0
8462 0 0 0
8502 0 0 0
3269 0 0 0
3273 0 0 0
3294 0 0 0
3315 0 0 0
3230 0 0 0
3270 0 0 0
3164 0 0 0
3203 0 0 0
3204 0 0 0
3207 0 0 0
3098 0 0 0
3137 0 0 0
3138 0 0 0
3141 0 0 0
3032 0 0 0
3071 0 0 0
3072 0 0 0
3075 0 0 0
8452 0 0 0
8477 0 0 0
8478 0 0 0
8503 0 0 0
8516 0 0 0
3283 0 0 0
3302 0 0 0
3303 0 0 0
3316 0 0 0
3322 0 0 0
3245 0 0 0
3246 0 0 0
3271 0 0 0
3284 0 0 0
3179 0 0 0
3180 0 0 0
3205 0 0 0
3217 0 0 0
3218 0 0 0
3113 0 0 0
3114 0 0 0
3139 0 0 0
3151 0 0 0
3152 0 0 0
3047 0 0 0
3048 0 0 0
3073 0 0 0
3085 0 0 0
3086 0 0 0
8454 0 0 0
8500 0 0 0
8517 0 0 0
8836 0 0 0
3287 0 0 0
3314 0 0 0
3323 0 0 0
3589 0 0 0
3268 0 0 0
3285 0 0 0
3202 0 0 0
3219 0 0 0
3221 0 0 0
3523 0 0 0
3136 0 0 0
3153 0 0 0
3155 0 0 0
3457 0 0 0
3070 0 0 0
3087 0 0 0
3089 0 0 0
3391 0 0 0
8429 0 0 0
8435 0 0 0
8464 0 0 0
8484 0 0 0
3236 0 0 0
3250 0 0 0
3295 0 0 0
3306 0 0 0
3232 0 0 0
3252 0 0 0
3166 0 0 0
3170 0 0 0
3184 0 0 0
3186 0 0 0
3100 0 0 0
3104 0 0 0
3118 0 0 0
3120 0 0 0
3034 0 0 0
3038 0 0 0
3052 0 0 0
3054 0 0 0
8437 0 0 0
8438 0 0 0
8440 0 0 0
8446 0 0 0
8485 0 0 0
3254 0 0 0
3255 0 0 0
3259 0 0 0
3272 0 0 0
3307 0 0 0
3253 0 0 0
3187 0 0 0
3188 0 0 0
3189 0 0 0
3193 0 0 0
3206 0 0 0
3121 0 0 0
3122 0 0 0
3123 0 0 0
3127 0 0 0
3140 0 0 0
3055 0 0 0
3056 0 0 0
3057 0 0 0
3061 0 0 0
3074 0 0 0
8448 0 0 0
8449 0 0 0
8506 0 0 0
8507 0 0 0
3276 0 0 0
3277 0 0 0
3317 0 0 0
3318 0 0 0
3274 0 0 0
3275 0 0 0
3208 0 0 0
3209 0 0 0
3210 0 0 0
3211 0 0 0
3142 0 0 0
3143 0 0 0
3144 0 0 0
3145 0 0 0
3076 0 0 0
3077 0 0 0
3078 0 0 0
3079 0 0 0
8451 0 0 0
8453 0 0 0
8520 0 0 0
8827 0 0 0
8828 0 0 0
3281 0 0 0
3286 0 0 0
3324 0 0 0
3572 0 0 0
3573 0 0 0
3288 0 0 0
3215 0 0 0
3220 0 0 0
3222 0 0 0
3506 0 0 0
3507 0 0 0
3149 0 0 0
3154 0 0 0
3156 0 0 0
3440 0 0 0
3441 0 0 0
3083 0 0 0
3088 0 0 0
3090 0 0 0
3374 0 0 0
3375 0 0 0
8428 0 0 0
8456 0 0 0
8465 0 0 0
8466 0 0 0
8469 0 0 0
3235 0 0 0
3290 0 0 0
3296 0 0 0
3297 0 0 0
3298 0 0 0
3224 0 0 0
3233 0 0 0
3234 0 0 0
3237 0 0 0
3158 0 0 0
3167 0 0 0
3168 0 0 0
3169 0 0 0
3171 0 0 0
3092 0 0 0
3101 0 0 0
3102 0 0 0
3103 0 0 0
3105 0 0 0
3026 0 0 0
3035 0 0 0
3036 0 0 0
3037 0 0 0
3039 0 0 0
8431 0 0 0
8439 0 0 0
8470 0 0 0
8488 0 0 0
3240 0 0 0
3258 0 0 0
3299 0 0 0
3308 0 0 0
3238 0 0 0
3256 0 0 0
3172 0 0 0
3174 0 0 0
3190 0 0 0
3192 0 0 0
3106 0 0 0
3108 0 0 0
3124 0 0 0
3126 0 0 0
3040 0 0 0
3042 0 0 0
3058 0 0 0
3060 0 0 0
8442 0 0 0
8489 0 0 0
8492 0 0 0
8493 0 0 0
8510 0 0 0
3263 0 0 0
3309 0 0 0
3310 0 0 0
3311 0 0 0
3319 0 0 0
3257 0 0 0
3260 0 0 0
3261 0 0 0
3278 0 0 0
3191 0 0 0
3194 0 0 0
3195 0 0 0
3197 0 0 0
3212 0 0 0
3125 0 0 0
3128 0 0 0
3129 0 0 0
3131 0 0 0
3146 0 0 0
3059 0 0 0
3062 0 0 0
3063 0 0 0
3065 0 0 0
3080 0 0 0
8450 0 0 0
8511 0 0 0
8514 0 0 0
8823 0 0 0
3280 0 0 0
3320 0 0 0
3321 0 0 0
3563 0 0 0
3279 0 0 0
3282 0 0 0
3213 0 0 0
3214 0 0 0
3216 0 0 0
3497 0 0 0
3147 0 0 0
3148 0 0 0
3150 0 0 0
3431 0 0 0
3081 0 0 0
3082 0 0 0
3084 0 0 0
3365 0 0 0
8425 0 0 0
8426 0 0 0
8457 0 0 0
8458 0 0 0
3227 0 0 0
3228 0 0 0
3291 0 0 0
3292 0 0 0
3225 0 0 0
3226 0 0 0
3159 0 0 0
3160 0 0 0
3161 0 0 0
3162 0 0 0
3093 0 0 0
3094 0 0 0
3095 0 0 0
3096 0 0 0
3027 0 0 0
3028 0 0 0
3029 0 0 0
3030 0 0 0
8427 0 0 0
8430 0 0 0
8432 0 0 0
8433 0 0 0
8473 0 0 0
3231 0 0 0
3239 0 0 0
3243 0 0 0
3244 0 0 0
3300 0 0 0
3241 0 0 0
3165 0 0 0
3173 0 0 0
3175 0 0 0
3177 0 0 0
3178 0 0 0
3099 0 0 0
3107 0 0 0
3109 0 0 0
3111 0 0 0
3112 0 0 0
3033 0 0 0
3041 0 0 0
3043 0 0 0
3045 0 0 0
3046 0 0 0
8434 0 0 0
8441 0 0 0
8474 0 0 0
8496 0 0 0
3247 0 0 0
3262 0 0 0
3301 0 0 0
3312 0 0 0
3242 0 0 0
3264 0 0 0
3176 0 0 0
3181 0 0 0
3196 0 0 0
3198 0 0 0
3110 0 0 0
3115 0 0 0
3130 0 0 0
3132 0 0 0
3044 0 0 0
3049 0 0 0
3064 0 0 0
3066 0 0 0
8443 0 0 0
8444 0 0 0
8497 0 0 0
8821 0 0 0
8822 0 0 0
3266 0 0 0
3267 0 0 0
3313 0 0 0
3560 0 0 0
3562 0 0 0
3265 0 0 0
3199 0 0 0
3200 0 0 0
3201 0 0 0
3494 0 0 0
3496 0 0 0
3133 0 0 0
3134 0 0 0
3135 0 0 0
3428 0 0 0
3430 0 0 0
3067 0 0 0
3068 0 0 0
3069 0 0 0
3362 0 0 0
3364 0 0 0
8838 0 0 0
8857 0 0 0
8888 0 0 0
3593 0 0 0
3625 0 0 0
3640 0 0 0
3559 0 0 0
3590 0 0 0
3493 0 0 0
3524 0 0 0
3527 0 0 0
3427 0 0 0
3458 0 0 0
3461 0 0 0
3361 0 0 0
3392 0 0 0
3395 0 0 0
8847 0 0 0
8866 0 0 0
8867 0 0 0
8889 0 0 0
8908 0 0 0
3609 0 0 0
3629 0 0 0
3630 0 0 0
3641 0 0 0
3649 0 0 0
3568 0 0 0
3569 0 0 0
3591 0 0 0
3610 0 0 0
3502 0 0 0
3503 0 0 0
3525 0 0 0
3543 0 0 0
3544 0 0 0
3436 0 0 0
3437 0 0 0
3459 0 0 0
3477 0 0 0
3478 0 0 0
3370 0 0 0
3371 0 0 0
3393 0 0 0
3411 0 0 0
3412 0 0 0
8849 0 0 0
8854 0 0 0
8884 0 0 0
8909 0 0 0
3613 0 0 0
3621 0 0 0
3638 0 0 0
3650 0 0 0
3586 0 0 0
3611 0 0 0
3520 0 0 0
3545 0 0 0
3547 0 0 0
3555 0 0 0
3454 0 0 0
3479 0 0 0
3481 0 0 0
3489 0 0 0
3388 0 0 0
3413 0 0 0
3415 0 0 0
3423 0 0 0
8856 0 0 0
8885 0 0 0
8920 0 0 0
9248 0 0 0
9263 0 0 0
3624 0 0 0
3639 0 0 0
3654 0 0 0
3950 0 0 0
3959 0 0 0
3587 0 0 0
3622 0 0 0
3884 0 0 0
3899 0 0 0
3521 0 0 0
3556 0 0 0
3558 0 0 0
3818 0 0 0
3833 0 0 0
3455 0 0 0
3490 0 0 0
3492 0 0 0
3752 0 0 0
3767 0 0 0
3389 0 0 0
3424 0 0 0
3426 0 0 0
3686 0 0 0
3701 0 0 0
8830 0 0 0
8837 0 0 0
8869 0 0 0
3577 0 0 0
3592 0 0 0
3631 0 0 0
3571 0 0 0
3505 0 0 0
3511 0 0 0
3526 0 0 0
3439 0 0 0
3445 0 0 0
3460 0 0 0
3373 0 0 0
3379 0 0 0
3394 0 0 0
8839 0 0 0
8840 0 0 0
8892 0 0 0
8893 0 0 0
3596 0 0 0
3597 0 0 0
3642 0 0 0
3643 0 0 0
3594 0 0 0
3595 0 0 0
3528 0 0 0
3529 0 0 0
3530 0 0 0
3531 0 0 0
3462 0 0 0
3463 0 0 0
3464 0 0 0
3465 0 0 0
3396 0 0 0
3397 0 0 0
3398 0 0 0
3399 0 0 0
8842 0 0 0
8848 0 0 0
8850 0 0 0
8851 0 0 0
8912 0 0 0
3601 0 0 0
3612 0 0 0
3616 0 0 0
3617 0 0 0
3651 0 0 0
3614 0 0 0
3535 0 0 0
3546 0 0 0
3548 0 0 0
3550 0 0 0
3551 0 0 0
3469 0 0 0
3480 0 0 0
3482 0 0 0
3484 0 0 0
3485 0 0 0
3403 0 0 0
3414 0 0 0
3416 0 0 0
3418 0 0 0
3419 0 0 0
8853 0 0 0
8855 0 0 0
8913 0 0 0
9264 0 0 0
3620 0 0 0
3623 0 0 0
3652 0 0 0
3960 0 0 0
3615 0 0 0
3900 0 0 0
3549 0 0 0
3554 0 0 0
3557 0 0 0
3834 0 0 0
3483 0 0 0
3488 0 0 0
3491 0 0 0
3768 0 0 0
3417 0 0 0
3422 0 0 0
3425 0 0 0
3702 0 0 0
8829 0 0 0
8859 0 0 0
8872 0 0 0
3576 0 0 0
3626 0 0 0
3632 0 0 0
3561 0 0 0
3574 0 0 0
3495 0 0 0
3508 0 0 0
3510 0 0 0
3429 0 0 0
3442 0 0 0
3444 0 0 0
3363 0 0 0
3376 0 0 0
3378 0 0 0
8832 0 0 0
8873 0 0 0
8876 0 0 0
8877 0 0 0
8896 0 0 0
3581 0 0 0
3633 0 0 0
3634 0 0 0
3635 0 0 0
3644 0 0 0
3575 0 0 0
3578 0 0 0
3579 0 0 0
3598 0 0 0
3509 0 0 0
3512 0 0 0
3513 0 0 0
3515 0 0 0
3532 0 0 0
3443 0 0 0
3446 0 0 0
3447 0 0 0
3449 0 0 0
3466 0 0 0
3377 0 0 0
3380 0 0 0
3381 0 0 0
3383 0 0 0
3400 0 0 0
8841 0 0 0
8844 0 0 0
8897 0 0 0
8900 0 0 0
3600 0 0 0
3605 0 0 0
3645 0 0 0
3646 0 0 0
3599 0 0 0
3602 0 0 0
3533 0 0 0
3534 0 0 0
3536 0 0 0
3539 0 0 0
3467 0 0 0
3468 0 0 0
3470 0 0 0
3473 0 0 0
3401 0 0 0
3402 0 0 0
3404 0 0 0
3407 0 0 0
8852 0 0 0
8901 0 0 0
8916 0 0 0
9251 0 0 0
9252 0 0 0
3619 0 0 0
3647 0 0 0
3653 0 0 0
3952 0 0 0
3953 0 0 0
3603 0 0 0
3618 0 0 0
3887 0 0 0
3888 0 0 0
3537 0 0 0
3552 0 0 0
3553 0 0 0
3821 0 0 0
3822 0 0 0
3471 0 0 0
3486 0 0 0
3487 0 0 0
3755 0 0 0
3756 0 0 0
3405 0 0 0
3420 0 0 0
3421 0 0 0
3689 0 0 0
3690 0 0 0
8824 0 0 0
8825 0 0 0
8862 0 0 0
3566 0 0 0
3567 0 0 0
3627 0 0 0
3564 0 0 0
3498 0 0 0
3500 0 0 0
3501 0 0 0
3432 0 0 0
3434 0 0 0
3435 0 0 0
3366 0 0 0
3368 0 0 0
3369 0 0 0
8826 0 0 0
8831 0 0 0
8863 0 0 0
8880 0 0 0
3570 0 0 0
3580 0 0 0
3628 0 0 0
3636 0 0 0
3565 0 0 0
3582 0 0 0
3499 0 0 0
3504 0 0 0
3514 0 0 0
3516 0 0 0
3433 0 0 0
3438 0 0 0
3448 0 0 0
3450 0 0 0
3367 0 0 0
3372 0 0 0
3382 0 0 0
3384 0 0 0
8833 0 0 0
8834 0 0 0
8835 0 0 0
8843 0 0 0
8881 0 0 0
3584 0 0 0
3585 0 0 0
3588 0 0 0
3604 0 0 0
3637 0 0 0
3583 0 0 0
3517 0 0 0
3518 0 0 0
3519 0 0 0
3522 0 0 0
3538 0 0 0
3451 0 0 0
3452 0 0 0
3453 0 0 0
3456 0 0 0
3472 0 0 0
3385 0 0 0
3386 0 0 0
3387 0 0 0
3390 0 0 0
3406 0 0 0
8845 0 0 0
8846 0 0 0
8904 0 0 0
9247 0 0 0
3607 0 0 0
3608 0 0 0
3648 0 0 0
3949 0 0 0
3606 0 0 0
3883 0 0 0
3540 0 0 0
3541 0 0 0
3542 0 0 0
3817 0 0 0
3474 0 0 0
3475 0 0 0
3476 0 0 0
3751 0 0 0
3408 0 0 0
3409 0 0 0
3410 0 0 0
3685 0 0 0
9232 0 0 0
9249 0 0 0
9284 0 0 0
3919 0 0 0
3951 0 0 0
3970 0 0 0
3885 0 0 0
3920 0 0 0
3819 0 0 0
3853 0 0 0
3854 0 0 0
3753 0 0 0
3787 0 0 0
3788 0 0 0
3687 0 0 0
3721 0 0 0
3722 0 0 0
9234 0 0 0
9241 0 0 0
9260 0 0 0
9285 0 0 0
3923 0 0 0
3937 0 0 0
3957 0 0 0
3971 0 0 0
3896 0 0 0
3921 0 0 0
3830 0 0 0
3855 0 0 0
3857 0 0 0
3871 0 0 0
3764 0 0 0
3789 0 0 0
3791 0 0 0
3805 0 0 0
3698 0 0 0
3723 0 0 0
3725 0 0 0
3739 0 0 0
9243 0 0 0
9261 0 0 0
9280 0 0 0
9302 0 0 0
9303 0 0 0
3941 0 0 0
3958 0 0 0
3968 0 0 0
3979 0 0 0
3980 0 0 0
3897 0 0 0
3916 0 0 0
3938 0 0 0
3939 0 0 0
3831 0 0 0
3850 0 0 0
3872 0 0 0
3873 0 0 0
3875 0 0 0
3765 0 0 0
3784 0 0 0
3806 0 0 0
3807 0 0 0
3809 0 0 0
3699 0 0 0
3718 0 0 0
3740 0 0 0
3741 0 0 0
3743 0 0 0
9246 0 0 0
9281 0 0 0
9312 0 0 0
9624 0 0 0
3947 0 0 0
3969 0 0 0
3984 0 0 0
4241 0 0 0
3917 0 0 0
3948 0 0 0
3851 0 0 0
3881 0 0 0
3882 0 0 0
4175 0 0 0
3785 0 0 0
3815 0 0 0
3816 0 0 0
4109 0 0 0
3719 0 0 0
3749 0 0 0
3750 0 0 0
4043 0 0 0
9223 0 0 0
9224 0 0 0
9265 0 0 0
3902 0 0 0
3903 0 0 0
3961 0 0 0
3901 0 0 0
3835 0 0 0
3836 0 0 0
3837 0 0 0
3769 0 0 0
3770 0 0 0
3771 0 0 0
3703 0 0 0
3704 0 0 0
3705 0 0 0
9226 0 0 0
9233 0 0 0
9235 0 0 0
9236 0 0 0
9288 0 0 0
3907 0 0 0
3922 0 0 0
3926 0 0 0
3927 0 0 0
3972 0 0 0
3924 0 0 0
3841 0 0 0
3856 0 0 0
3858 0 0 0
3860 0 0 0
3861 0 0 0
3775 0 0 0
3790 0 0 0
3792 0 0 0
3794 0 0 0
3795 0 0 0
3709 0 0 0
3724 0 0 0
3726 0 0 0
3728 0 0 0
3729 0 0 0
9238 0 0 0
9242 0 0 0
9289 0 0 0
9306 0 0 0
3931 0 0 0
3940 0 0 0
3973 0 0 0
3981 0 0 0
3925 0 0 0
3942 0 0 0
3859 0 0 0
3865 0 0 0
3874 0 0 0
3876 0 0 0
3793 0 0 0
3799 0 0 0
3808 0 0 0
3810 0 0 0
3727 0 0 0
3733 0 0 0
3742 0 0 0
3744 0 0 0
9244 0 0 0
9245 0 0 0
9307 0 0 0
9617 0 0 0
9623 0 0 0
3944 0 0 0
3945 0 0 0
3982 0 0 0
4227 0 0 0
4240 0 0 0
3943 0 0 0
3877 0 0 0
3878 0 0 0
3879 0 0 0
4161 0 0 0
4174 0 0 0
3811 0 0 0
3812 0 0 0
3813 0 0 0
4095 0 0 0
4108 0 0 0
3745 0 0 0
3746 0 0 0
3747 0 0 0
4029 0 0 0
4042 0 0 0
9219 0 0 0
9253 0 0 0
9268 0 0 0
3891 0 0 0
3954 0 0 0
3962 0 0 0
3889 0 0 0
3904 0 0 0
3823 0 0 0
3825 0 0 0
3838 0 0 0
3757 0 0 0
3759 0 0 0
3772 0 0 0
3691 0 0 0
3693 0 0 0
3706 0 0 0
9225 0 0 0
9228 0 0 0
9269 0 0 0
9272 0 0 0
3906 0 0 0
3911 0 0 0
3963 0 0 0
3964 0 0 0
3905 0 0 0
3908 0 0 0
3839 0 0 0
3840 0 0 0
3842 0 0 0
3845 0 0 0
3773 0 0 0
3774 0 0 0
3776 0 0 0
3779 0 0 0
3707 0 0 0
3708 0 0 0
3710 0 0 0
3713 0 0 0
9237 0 0 0
9273 0 0 0
9292 0 0 0
9293 0 0 0
9296 0 0 0
3930 0 0 0
3965 0 0 0
3974 0 0 0
3975 0 0 0
3976 0 0 0
3909 0 0 0
3928 0 0 0
3929 0 0 0
3932 0 0 0
3843 0 0 0
3862 0 0 0
3863 0 0 0
3864 0 0 0
3866 0 0 0
3777 0 0 0
3796 0 0 0
3797 0 0 0
3798 0 0 0
3800 0 0 0
3711 0 0 0
3730 0 0 0
3731 0 0 0
3732 0 0 0
3734 0 0 0
9240 0 0 0
9297 0 0 0
9310 0 0 0
9616 0 0 0
3935 0 0 0
3977 0 0 0
3983 0 0 0
4226 0 0 0
3933 0 0 0
3946 0 0 0
3867 0 0 0
3869 0 0 0
3880 0 0 0
4160 0 0 0
3801 0 0 0
3803 0 0 0
3814 0 0 0
4094 0 0 0
3735 0 0 0
3737 0 0 0
3748 0 0 0
4028 0 0 0
9217 0 0 0
9218 0 0 0
9256 0 0 0
3886 0 0 0
3890 0 0 0
3955 0 0 0
3892 0 0 0
3820 0 0 0
3824 0 0 0
3826 0 0 0
3754 0 0 0
3758 0 0 0
3760 0 0 0
3688 0 0 0
3692 0 0 0
3694 0 0 0
9220 0 0 0
9221 0 0 0
9222 0 0 0
9227 0 0 0
9257 0 0 0
3894 0 0 0
3895 0 0 0
3898 0 0 0
3910 0 0 0
3956 0 0 0
3893 0 0 0
3827 0 0 0
3828 0 0 0
3829 0 0 0
3832 0 0 0
3844 0 0 0
3761 0 0 0
3762 0 0 0
3763 0 0 0
3766 0 0 0
3778 0 0 0
3695 0 0 0
3696 0 0 0
3697 0 0 0
3700 0 0 0
3712 0 0 0
9229 0 0 0
9230 0 0 0
9276 0 0 0
9277 0 0 0
3914 0 0 0
3915 0 0 0
3966 0 0 0
3967 0 0 0
3912 0 0 0
3913 0 0 0
3846 0 0 0
3847 0 0 0
3848 0 0 0
3849 0 0 0
3780 0 0 0
3781 0 0 0
3782 0 0 0
3783 0 0 0
3714 0 0 0
3715 0 0 0
3716 0 0 0
3717 0 0 0
9231 0 0 0
9239 0 0 0
9300 0 0 0
9613 0 0 0
9614 0 0 0
3918 0 0 0
3934 0 0 0
3978 0 0 0
4220 0 0 0
4221 0 0 0
3936 0 0 0
3852 0 0 0
3868 0 0 0
3870 0 0 0
4154 0 0 0
4155 0 0 0
3786 0 0 0
3802 0 0 0
3804 0 0 0
4088 0 0 0
4089 0 0 0
3720 0 0 0
3736 0 0 0
3738 0 0 0
4022 0 0 0
4023 0 0 0
9634 0 0 0
9652 0 0 0
9653 0 0 0
9669 0 0 0
9691 0 0 0
4260 0 0 0
4286 0 0 0
4287 0 0 0
4295 0 0 0
4305 0 0 0
4222 0 0 0
4223 0 0 0
4239 0 0 0
4261 0 0 0
4156 0 0 0
4157 0 0 0
4173 0 0 0
4194 0 0 0
4195 0 0 0
4090 0 0 0
4091 0 0 0
4107 0 0 0
4128 0 0 0
4129 0 0 0
4024 0 0 0
4025 0 0 0
4041 0 0 0
4062 0 0 0
4063 0 0 0
9636 0 0 0
9666 0 0 0
9692 0 0 0
4264 0 0 0
4293 0 0 0
4306 0 0 0
4236 0 0 0
4262 0 0 0
4170 0 0 0
4196 0 0 0
4198 0 0 0
4104 0 0 0
4130 0 0 0
4132 0 0 0
4038 0 0 0
4064 0 0 0
4066 0 0 0
9643 0 0 0
9645 0 0 0
9667 0 0 0
9707 0 0 0
4276 0 0 0
4280 0 0 0
4294 0 0 0
4312 0 0 0
4237 0 0 0
4277 0 0 0
4171 0 0 0
4210 0 0 0
4211 0 0 0
4214 0 0 0
4105 0 0 0
4144 0 0 0
4145 0 0 0
4148 0 0 0
4039 0 0 0
4078 0 0 0
4079 0 0 0
4082 0 0 0
9648 0 0 0
9688 0 0 0
9708 0 0 0
10039 0 0 0
10064 0 0 0
4284 0 0 0
4304 0 0 0
4313 0 0 0
4609 0 0 0
4624 0 0 0
4258 0 0 0
4278 0 0 0
4543 0 0 0
4568 0 0 0
4192 0 0 0
4212 0 0 0
4218 0 0 0
4477 0 0 0
4502 0 0 0
4126 0 0 0
4146 0 0 0
4152 0 0 0
4411 0 0 0
4436 0 0 0
4060 0 0 0
4080 0 0 0
4086 0 0 0
4345 0 0 0
4370 0 0 0
9625 0 0 0
9626 0 0 0
9672 0 0 0
9673 0 0 0
4244 0 0 0
4245 0 0 0
4296 0 0 0
4297 0 0 0
4242 0 0 0
4243 0 0 0
4176 0 0 0
4177 0 0 0
4178 0 0 0
4179 0 0 0
4110 0 0 0
4111 0 0 0
4112 0 0 0
4113 0 0 0
4044 0 0 0
4045 0 0 0
4046 0 0 0
4047 0 0 0
9628 0 0 0
9635 0 0 0
9695 0 0 0
4249 0 0 0
4263 0 0 0
4307 0 0 0
4265 0 0 0
4183 0 0 0
4197 0 0 0
4199 0 0 0
4117 0 0 0
4131 0 0 0
4133 0 0 0
4051 0 0 0
4065 0 0 0
4067 0 0 0
9637 0 0 0
9638 0 0 0
9640 0 0 0
9644 0 0 0
9696 0 0 0
4267 0 0 0
4268 0 0 0
4272 0 0 0
4279 0 0 0
4308 0 0 0
4266 0 0 0
4200 0 0 0
4201 0 0 0
4202 0 0 0
4206 0 0 0
4213 0 0 0
4134 0 0 0
4135 0 0 0
4136 0 0 0
4140 0 0 0
4147 0 0 0
4068 0 0 0
4069 0 0 0
4070 0 0 0
4074 0 0 0
4081 0 0 0
9646 0 0 0
9647 0 0 0
9711 0 0 0
10048 0 0 0
4282 0 0 0
4283 0 0 0
4314 0 0 0
4615 0 0 0
4281 0 0 0
4552 0 0 0
4215 0 0 0
4216 0 0 0
4217 0 0 0
4486 0 0 0
4149 0 0 0
4150 0 0 0
4151 0 0 0
4420 0 0 0
4083 0 0 0
4084 0 0 0
4085 0 0 0
4354 0 0 0
9619 0 0 0
9655 0 0 0
9658 0 0 0
9659 0 0 0
9676 0 0 0
4231 0 0 0
4288 0 0 0
4289 0 0 0
4290 0 0 0
4298 0 0 0
4225 0 0 0
4228 0 0 0
4229 0 0 0
4246 0 0 0
4159 0 0 0
4162 0 0 0
4163 0 0 0
4165 0 0 0
4180 0 0 0
4093 0 0 0
4096 0 0 0
4097 0 0 0
4099 0 0 0
4114 0 0 0
4027 0 0 0
4030 0 0 0
4031 0 0 0
4033 0 0 0
4048 0 0 0
9627 0 0 0
9677 0 0 0
9680 0 0 0
4248 0 0 0
4299 0 0 0
4300 0 0 0
4247 0 0 0
4250 0 0 0
4181 0 0 0
4182 0 0 0
4184 0 0 0
4115 0 0 0
4116 0 0 0
4118 0 0 0
4049 0 0 0
4050 0 0 0
4052 0 0 0
9630 0 0 0
9639 0 0 0
9681 0 0 0
9699 0 0 0
4253 0 0 0
4271 0 0 0
4301 0 0 0
4309 0 0 0
4251 0 0 0
4269 0 0 0
4185 0 0 0
4187 0 0 0
4203 0 0 0
4205 0 0 0
4119 0 0 0
4121 0 0 0
4137 0 0 0
4139 0 0 0
4053 0 0 0
4055 0 0 0
4071 0 0 0
4073 0 0 0
9642 0 0 0
9700 0 0 0
9703 0 0 0
10040 0 0 0
10049 0 0 0
4275 0 0 0
4310 0 0 0
4311 0 0 0
4610 0 0 0
4616 0 0 0
4270 0 0 0
4273 0 0 0
4544 0 0 0
4553 0 0 0
4204 0 0 0
4207 0 0 0
4209 0 0 0
4478 0 0 0
4487 0 0 0
4138 0 0 0
4141 0 0 0
4143 0 0 0
4412 0 0 0
4421 0 0 0
4072 0 0 0
4075 0 0 0
4077 0 0 0
4346 0 0 0
4355 0 0 0
9615 0 0 0
9618 0 0 0
9649 0 0 0
9662 0 0 0
4224 0 0 0
4230 0 0 0
4285 0 0 0
4291 0 0 0
4219 0 0 0
4232 0 0 0
4153 0 0 0
4158 0 0 0
4164 0 0 0
4166 0 0 0
4087 0 0 0
4092 0 0 0
4098 0 0 0
4100 0 0 0
4021 0 0 0
4026 0 0 0
4032 0 0 0
4034 0 0 0
9620 0 0 0
9621 0 0 0
9663 0 0 0
4234 0 0 0
4235 0 0 0
4292 0 0 0
4233 0 0 0
4167 0 0 0
4168 0 0 0
4169 0 0 0
4101 0 0 0
4102 0 0 0
4103 0 0 0
4035 0 0 0
4036 0 0 0
4037 0 0 0
9622 0 0 0
9629 0 0 0
9631 0 0 0
9632 0 0 0
9684 0 0 0
4238 0 0 0
4252 0 0 0
4256 0 0 0
4257 0 0 0
4302 0 0 0
4254 0 0 0
4172 0 0 0
4186 0 0 0
4188 0 0 0
4190 0 0 0
4191 0 0 0
4106 0 0 0
4120 0 0 0
4122 0 0 0
4124 0 0 0
4125 0 0 0
4040 0 0 0
4054 0 0 0
4056 0 0 0
4058 0 0 0
4059 0 0 0
9633 0 0 0
9641 0 0 0
9685 0 0 0
10041 0 0 0
4259 0 0 0
4274 0 0 0
4303 0 0 0
4611 0 0 0
4255 0 0 0
4545 0 0 0
4189 0 0 0
4193 0 0 0
4208 0 0 0
4479 0 0 0
4123 0 0 0
4127 0 0 0
4142 0 0 0
4413 0 0 0
4057 0 0 0
4061 0 0 0
4076 0 0 0
4347 0 0 0
10020 0 0 0
10029 0 0 0
10045 0 0 0
10065 0 0 0
4571 0 0 0
4589 0 0 0
4613 0 0 0
4625 0 0 0
4549 0 0 0
4569 0 0 0
4483 0 0 0
4503 0 0 0
4505 0 0 0
4523 0 0 0
4417 0 0 0
4437 0 0 0
4439 0 0 0
4457 0 0 0
4351 0 0 0
4371 0 0 0
4373 0 0 0
4391 0 0 0
10031 0 0 0
10046 0 0 0
10086 0 0 0
4593 0 0 0
4614 0 0 0
4635 0 0 0
4550 0 0 0
4590 0 0 0
4484 0 0 0
4524 0 0 0
4527 0 0 0
4418 0 0 0
4458 0 0 0
4461 0 0 0
4352 0 0 0
4392 0 0 0
4395 0 0 0
10036 0 0 0
10061 0 0 0
10062 0 0 0
10087 0 0 0
10100 0 0 0
4603 0 0 0
4622 0 0 0
4623 0 0 0
4636 0 0 0
4642 0 0 0
4565 0 0 0
4566 0 0 0
4591 0 0 0
4604 0 0 0
4499 0 0 0
4500 0 0 0
4525 0 0 0
4537 0 0 0
4538 0 0 0
4433 0 0 0
4434 0 0 0
4459 0 0 0
4471 0 0 0
4472 0 0 0
4367 0 0 0
4368 0 0 0
4393 0 0 0
4405 0 0 0
4406 0 0 0
10038 0 0 0
10084 0 0 0
10101 0 0 0
10420 0 0 0
4607 0 0 0
4634 0 0 0
4643 0 0 0
4909 0 0 0
4588 0 0 0
4605 0 0 0
4522 0 0 0
4539 0 0 0
4541 0 0 0
4843 0 0 0
4456 0 0 0
4473 0 0 0
4475 0 0 0
4777 0 0 0
4390 0 0 0
4407 0 0 0
4409 0 0 0
4711 0 0 0
10013 0 0 0
10019 0 0 0
10021 0 0 0
10022 0 0 0
10068 0 0 0
4556 0 0 0
4570 0 0 0
4574 0 0 0
4575 0 0 0
4626 0 0 0
4572 0 0 0
4490 0 0 0
4504 0 0 0
4506 0 0 0
4508 0 0 0
4509 0 0 0
4424 0 0 0
4438 0 0 0
4440 0 0 0
4442 0 0 0
4443 0 0 0
4358 0 0 0
4372 0 0 0
4374 0 0 0
4376 0 0 0
4377 0 0 0
10024 0 0 0
10030 0 0 0
10069 0 0 0
4579 0 0 0
4592 0 0 0
4627 0 0 0
4573 0 0 0
4507 0 0 0
4513 0 0 0
4526 0 0 0
4441 0 0 0
4447 0 0 0
4460 0 0 0
4375 0 0 0
4381 0 0 0
4394 0 0 0
10032 0 0 0
10033 0 0 0
10090 0 0 0
10091 0 0 0
4596 0 0 0
4597 0 0 0
4637 0 0 0
4638 0 0 0
4594 0 0 0
4595 0 0 0
4528 0 0 0
4529 0 0 0
4530 0 0 0
4531 0 0 0
4462 0 0 0
4463 0 0 0
4464 0 0 0
4465 0 0 0
4396 0 0 0
4397 0 0 0
4398 0 0 0
4399 0 0 0
10035 0 0 0
10037 0 0 0
10104 0 0 0
10411 0 0 0
10412 0 0 0
4601 0 0 0
4606 0 0 0
4644 0 0 0
4892 0 0 0
4893 0 0 0
4608 0 0 0
4535 0 0 0
4540 0 0 0
4542 0 0 0
4826 0 0 0
4827 0 0 0
4469 0 0 0
4474 0 0 0
4476 0 0 0
4760 0 0 0
4761 0 0 0
4403 0 0 0
4408 0 0 0
4410 0 0 0
4694 0 0 0
4695 0 0 0
10012 0 0 0
10015 0 0 0
10050 0 0 0
10053 0 0 0
4555 0 0 0
4560 0 0 0
4617 0 0 0
4618 0 0 0
4554 0 0 0
4557 0 0 0
4488 0 0 0
4489 0 0 0
4491 0 0 0
4494 0 0 0
4422 0 0 0
4423 0 0 0
4425 0 0 0
4428 0 0 0
4356 0 0 0
4357 0 0 0
4359 0 0 0
4362 0 0 0
10023 0 0 0
10054 0 0 0
10072 0 0 0
4578 0 0 0
4619 0 0 0
4628 0 0 0
4558 0 0 0
4576 0 0 0
4492 0 0 0
4510 0 0 0
4512 0 0 0
4426 0 0 0
4444 0 0 0
4446 0 0 0
4360 0 0 0
4378 0 0 0
4380 0 0 0
10026 0 0 0
10073 0 0 0
10076 0 0 0
10077 0 0 0
10094 0 0 0
4583 0 0 0
4629 0 0 0
4630 0 0 0
4631 0 0 0
4639 0 0 0
4577 0 0 0
4580 0 0 0
4581 0 0 0
4598 0 0 0
4511 0 0 0
4514 0 0 0
4515 0 0 0
4517 0 0 0
4532 0 0 0
4445 0 0 0
4448 0 0 0
4449 0 0 0
4451 0 0 0
4466 0 0 0
4379 0 0 0
4382 0 0 0
4383 0 0 0
4385 0 0 0
4400 0 0 0
10034 0 0 0
10095 0 0 0
10098 0 0 0
10407 0 0 0
4600 0 0 0
4640 0 0 0
4641 0 0 0
4883 0 0 0
4599 0 0 0
4602 0 0 0
4533 0 0 0
4534 0 0 0
4536 0 0 0
4817 0 0 0
4467 0 0 0
4468 0 0 0
4470 0 0 0
4751 0 0 0
4401 0 0 0
4402 0 0 0
4404 0 0 0
4685 0 0 0
10009 0 0 0
10010 0 0 0
10011 0 0 0
10014 0 0 0
10042 0 0 0
4547 0 0 0
4548 0 0 0
4551 0 0 0
4559 0 0 0
4612 0 0 0
4546 0 0 0
4480 0 0 0
4481 0 0 0
4482 0 0 0
4485 0 0 0
4493 0 0 0
4414 0 0 0
4415 0 0 0
4416 0 0 0
4419 0 0 0
4427 0 0 0
4348 0 0 0
4349 0 0 0
4350 0 0 0
4353 0 0 0
4361 0 0 0
10016 0 0 0
10017 0 0 0
10057 0 0 0
4563 0 0 0
4564 0 0 0
4620 0 0 0
4561 0 0 0
4495 0 0 0
4497 0 0 0
4498 0 0 0
4429 0 0 0
4431 0 0 0
4432 0 0 0
4363 0 0 0
4365 0 0 0
4366 0 0 0
10018 0 0 0
10025 0 0 0
10058 0 0 0
10080 0 0 0
4567 0 0 0
4582 0 0 0
4621 0 0 0
4632 0 0 0
4562 0 0 0
4584 0 0 0
4496 0 0 0
4501 0 0 0
4516 0 0 0
4518 0 0 0
4430 0 0 0
4435 0 0 0
4450 0 0 0
4452 0 0 0
4364 0 0 0
4369 0 0 0
4384 0 0 0
4386 0 0 0
10027 0 0 0
10028 0 0 0
10081 0 0 0
10405 0 0 0
10406 0 0 0
4586 0 0 0
4587 0 0 0
4633 0 0 0
4880 0 0 0
4882 0 0 0
4585 0 0 0
4519 0 0 0
4520 0 0 0
4521 0 0 0
4814 0 0 0
4816 0 0 0
4453 0 0 0
4454 0 0 0
4455 0 0 0
4748 0 0 0
4750 0 0 0
4387 0 0 0
4388 0 0 0
4389 0 0 0
4682 0 0 0
4684 0 0 0
10422 0 0 0
10441 0 0 0
10450 0 0 0
10472 0 0 0
10473 0 0 0
4913 0 0 0
4945 0 0 0
4949 0 0 0
4960 0 0 0
4961 0 0 0
4879 0 0 0
4888 0 0 0
4910 0 0 0
4911 0 0 0
4813 0 0 0
4822 0 0 0
4844 0 0 0
4845 0 0 0
4847 0 0 0
4747 0 0 0
4756 0 0 0
4778 0 0 0
4779 0 0 0
4781 0 0 0
4681 0 0 0
4690 0 0 0
4712 0 0 0
4713 0 0 0
4715 0 0 0
10431 0 0 0
10451 0 0 0
10492 0 0 0
10433 0 0 0
4929 0 0 0
4950 0 0 0
4969 0 0 0
4933 0 0 0
4889 0 0 0
4930 0 0 0
4823 0 0 0
4863 0 0 0
4864 0 0 0
4867 0 0 0
4757 0 0 0
4797 0 0 0
4798 0 0 0
4801 0 0 0
4691 0 0 0
4731 0 0 0
4732 0 0 0
4735 0 0 0
10438 0 0 0
10468 0 0 0
10493 0 0 0
4941 0 0 0
4958 0 0 0
4970 0 0 0
4906 0 0 0
4931 0 0 0
4840 0 0 0
4865 0 0 0
4875 0 0 0
4774 0 0 0
4799 0 0 0
4809 0 0 0
4708 0 0 0
4733 0 0 0
4743 0 0 0
10440 0 0 0
10469 0 0 0
10504 0 0 0
10820 0 0 0
10835 0 0 0
4944 0 0 0
4959 0 0 0
4974 0 0 0
5162 0 0 0
5171 0 0 0
4907 0 0 0
4942 0 0 0
5120 0 0 0
5135 0 0 0
4841 0 0 0
4876 0 0 0
4878 0 0 0
5078 0 0 0
5093 0 0 0
4775 0 0 0
4810 0 0 0
4812 0 0 0
5036 0 0 0
5051 0 0 0
4709 0 0 0
4744 0 0 0
4746 0 0 0
4994 0 0 0
5009 0 0 0
10414 0 0 0
10421 0 0 0
10453 0 0 0
10476 0 0 0
4897 0 0 0
4912 0 0 0
4951 0 0 0
4962 0 0 0
4891 0 0 0
4914 0 0 0
4825 0 0 0
4831 0 0 0
4846 0 0 0
4848 0 0 0
4759 0 0 0
4765 0 0 0
4780 0 0 0
4782 0 0 0
4693 0 0 0
4699 0 0 0
4714 0 0 0
4716 0 0 0
10423 0 0 0
10424 0 0 0
10477 0 0 0
10426 0 0 0
10432 0 0 0
4916 0 0 0
4917 0 0 0
4963 0 0 0
4921 0 0 0
4932 0 0 0
4915 0 0 0
4849 0 0 0
4850 0 0 0
4851 0 0 0
4855 0 0 0
4866 0 0 0
4783 0 0 0
4784 0 0 0
4785 0 0 0
4789 0 0 0
4800 0 0 0
4717 0 0 0
4718 0 0 0
4719 0 0 0
4723 0 0 0
4734 0 0 0
10434 0 0 0
10435 0 0 0
10496 0 0 0
4936 0 0 0
4937 0 0 0
4971 0 0 0
4934 0 0 0
4868 0 0 0
4870 0 0 0
4871 0 0 0
4802 0 0 0
4804 0 0 0
4805 0 0 0
4736 0 0 0
4738 0 0 0
4739 0 0 0
10437 0 0 0
10439 0 0 0
10497 0 0 0
10836 0 0 0
4940 0 0 0
4943 0 0 0
4972 0 0 0
5172 0 0 0
4935 0 0 0
5136 0 0 0
4869 0 0 0
4874 0 0 0
4877 0 0 0
5094 0 0 0
4803 0 0 0
4808 0 0 0
4811 0 0 0
5052 0 0 0
4737 0 0 0
4742 0 0 0
4745 0 0 0
5010 0 0 0
10413 0 0 0
10443 0 0 0
10456 0 0 0
10457 0 0 0
10460 0 0 0
4896 0 0 0
4946 0 0 0
4952 0 0 0
4953 0 0 0
4954 0 0 0
4881 0 0 0
4894 0 0 0
4895 0 0 0
4898 0 0 0
4815 0 0 0
4828 0 0 0
4829 0 0 0
4830 0 0 0
4832 0 0 0
4749 0 0 0
4762 0 0 0
4763 0 0 0
4764 0 0 0
4766 0 0 0
4683 0 0 0
4696 0 0 0
4697 0 0 0
4698 0 0 0
4700 0 0 0
10416 0 0 0
10461 0 0 0
10480 0 0 0
10425 0 0 0
4901 0 0 0
4955 0 0 0
4964 0 0 0
4920 0 0 0
4899 0 0 0
4918 0 0 0
4833 0 0 0
4835 0 0 0
4852 0 0 0
4854 0 0 0
4767 0 0 0
4769 0 0 0
4786 0 0 0
4788 0 0 0
4701 0 0 0
4703 0 0 0
4720 0 0 0
4722 0 0 0
10428 0 0 0
10481 0 0 0
10484 0 0 0
4925 0 0 0
4965 0 0 0
4966 0 0 0
4919 0 0 0
4922 0 0 0
4853 0 0 0
4856 0 0 0
4859 0 0 0
4787 0 0 0
4790 0 0 0
4793 0 0 0
4721 0 0 0
4724 0 0 0
4727 0 0 0
10436 0 0 0
10485 0 0 0
10500 0 0 0
10823 0 0 0
10824 0 0 0
4939 0 0 0
4967 0 0 0
4973 0 0 0
5164 0 0 0
5165 0 0 0
4923 0 0 0
4938 0 0 0
5123 0 0 0
5124 0 0 0
4857 0 0 0
4872 0 0 0
4873 0 0 0
5081 0 0 0
5082 0 0 0
4791 0 0 0
4806 0 0 0
4807 0 0 0
5039 0 0 0
5040 0 0 0
4725 0 0 0
4740 0 0 0
4741 0 0 0
4997 0 0 0
4998 0 0 0
10408 0 0 0
10409 0 0 0
10446 0 0 0
10447 0 0 0
4886 0 0 0
4887 0 0 0
4947 0 0 0
4948 0 0 0
4884 0 0 0
4885 0 0 0
4818 0 0 0
4819 0 0 0
4820 0 0 0
4821 0 0 0
4752 0 0 0
4753 0 0 0
4754 0 0 0
4755 0 0 0
4686 0 0 0
4687 0 0 0
4688 0 0 0
4689 0 0 0
10410 0 0 0
10415 0 0 0
10464 0 0 0
10417 0 0 0
10418 0 0 0
4890 0 0 0
4900 0 0 0
4956 0 0 0
4904 0 0 0
4905 0 0 0
4902 0 0 0
4824 0 0 0
4834 0 0 0
4836 0 0 0
4838 0 0 0
4839 0 0 0
4758 0 0 0
4768 0 0 0
4770 0 0 0
4772 0 0 0
4773 0 0 0
4692 0 0 0
4702 0 0 0
4704 0 0 0
4706 0 0 0
4707 0 0 0
10419 0 0 0
10427 0 0 0
10465 0 0 0
4908 0 0 0
4924 0 0 0
4957 0 0 0
4903 0 0 0
4837 0 0 0
4842 0 0 0
4858 0 0 0
4771 0 0 0
4776 0 0 0
4792 0 0 0
4705 0 0 0
4710 0 0 0
4726 0 0 0
10429 0 0 0
10430 0 0 0
10488 0 0 0
10819 0 0 0
4927 0 0 0
4928 0 0 0
4968 0 0 0
5161 0 0 0
4926 0 0 0
5119 0 0 0
4860 0 0 0
4861 0 0 0
4862 0 0 0
5077 0 0 0
4794 0 0 0
4795 0 0 0
4796 0 0 0
5035 0 0 0
4728 0 0 0
4729 0 0 0
4730 0 0 0
4993 0 0 0
10813 0 0 0
10815 0 0 0
10821 0 0 0
10850 0 0 0
5149 0 0 0
5153 0 0 0
5163 0 0 0
5179 0 0 0
5121 0 0 0
5150 0 0 0
5079 0 0 0
5107 0 0 0
5108 0 0 0
5111 0 0 0
5037 0 0 0
5065 0 0 0
5066 0 0 0
5069 0 0 0
4995 0 0 0
5023 0 0 0
5024 0 0 0
5027 0 0 0
10818 0 0 0
10832 0 0 0
10833 0 0 0
10851 0 0 0
10860 0 0 0
5159 0 0 0
5169 0 0 0
5170 0 0 0
5180 0 0 0
5184 0 0 0
5132 0 0 0
5133 0 0 0
5151 0 0 0
5160 0 0 0
5090 0 0 0
5091 0 0 0
5109 0 0 0
5117 0 0 0
5118 0 0 0
5048 0 0 0
5049 0 0 0
5067 0 0 0
5075 0 0 0
5076 0 0 0
5006 0 0 0
5007 0 0 0
5025 0 0 0
5033 0 0 0
5034 0 0 0
10807 0 0 0
10808 0 0 0
10810 0 0 0
10814 0 0 0
10837 0 0 0
5138 0 0 0
5139 0 0 0
5143 0 0 0
5152 0 0 0
5173 0 0 0
5137 0 0 0
5095 0 0 0
5096 0 0 0
5097 0 0 0
5101 0 0 0
5110 0 0 0
5053 0 0 0
5054 0 0 0
5055 0 0 0
5059 0 0 0
5068 0 0 0
5011 0 0 0
5012 0 0 0
5013 0 0 0
5017 0 0 0
5026 0 0 0
10816 0 0 0
10817 0 0 0
10854 0 0 0
10855 0 0 0
5156 0 0 0
5157 0 0 0
5181 0 0 0
5182 0 0 0
5154 0 0 0
5155 0 0 0
5112 0 0 0
5113 0 0 0
5114 0 0 0
5115 0 0 0
5070 0 0 0
5071 0 0 0
5072 0 0 0
5073 0 0 0
5028 0 0 0
5029 0 0 0
5030 0 0 0
5031 0 0 0
10803 0 0 0
10809 0 0 0
10825 0 0 0
10840 0 0 0
5127 0 0 0
5142 0 0 0
5166 0 0 0
5174 0 0 0
5125 0 0 0
5140 0 0 0
5083 0 0 0
5085 0 0 0
5098 0 0 0
5100 0 0 0
5041 0 0 0
5043 0 0 0
5056 0 0 0
5058 0 0 0
4999 0 0 0
5001 0 0 0
5014 0 0 0
5016 0 0 0
10812 0 0 0
10841 0 0 0
10844 0 0 0
10845 0 0 0
10858 0 0 0
5147 0 0 0
5175 0 0 0
5176 0 0 0
5177 0 0 0
5183 0 0 0
5141 0 0 0
5144 0 0 0
5145 0 0 0
5158 0 0 0
5099 0 0 0
5102 0 0 0
5103 0 0 0
5105 0 0 0
5116 0 0 0
5057 0 0 0
5060 0 0 0
5061 0 0 0
5063 0 0 0
5074 0 0 0
5015 0 0 0
5018 0 0 0
5019 0 0 0
5021 0 0 0
5032 0 0 0
10801 0 0 0
10802 0 0 0
10804 0 0 0
10805 0 0 0
10828 0 0 0
5122 0 0 0
5126 0 0 0
5130 0 0 0
5131 0 0 0
5167 0 0 0
5128 0 0 0
5080 0 0 0
5084 0 0 0
5086 0 0 0
5088 0 0 0
5089 0 0 0
5038 0 0 0
5042 0 0 0
5044 0 0 0
5046 0 0 0
5047 0 0 0
4996 0 0 0
5000 0 0 0
5002 0 0 0
5004 0 0 0
5005 0 0 0
10806 0 0 0
10811 0 0 0
10829 0 0 0
10848 0 0 0
5134 0 0 0
5146 0 0 0
5168 0 0 0
5178 0 0 0
5129 0 0 0
5148 0 0 0
5087 0 0 0
5092 0 0 0
5104 0 0 0
5106 0 0 0
5045 0 0 0
5050 0 0 0
5062 0 0 0
5064 0 0 0
5003 0 0 0
5008 0 0 0
5020 0 0 0
5022 0 0 0
5344 0 0 0
5345 0 0 0
5391 0 0 0
5289 0 0 0
5303 0 0 0
5343 0 0 0
5349 0 0 0
5359 0 0 0
5360 0 0 0
5304 0 0 0
5306 0 0 0
5307 0 0 0
5247 0 0 0
5248 0 0 0
5249 0 0 0
5253 0 0 0
5263 0 0 0
5305 0 0 0
5204 0 0 0
5214 0 0 0
5264 0 0 0
5189 0 0 0
5190 0 0 0
5215 0 0 0
5216 0 0 0
5217 0 0 0
5218 0 0 0
5395 0 0 0
5401 0 0 0
5402 0 0 0
5404 0 0 0
5405 0 0 0
5362 0 0 0
5363 0 0 0
5367 0 0 0
5369 0 0 0
5403 0 0 0
5311 0 0 0
5317 0 0 0
5361 0 0 0
5370 0 0 0
5318 0 0 0
5319 0 0 0
5320 0 0 0
5321 0 0 0
5265 0 0 0
5266 0 0 0
5267 0 0 0
5271 0 0 0
5273 0 0 0
5221 0 0 0
5224 0 0 0
5225 0 0 0
5226 0 0 0
5274 0 0 0
5331 0 0 0
5380 0 0 0
5392 0 0 0
5288 0 0 0
5329 0 0 0
5346 0 0 0
5347 0 0 0
5348 0 0 0
5350 0 0 0
5287 0 0 0
5290 0 0 0
5293 0 0 0
5233 0 0 0
5235 0 0 0
5250 0 0 0
5252 0 0 0
5291 0 0 0
5308 0 0 0
5203 0 0 0
5251 0 0 0
5254 0 0 0
5188 0 0 0
5202 0 0 0
5205 0 0 0
5206 0 0 0
5208 0 0 0
5219 0 0 0
5393 0 0 0
5394 0 0 0
5396 0 0 0
5399 0 0 0
5353 0 0 0
5366 0 0 0
5397 0 0 0
5406 0 0 0
5310 0 0 0
5351 0 0 0
5364 0 0 0
5365 0 0 0
5368 0 0 0
5309 0 0 0
5312 0 0 0
5313 0 0 0
5315 0 0 0
5322 0 0 0
5255 0 0 0
5257 0 0 0
5268 0 0 0
5270 0 0 0
5220 0 0 0
5223 0 0 0
5269 0 0 0
5272 0 0 0
5325 0 0 0
5330 0 0 0
5381 0 0 0
5278 0 0 0
5279 0 0 0
5332 0 0 0
5333 0 0 0
5334 0 0 0
5335 0 0 0
5277 0 0 0
5283 0 0 0
5292 0 0 0
5229 0 0 0
5234 0 0 0
5236 0 0 0
5238 0 0 0
5239 0 0 0
5294 0 0 0
5194 0 0 0
5195 0 0 0
5237 0 0 0
5186 0 0 0
5187 0 0 0
5193 0 0 0
5199 0 0 0
5207 0 0 0
5209 0 0 0
5382 0 0 0
5383 0 0 0
5384 0 0 0
5388 0 0 0
5398 0 0 0
5339 0 0 0
5352 0 0 0
5356 0 0 0
5357 0 0 0
5400 0 0 0
5296 0 0 0
5297 0 0 0
5354 0 0 0
5355 0 0 0
5295 0 0 0
5301 0 0 0
5314 0 0 0
5316 0 0 0
5243 0 0 0
5256 0 0 0
5258 0 0 0
5260 0 0 0
5261 0 0 0
5210 0 0 0
5211 0 0 0
5213 0 0 0
5222 0 0 0
5259 0 0 0
5324 0 0 0
5374 0 0 0
5375 0 0 0
5276 0 0 0
5323 0 0 0
5326 0 0 0
5327 0 0 0
5328 0 0 0
5336 0 0 0
5275 0 0 0
5280 0 0 0
5282 0 0 0
5227 0 0 0
5228 0 0 0
5230 0 0 0
5232 0 0 0
5281 0 0 0
5284 0 0 0
5192 0 0 0
5231 0 0 0
5240 0 0 0
5185 0 0 0
5191 0 0 0
5196 0 0 0
5197 0 0 0
5198 0 0 0
5200 0 0 0
5376 0 0 0
5377 0 0 0
5385 0 0 0
5387 0 0 0
5338 0 0 0
5342 0 0 0
5386 0 0 0
5389 0 0 0
5286 0 0 0
5337 0 0 0
5340 0 0 0
5341 0 0 0
5358 0 0 0
5285 0 0 0
5298 0 0 0
5299 0 0 0
5300 0 0 0
5302 0 0 0
5241 0 0 0
5242 0 0 0
5244 0 0 0
5246 0 0 0
5201 0 0 0
5212 0 0 0
5245 0 0 0
5262 0 0 0
5681 0 0 0
5685 0 0 0
5701 0 0 0
5702 0 0 0
5595 0 0 0
5611 0 0 0
5612 0 0 0
5614 0 0 0
5615 0 0 0
5518 0 0 0
5519 0 0 0
5523 0 0 0
5539 0 0 0
5613 0 0 0
5451 0 0 0
5466 0 0 0
5517 0 0 0
5540 0 0 0
5467 0 0 0
5468 0 0 0
5469 0 0 0
5470 0 0 0
5426 0 0 0
5427 0 0 0
5428 0 0 0
5431 0 0 0
5434 0 0 0
5704 0 0 0
5705 0 0 0
5619 0 0 0
5635 0 0 0
5703 0 0 0
5636 0 0 0
5541 0 0 0
5542 0 0 0
5543 0 0 0
5474 0 0 0
5484 0 0 0
5435 0 0 0
5436 0 0 0
5485 0 0 0
5765 0 0 0
5769 0 0 0
5779 0 0 0
5780 0 0 0
5709 0 0 0
5723 0 0 0
5724 0 0 0
5726 0 0 0
5727 0 0 0
5638 0 0 0
5639 0 0 0
5643 0 0 0
5653 0 0 0
5725 0 0 0
5547 0 0 0
5561 0 0 0
5637 0 0 0
5654 0 0 0
5562 0 0 0
5563 0 0 0
5564 0 0 0
5565 0 0 0
5486 0 0 0
5487 0 0 0
5488 0 0 0
5491 0 0 0
5494 0 0 0
5782 0 0 0
5783 0 0 0
5801 0 0 0
5731 0 0 0
5737 0 0 0
5781 0 0 0
5787 0 0 0
5789 0 0 0
5790 0 0 0
5738 0 0 0
5740 0 0 0
5741 0 0 0
5655 0 0 0
5656 0 0 0
5657 0 0 0
5661 0 0 0
5663 0 0 0
5739 0 0 0
5569 0 0 0
5575 0 0 0
5664 0 0 0
5495 0 0 0
5496 0 0 0
5576 0 0 0
5577 0 0 0
5578 0 0 0
5579 0 0 0
5669 0 0 0
5682 0 0 0
5683 0 0 0
5684 0 0 0
5686 0 0 0
5593 0 0 0
5594 0 0 0
5596 0 0 0
5599 0 0 0
5505 0 0 0
5522 0 0 0
5597 0 0 0
5616 0 0 0
5450 0 0 0
5503 0 0 0
5520 0 0 0
5521 0 0 0
5524 0 0 0
5449 0 0 0
5452 0 0 0
5453 0 0 0
5455 0 0 0
5471 0 0 0
5418 0 0 0
5420 0 0 0
5429 0 0 0
5430 0 0 0
5689 0 0 0
5618 0 0 0
5687 0 0 0
5706 0 0 0
5617 0 0 0
5620 0 0 0
5525 0 0 0
5527 0 0 0
5544 0 0 0
5473 0 0 0
5433 0 0 0
5472 0 0 0
5475 0 0 0
5752 0 0 0
5766 0 0 0
5767 0 0 0
5768 0 0 0
5770 0 0 0
5707 0 0 0
5708 0 0 0
5710 0 0 0
5713 0 0 0
5623 0 0 0
5642 0 0 0
5711 0 0 0
5728 0 0 0
5546 0 0 0
5621 0 0 0
5640 0 0 0
5641 0 0 0
5644 0 0 0
5545 0 0 0
5548 0 0 0
5549 0 0 0
5551 0 0 0
5566 0 0 0
5476 0 0 0
5478 0 0 0
5489 0 0 0
5490 0 0 0
5773 0 0 0
5798 0 0 0
5802 0 0 0
5730 0 0 0
5771 0 0 0
5784 0 0 0
5785 0 0 0
5786 0 0 0
5788 0 0 0
5729 0 0 0
5732 0 0 0
5735 0 0 0
5645 0 0 0
5647 0 0 0
5658 0 0 0
5660 0 0 0
5733 0 0 0
5742 0 0 0
5568 0 0 0
5659 0 0 0
5662 0 0 0
5493 0 0 0
5567 0 0 0
5570 0 0 0
5571 0 0 0
5573 0 0 0
5580 0 0 0
5670 0 0 0
5671 0 0 0
5672 0 0 0
5673 0 0 0
5583 0 0 0
5584 0 0 0
5585 0 0 0
5589 0 0 0
5598 0 0 0
5499 0 0 0
5504 0 0 0
5508 0 0 0
5509 0 0 0
5600 0 0 0
5440 0 0 0
5441 0 0 0
5506 0 0 0
5507 0 0 0
5439 0 0 0
5445 0 0 0
5454 0 0 0
5456 0 0 0
5415 0 0 0
5419 0 0 0
5421 0 0 0
5422 0 0 0
5423 0 0 0
5677 0 0 0
5688 0 0 0
5602 0 0 0
5603 0 0 0
5690 0 0 0
5601 0 0 0
5513 0 0 0
5526 0 0 0
5528 0 0 0
5458 0 0 0
5459 0 0 0
5425 0 0 0
5432 0 0 0
5457 0 0 0
5753 0 0 0
5754 0 0 0
5755 0 0 0
5756 0 0 0
5691 0 0 0
5692 0 0 0
5693 0 0 0
5697 0 0 0
5712 0 0 0
5607 0 0 0
5622 0 0 0
5626 0 0 0
5627 0 0 0
5714 0 0 0
5530 0 0 0
5531 0 0 0
5624 0 0 0
5625 0 0 0
5529 0 0 0
5535 0 0 0
5550 0 0 0
5552 0 0 0
5463 0 0 0
5477 0 0 0
5479 0 0 0
5480 0 0 0
5481 0 0 0
5760 0 0 0
5772 0 0 0
5799 0 0 0
5716 0 0 0
5717 0 0 0
5774 0 0 0
5775 0 0 0
5776 0 0 0
5777 0 0 0
5715 0 0 0
5721 0 0 0
5734 0 0 0
5631 0 0 0
5646 0 0 0
5648 0 0 0
5650 0 0 0
5651 0 0 0
5736 0 0 0
5554 0 0 0
5555 0 0 0
5649 0 0 0
5483 0 0 0
5492 0 0 0
5553 0 0 0
5559 0 0 0
5572 0 0 0
5574 0 0 0
5665 0 0 0
5666 0 0 0
5667 0 0 0
5668 0 0 0
5674 0 0 0
5581 0 0 0
5582 0 0 0
5586 0 0 0
5588 0 0 0
5498 0 0 0
5502 0 0 0
5587 0 0 0
5590 0 0 0
5438 0 0 0
5497 0 0 0
5500 0 0 0
5501 0 0 0
5510 0 0 0
5437 0 0 0
5442 0 0 0
5443 0 0 0
5444 0 0 0
5446 0 0 0
5413 0 0 0
5414 0 0 0
5416 0 0 0
5417 0 0 0
5676 0 0 0
5592 0 0 0
5675 0 0 0
5678 0 0 0
5591 0 0 0
5604 0 0 0
5511 0 0 0
5512 0 0 0
5514 0 0 0
5448 0 0 0
5424 0 0 0
5447 0 0 0
5460 0 0 0
5746 0 0 0
5747 0 0 0
5748 0 0 0
5749 0 0 0
5757 0 0 0
5679 0 0 0
5680 0 0 0
5694 0 0 0
5696 0 0 0
5606 0 0 0
5610 0 0 0
5695 0 0 0
5698 0 0 0
5516 0 0 0
5605 0 0 0
5608 0 0 0
5609 0 0 0
5628 0 0 0
5515 0 0 0
5532 0 0 0
5533 0 0 0
5534 0 0 0
5536 0 0 0
5461 0 0 0
5462 0 0 0
5464 0 0 0
5465 0 0 0
5759 0 0 0
5794 0 0 0
5795 0 0 0
5700 0 0 0
5758 0 0 0
5761 0 0 0
5762 0 0 0
5763 0 0 0
5778 0 0 0
5699 0 0 0
5718 0 0 0
5720 0 0 0
5629 0 0 0
5630 0 0 0
5632 0 0 0
5634 0 0 0
5719 0 0 0
5722 0 0 0
5538 0 0 0
5633 0 0 0
5652 0 0 0
5482 0 0 0
5537 0 0 0
5556 0 0 0
5557 0 0 0
5558 0 0 0
5560 0 0 0
6039 0 0 0
6055 0 0 0
6056 0 0 0
5962 0 0 0
5963 0 0 0
5877 0 0 0
5893 0 0 0
5961 0 0 0
5894 0 0 0
5834 0 0 0
5835 0 0 0
5836 0 0 0
5809 0 0 0
5812 0 0 0
6058 0 0 0
6059 0 0 0
6131 0 0 0
5967 0 0 0
5983 0 0 0
6057 0 0 0
6063 0 0 0
6079 0 0 0
6080 0 0 0
5984 0 0 0
5986 0 0 0
5987 0 0 0
5895 0 0 0
5896 0 0 0
5897 0 0 0
5901 0 0 0
5916 0 0 0
5985 0 0 0
5840 0 0 0
5850 0 0 0
5917 0 0 0
5813 0 0 0
5814 0 0 0
5851 0 0 0
5852 0 0 0
5853 0 0 0
5854 0 0 0
6135 0 0 0
6149 0 0 0
6150 0 0 0
6152 0 0 0
6153 0 0 0
6082 0 0 0
6083 0 0 0
6087 0 0 0
6097 0 0 0
6151 0 0 0
5991 0 0 0
6005 0 0 0
6081 0 0 0
6098 0 0 0
6006 0 0 0
6007 0 0 0
6008 0 0 0
6009 0 0 0
5918 0 0 0
5919 0 0 0
5920 0 0 0
5924 0 0 0
5932 0 0 0
5857 0 0 0
5860 0 0 0
5861 0 0 0
5862 0 0 0
5933 0 0 0
6185 0 0 0
6157 0 0 0
6163 0 0 0
6164 0 0 0
6100 0 0 0
6101 0 0 0
6013 0 0 0
6019 0 0 0
6099 0 0 0
6020 0 0 0
5934 0 0 0
5935 0 0 0
5936 0 0 0
6037 0 0 0
6038 0 0 0
6040 0 0 0
5949 0 0 0
5876 0 0 0
5947 0 0 0
5964 0 0 0
5875 0 0 0
5878 0 0 0
5821 0 0 0
5823 0 0 0
5837 0 0 0
5808 0 0 0
6043 0 0 0
6118 0 0 0
6132 0 0 0
5966 0 0 0
6041 0 0 0
6060 0 0 0
6061 0 0 0
6062 0 0 0
6064 0 0 0
5965 0 0 0
5968 0 0 0
5971 0 0 0
5879 0 0 0
5881 0 0 0
5898 0 0 0
5900 0 0 0
5969 0 0 0
5988 0 0 0
5839 0 0 0
5899 0 0 0
5902 0 0 0
5811 0 0 0
5838 0 0 0
5841 0 0 0
5842 0 0 0
5844 0 0 0
5855 0 0 0
6133 0 0 0
6134 0 0 0
6136 0 0 0
6139 0 0 0
6067 0 0 0
6086 0 0 0
6137 0 0 0
6154 0 0 0
5990 0 0 0
6065 0 0 0
6084 0 0 0
6085 0 0 0
6088 0 0 0
5989 0 0 0
5992 0 0 0
5993 0 0 0
5995 0 0 0
6010 0 0 0
5903 0 0 0
5905 0 0 0
5921 0 0 0
5923 0 0 0
5856 0 0 0
5859 0 0 0
5922 0 0 0
5925 0 0 0
6178 0 0 0
6186 0 0 0
6155 0 0 0
6156 0 0 0
6158 0 0 0
6091 0 0 0
6012 0 0 0
6089 0 0 0
6102 0 0 0
6011 0 0 0
6014 0 0 0
5926 0 0 0
5928 0 0 0
5937 0 0 0
6027 0 0 0
6028 0 0 0
6029 0 0 0
5943 0 0 0
5948 0 0 0
5866 0 0 0
5867 0 0 0
5950 0 0 0
5865 0 0 0
5817 0 0 0
5822 0 0 0
5824 0 0 0
5804 0 0 0
5805 0 0 0
6033 0 0 0
6042 0 0 0
6119 0 0 0
5952 0 0 0
5953 0 0 0
6044 0 0 0
6045 0 0 0
6046 0 0 0
6047 0 0 0
5951 0 0 0
5957 0 0 0
5970 0 0 0
5871 0 0 0
5880 0 0 0
5882 0 0 0
5884 0 0 0
5885 0 0 0
5972 0 0 0
5826 0 0 0
5827 0 0 0
5883 0 0 0
5807 0 0 0
5810 0 0 0
5825 0 0 0
5831 0 0 0
5843 0 0 0
5845 0 0 0
6120 0 0 0
6121 0 0 0
6122 0 0 0
6126 0 0 0
6138 0 0 0
6051 0 0 0
6066 0 0 0
6070 0 0 0
6071 0 0 0
6140 0 0 0
5974 0 0 0
5975 0 0 0
6068 0 0 0
6069 0 0 0
5973 0 0 0
5979 0 0 0
5994 0 0 0
5996 0 0 0
5889 0 0 0
5904 0 0 0
5906 0 0 0
5908 0 0 0
5909 0 0 0
5846 0 0 0
5847 0 0 0
5849 0 0 0
5858 0 0 0
5907 0 0 0
6179 0 0 0
6141 0 0 0
6142 0 0 0
6143 0 0 0
6075 0 0 0
6090 0 0 0
5998 0 0 0
5999 0 0 0
6092 0 0 0
5997 0 0 0
5913 0 0 0
5927 0 0 0
5929 0 0 0
6025 0 0 0
6026 0 0 0
6030 0 0 0
5942 0 0 0
5864 0 0 0
5941 0 0 0
5944 0 0 0
5863 0 0 0
5868 0 0 0
5815 0 0 0
5816 0 0 0
5818 0 0 0
5803 0 0 0
6032 0 0 0
6112 0 0 0
6113 0 0 0
5946 0 0 0
6031 0 0 0
6034 0 0 0
6035 0 0 0
6036 0 0 0
6048 0 0 0
5945 0 0 0
5954 0 0 0
5956 0 0 0
5869 0 0 0
5870 0 0 0
5872 0 0 0
5874 0 0 0
5955 0 0 0
5958 0 0 0
5820 0 0 0
5873 0 0 0
5886 0 0 0
5806 0 0 0
5819 0 0 0
5828 0 0 0
5829 0 0 0
5830 0 0 0
5832 0 0 0
6114 0 0 0
6115 0 0 0
6123 0 0 0
6125 0 0 0
6050 0 0 0
6054 0 0 0
6124 0 0 0
6127 0 0 0
5960 0 0 0
6049 0 0 0
6052 0 0 0
6053 0 0 0
6072 0 0 0
5959 0 0 0
5976 0 0 0
5977 0 0 0
5978 0 0 0
5980 0 0 0
5887 0 0 0
5888 0 0 0
5890 0 0 0
5892 0 0 0
5833 0 0 0
5848 0 0 0
5891 0 0 0
5910 0 0 0
6172 0 0 0
6173 0 0 0
6128 0 0 0
6129 0 0 0
6144 0 0 0
6074 0 0 0
5982 0 0 0
6073 0 0 0
6076 0 0 0
5981 0 0 0
6000 0 0 0
5911 0 0 0
5912 0 0 0
5914 0 0 0
6189 0 0 0
6191 0 0 0
6192 0 0 0
6412 0 0 0
6413 0 0 0
6166 0 0 0
6167 0 0 0
6321 0 0 0
6337 0 0 0
6411 0 0 0
6105 0 0 0
6107 0 0 0
6165 0 0 0
6338 0 0 0
6108 0 0 0
6255 0 0 0
6256 0 0 0
6257 0 0 0
6021 0 0 0
6022 0 0 0
6023 0 0 0
6212 0 0 0
6222 0 0 0
5939 0 0 0
5940 0 0 0
6197 0 0 0
6198 0 0 0
6223 0 0 0
6493 0 0 0
6497 0 0 0
6513 0 0 0
6514 0 0 0
6417 0 0 0
6433 0 0 0
6434 0 0 0
6436 0 0 0
6437 0 0 0
6340 0 0 0
6341 0 0 0
6345 0 0 0
6361 0 0 0
6435 0 0 0
6261 0 0 0
6276 0 0 0
6339 0 0 0
6362 0 0 0
6277 0 0 0
6278 0 0 0
6279 0 0 0
6280 0 0 0
6224 0 0 0
6225 0 0 0
6226 0 0 0
6229 0 0 0
6232 0 0 0
6516 0 0 0
6517 0 0 0
6563 0 0 0
6441 0 0 0
6455 0 0 0
6515 0 0 0
6521 0 0 0
6531 0 0 0
6532 0 0 0
6456 0 0 0
6458 0 0 0
6459 0 0 0
6363 0 0 0
6364 0 0 0
6365 0 0 0
6369 0 0 0
6379 0 0 0
6457 0 0 0
6284 0 0 0
6294 0 0 0
6380 0 0 0
6233 0 0 0
6234 0 0 0
6295 0 0 0
6296 0 0 0
6297 0 0 0
6298 0 0 0
6567 0 0 0
6573 0 0 0
6574 0 0 0
6534 0 0 0
6535 0 0 0
6463 0 0 0
6469 0 0 0
6533 0 0 0
6470 0 0 0
6381 0 0 0
6382 0 0 0
6383 0 0 0
6301 0 0 0
6304 0 0 0
6187 0 0 0
6188 0 0 0
6190 0 0 0
6399 0 0 0
6161 0 0 0
6320 0 0 0
6397 0 0 0
6414 0 0 0
6104 0 0 0
6159 0 0 0
6168 0 0 0
6319 0 0 0
6322 0 0 0
6103 0 0 0
6106 0 0 0
6241 0 0 0
6243 0 0 0
6258 0 0 0
6015 0 0 0
6017 0 0 0
6024 0 0 0
6211 0 0 0
5938 0 0 0
6196 0 0 0
6210 0 0 0
6213 0 0 0
6481 0 0 0
6494 0 0 0
6495 0 0 0
6496 0 0 0
6498 0 0 0
6415 0 0 0
6416 0 0 0
6418 0 0 0
6421 0 0 0
6325 0 0 0
6344 0 0 0
6419 0 0 0
6438 0 0 0
6260 0 0 0
6323 0 0 0
6342 0 0 0
6343 0 0 0
6346 0 0 0
6259 0 0 0
6262 0 0 0
6263 0 0 0
6265 0 0 0
6281 0 0 0
6214 0 0 0
6216 0 0 0
6227 0 0 0
6228 0 0 0
6501 0 0 0
6552 0 0 0
6564 0 0 0
6440 0 0 0
6499 0 0 0
6518 0 0 0
6519 0 0 0
6520 0 0 0
6522 0 0 0
6439 0 0 0
6442 0 0 0
6445 0 0 0
6347 0 0 0
6349 0 0 0
6366 0 0 0
6368 0 0 0
6443 0 0 0
6460 0 0 0
6283 0 0 0
6367 0 0 0
6370 0 0 0
6231 0 0 0
6282 0 0 0
6285 0 0 0
6286 0 0 0
6288 0 0 0
6299 0 0 0
6565 0 0 0
6566 0 0 0
6568 0 0 0
6525 0 0 0
6462 0 0 0
6523 0 0 0
6536 0 0 0
6461 0 0 0
6464 0 0 0
6371 0 0 0
6373 0 0 0
6384 0 0 0
6300 0 0 0
6180 0 0 0
6181 0 0 0
6182 0 0 0
6393 0 0 0
6398 0 0 0
6147 0 0 0
6160 0 0 0
6310 0 0 0
6311 0 0 0
6400 0 0 0
6094 0 0 0
6095 0 0 0
6162 0 0 0
6309 0 0 0
6093 0 0 0
6237 0 0 0
6242 0 0 0
6244 0 0 0
6003 0 0 0
6016 0 0 0
6018 0 0 0
6202 0 0 0
6203 0 0 0
5930 0 0 0
5931 0 0 0
6194 0 0 0
6195 0 0 0
6201 0 0 0
6482 0 0 0
6483 0 0 0
6484 0 0 0
6485 0 0 0
6401 0 0 0
6402 0 0 0
6403 0 0 0
6407 0 0 0
6420 0 0 0
6315 0 0 0
6324 0 0 0
6328 0 0 0
6329 0 0 0
6422 0 0 0
6246 0 0 0
6247 0 0 0
6326 0 0 0
6327 0 0 0
6245 0 0 0
6251 0 0 0
6264 0 0 0
6266 0 0 0
6207 0 0 0
6215 0 0 0
6217 0 0 0
6218 0 0 0
6219 0 0 0
6489 0 0 0
6500 0 0 0
6553 0 0 0
6424 0 0 0
6425 0 0 0
6502 0 0 0
6503 0 0 0
6504 0 0 0
6505 0 0 0
6423 0 0 0
6429 0 0 0
6444 0 0 0
6333 0 0 0
6348 0 0 0
6350 0 0 0
6352 0 0 0
6353 0 0 0
6446 0 0 0
6268 0 0 0
6269 0 0 0
6351 0 0 0
6221 0 0 0
6230 0 0 0
6267 0 0 0
6273 0 0 0
6287 0 0 0
6289 0 0 0
6554 0 0 0
6555 0 0 0
6556 0 0 0
6509 0 0 0
6524 0 0 0
6448 0 0 0
6449 0 0 0
6526 0 0 0
6447 0 0 0
6357 0 0 0
6372 0 0 0
6374 0 0 0
6290 0 0 0
6291 0 0 0
6174 0 0 0
6175 0 0 0
6183 0 0 0
6392 0 0 0
6146 0 0 0
6308 0 0 0
6391 0 0 0
6394 0 0 0
6078 0 0 0
6145 0 0 0
6148 0 0 0
6307 0 0 0
6312 0 0 0
6077 0 0 0
6096 0 0 0
6235 0 0 0
6236 0 0 0
6238 0 0 0
6001 0 0 0
6002 0 0 0
6004 0 0 0
6200 0 0 0
5915 0 0 0
6193 0 0 0
6199 0 0 0
6204 0 0 0
6476 0 0 0
6477 0 0 0
6478 0 0 0
6479 0 0 0
6486 0 0 0
6395 0 0 0
6396 0 0 0
6404 0 0 0
6406 0 0 0
6314 0 0 0
6318 0 0 0
6405 0 0 0
6408 0 0 0
6240 0 0 0
6313 0 0 0
6316 0 0 0
6317 0 0 0
6330 0 0 0
6239 0 0 0
6248 0 0 0
6249 0 0 0
6250 0 0 0
6252 0 0 0
6205 0 0 0
6206 0 0 0
6208 0 0 0
6209 0 0 0
6488 0 0 0
6546 0 0 0
6547 0 0 0
6410 0 0 0
6487 0 0 0
6490 0 0 0
6491 0 0 0
6492 0 0 0
6506 0 0 0
6409 0 0 0
6426 0 0 0
6428 0 0 0
6331 0 0 0
6332 0 0 0
6334 0 0 0
6336 0 0 0
6427 0 0 0
6430 0 0 0
6254 0 0 0
6335 0 0 0
6354 0 0 0
6220 0 0 0
6253 0 0 0
6270 0 0 0
6271 0 0 0
6272 0 0 0
6274 0 0 0
6548 0 0 0
6549 0 0 0
6557 0 0 0
6508 0 0 0
6432 0 0 0
6507 0 0 0
6510 0 0 0
6431 0 0 0
6450 0 0 0
6355 0 0 0
6356 0 0 0
6358 0 0 0
6275 0 0 0
6576 0 0 0
6577 0 0 0
6826 0 0 0
6539 0 0 0
6541 0 0 0
6575 0 0 0
6752 0 0 0
6768 0 0 0
6769 0 0 0
6542 0 0 0
6687 0 0 0
6688 0 0 0
6471 0 0 0
6472 0 0 0
6473 0 0 0
6620 0 0 0
6635 0 0 0
6686 0 0 0
6387 0 0 0
6389 0 0 0
6636 0 0 0
6305 0 0 0
6306 0 0 0
6390 0 0 0
6595 0 0 0
6596 0 0 0
6597 0 0 0
6830 0 0 0
6846 0 0 0
6847 0 0 0
6849 0 0 0
6850 0 0 0
6771 0 0 0
6772 0 0 0
6776 0 0 0
6790 0 0 0
6848 0 0 0
6692 0 0 0
6708 0 0 0
6770 0 0 0
6791 0 0 0
6709 0 0 0
6710 0 0 0
6711 0 0 0
6712 0 0 0
6637 0 0 0
6638 0 0 0
6639 0 0 0
6643 0 0 0
6653 0 0 0
6600 0 0 0
6603 0 0 0
6604 0 0 0
6605 0 0 0
6654 0 0 0
6896 0 0 0
6854 0 0 0
6864 0 0 0
6865 0 0 0
6793 0 0 0
6794 0 0 0
6716 0 0 0
6726 0 0 0
6792 0 0 0
6727 0 0 0
6655 0 0 0
6656 0 0 0
6657 0 0 0
6900 0 0 0
6906 0 0 0
6907 0 0 0
6909 0 0 0
6910 0 0 0
6867 0 0 0
6868 0 0 0
6872 0 0 0
6874 0 0 0
6908 0 0 0
6798 0 0 0
6804 0 0 0
6866 0 0 0
6875 0 0 0
6805 0 0 0
6806 0 0 0
6807 0 0 0
6808 0 0 0
6728 0 0 0
6729 0 0 0
6730 0 0 0
6734 0 0 0
6736 0 0 0
6660 0 0 0
6663 0 0 0
6664 0 0 0
6665 0 0 0
6737 0 0 0
6571 0 0 0
6814 0 0 0
6827 0 0 0
6538 0 0 0
6569 0 0 0
6578 0 0 0
6750 0 0 0
6751 0 0 0
6753 0 0 0
6537 0 0 0
6540 0 0 0
6674 0 0 0
6465 0 0 0
6467 0 0 0
6474 0 0 0
6619 0 0 0
6672 0 0 0
6689 0 0 0
6386 0 0 0
6618 0 0 0
6621 0 0 0
6303 0 0 0
6385 0 0 0
6388 0 0 0
6587 0 0 0
6589 0 0 0
6598 0 0 0
6828 0 0 0
6829 0 0 0
6831 0 0 0
6834 0 0 0
6756 0 0 0
6775 0 0 0
6832 0 0 0
6851 0 0 0
6691 0 0 0
6754 0 0 0
6773 0 0 0
6774 0 0 0
6777 0 0 0
6690 0 0 0
6693 0 0 0
6694 0 0 0
6696 0 0 0
6713 0 0 0
6622 0 0 0
6624 0 0 0
6640 0 0 0
6642 0 0 0
6599 0 0 0
6602 0 0 0
6641 0 0 0
6644 0 0 0
6885 0 0 0
6897 0 0 0
6852 0 0 0
6853 0 0 0
6855 0 0 0
6780 0 0 0
6715 0 0 0
6778 0 0 0
6795 0 0 0
6714 0 0 0
6717 0 0 0
6645 0 0 0
6647 0 0 0
6658 0 0 0
6898 0 0 0
6899 0 0 0
6901 0 0 0
6904 0 0 0
6858 0 0 0
6871 0 0 0
6902 0 0 0
6911 0 0 0
6797 0 0 0
6856 0 0 0
6869 0 0 0
6870 0 0 0
6873 0 0 0
6796 0 0 0
6799 0 0 0
6800 0 0 0
6802 0 0 0
6809 0 0 0
6718 0 0 0
6720 0 0 0
6731 0 0 0
6733 0 0 0
6659 0 0 0
6662 0 0 0
6732 0 0 0
6735 0 0 0
6560 0 0 0
6570 0 0 0
6815 0 0 0
6528 0 0 0
6529 0 0 0
6572 0 0 0
6740 0 0 0
6741 0 0 0
6742 0 0 0
6527 0 0 0
6668 0 0 0
6673 0 0 0
6453 0 0 0
6466 0 0 0
6468 0 0 0
6609 0 0 0
6610 0 0 0
6675 0 0 0
6376 0 0 0
6377 0 0 0
6608 0 0 0
6293 0 0 0
6302 0 0 0
6375 0 0 0
6584 0 0 0
6588 0 0 0
6590 0 0 0
6816 0 0 0
6817 0 0 0
6818 0 0 0
6822 0 0 0
6833 0 0 0
6746 0 0 0
6755 0 0 0
6759 0 0 0
6760 0 0 0
6835 0 0 0
6677 0 0 0
6678 0 0 0
6757 0 0 0
6758 0 0 0
6676 0 0 0
6682 0 0 0
6695 0 0 0
6697 0 0 0
6614 0 0 0
6623 0 0 0
6625 0 0 0
6627 0 0 0
6628 0 0 0
6591 0 0 0
6592 0 0 0
6594 0 0 0
6601 0 0 0
6626 0 0 0
6886 0 0 0
6836 0 0 0
6837 0 0 0
6838 0 0 0
6764 0 0 0
6779 0 0 0
6699 0 0 0
6700 0 0 0
6781 0 0 0
6698 0 0 0
6632 0 0 0
6646 0 0 0
6648 0 0 0
6887 0 0 0
6888 0 0 0
6889 0 0 0
6893 0 0 0
6903 0 0 0
6842 0 0 0
6857 0 0 0
6861 0 0 0
6862 0 0 0
6905 0 0 0
6783 0 0 0
6784 0 0 0
6859 0 0 0
6860 0 0 0
6782 0 0 0
6788 0 0 0
6801 0 0 0
6803 0 0 0
6704 0 0 0
6719 0 0 0
6721 0 0 0
6723 0 0 0
6724 0 0 0
6649 0 0 0
6650 0 0 0
6652 0 0 0
6661 0 0 0
6722 0 0 0
6559 0 0 0
6810 0 0 0
6811 0 0 0
6512 0 0 0
6558 0 0 0
6561 0 0 0
6738 0 0 0
6739 0 0 0
6743 0 0 0
6511 0 0 0
6530 0 0 0
6667 0 0 0
6451 0 0 0
6452 0 0 0
6454 0 0 0
6607 0 0 0
6666 0 0 0
6669 0 0 0
6360 0 0 0
6606 0 0 0
6611 0 0 0
6292 0 0 0
6359 0 0 0
6378 0 0 0
6582 0 0 0
6583 0 0 0
6585 0 0 0
6812 0 0 0
6813 0 0 0
6819 0 0 0
6821 0 0 0
6745 0 0 0
6749 0 0 0
6820 0 0 0
6823 0 0 0
6671 0 0 0
6744 0 0 0
6747 0 0 0
6748 0 0 0
6761 0 0 0
6670 0 0 0
6679 0 0 0
6680 0 0 0
6681 0 0 0
6683 0 0 0
6612 0 0 0
6613 0 0 0
6615 0 0 0
6617 0 0 0
6586 0 0 0
6593 0 0 0
6616 0 0 0
6629 0 0 0
6879 0 0 0
6880 0 0 0
6824 0 0 0
6825 0 0 0
6839 0 0 0
6763 0 0 0
6685 0 0 0
6762 0 0 0
6765 0 0 0
6684 0 0 0
6701 0 0 0
6630 0 0 0
6631 0 0 0
6633 0 0 0
6881 0 0 0
6882 0 0 0
6890 0 0 0
6892 0 0 0
6841 0 0 0
6845 0 0 0
6891 0 0 0
6894 0 0 0
6767 0 0 0
6840 0 0 0
6843 0 0 0
6844 0 0 0
6863 0 0 0
6766 0 0 0
6785 0 0 0
6786 0 0 0
6787 0 0 0
6789 0 0 0
6702 0 0 0
6703 0 0 0
6705 0 0 0
6707 0 0 0
6634 0 0 0
6651 0 0 0
6706 0 0 0
6725 0 0 0
7186 0 0 0
7190 0 0 0
7206 0 0 0
7207 0 0 0
7100 0 0 0
7116 0 0 0
7117 0 0 0
7119 0 0 0
7120 0 0 0
7023 0 0 0
7024 0 0 0
7028 0 0 0
7044 0 0 0
7118 0 0 0
6956 0 0 0
6971 0 0 0
7022 0 0 0
7045 0 0 0
6972 0 0 0
6973 0 0 0
6974 0 0 0
6975 0 0 0
6931 0 0 0
6932 0 0 0
6933 0 0 0
6936 0 0 0
6939 0 0 0
7209 0 0 0
7210 0 0 0
7124 0 0 0
7140 0 0 0
7208 0 0 0
7141 0 0 0
7046 0 0 0
7047 0 0 0
7048 0 0 0
6979 0 0 0
6989 0 0 0
6940 0 0 0
6941 0 0 0
6990 0 0 0
7270 0 0 0
7274 0 0 0
7284 0 0 0
7285 0 0 0
7214 0 0 0
7228 0 0 0
7229 0 0 0
7231 0 0 0
7232 0 0 0
7143 0 0 0
7144 0 0 0
7148 0 0 0
7158 0 0 0
7230 0 0 0
7052 0 0 0
7066 0 0 0
7142 0 0 0
7159 0 0 0
7067 0 0 0
7068 0 0 0
7069 0 0 0
7070 0 0 0
6991 0 0 0
6992 0 0 0
6993 0 0 0
6996 0 0 0
6999 0 0 0
7287 0 0 0
7288 0 0 0
7306 0 0 0
7236 0 0 0
7242 0 0 0
7286 0 0 0
7292 0 0 0
7294 0 0 0
7295 0 0 0
7243 0 0 0
7245 0 0 0
7246 0 0 0
7160 0 0 0
7161 0 0 0
7162 0 0 0
7166 0 0 0
7168 0 0 0
7244 0 0 0
7074 0 0 0
7080 0 0 0
7169 0 0 0
7000 0 0 0
7001 0 0 0
7081 0 0 0
7082 0 0 0
7083 0 0 0
7084 0 0 0
7174 0 0 0
7187 0 0 0
7188 0 0 0
7189 0 0 0
7191 0 0 0
7098 0 0 0
7099 0 0 0
7101 0 0 0
7104 0 0 0
7010 0 0 0
7027 0 0 0
7102 0 0 0
7121 0 0 0
6955 0 0 0
7008 0 0 0
7025 0 0 0
7026 0 0 0
7029 0 0 0
6954 0 0 0
6957 0 0 0
6958 0 0 0
6960 0 0 0
6976 0 0 0
6923 0 0 0
6925 0 0 0
6934 0 0 0
6935 0 0 0
7194 0 0 0
7123 0 0 0
7192 0 0 0
7211 0 0 0
7122 0 0 0
7125 0 0 0
7030 0 0 0
7032 0 0 0
7049 0 0 0
6978 0 0 0
6938 0 0 0
6977 0 0 0
6980 0 0 0
7257 0 0 0
7271 0 0 0
7272 0 0 0
7273 0 0 0
7275 0 0 0
7212 0 0 0
7213 0 0 0
7215 0 0 0
7218 0 0 0
7128 0 0 0
7147 0 0 0
7216 0 0 0
7233 0 0 0
7051 0 0 0
7126 0 0 0
7145 0 0 0
7146 0 0 0
7149 0 0 0
7050 0 0 0
7053 0 0 0
7054 0 0 0
7056 0 0 0
7071 0 0 0
6981 0 0 0
6983 0 0 0
6994 0 0 0
6995 0 0 0
7278 0 0 0
7303 0 0 0
7307 0 0 0
7235 0 0 0
7276 0 0 0
7289 0 0 0
7290 0 0 0
7291 0 0 0
7293 0 0 0
7234 0 0 0
7237 0 0 0
7240 0 0 0
7150 0 0 0
7152 0 0 0
7163 0 0 0
7165 0 0 0
7238 0 0 0
7247 0 0 0
7073 0 0 0
7164 0 0 0
7167 0 0 0
6998 0 0 0
7072 0 0 0
7075 0 0 0
7076 0 0 0
7078 0 0 0
7085 0 0 0
7175 0 0 0
7176 0 0 0
7177 0 0 0
7178 0 0 0
7088 0 0 0
7089 0 0 0
7090 0 0 0
7094 0 0 0
7103 0 0 0
7004 0 0 0
7009 0 0 0
7013 0 0 0
7014 0 0 0
7105 0 0 0
6945 0 0 0
6946 0 0 0
7011 0 0 0
7012 0 0 0
6944 0 0 0
6950 0 0 0
6959 0 0 0
6961 0 0 0
6920 0 0 0
6924 0 0 0
6926 0 0 0
6927 0 0 0
6928 0 0 0
7182 0 0 0
7193 0 0 0
7107 0 0 0
7108 0 0 0
7195 0 0 0
7106 0 0 0
7018 0 0 0
7031 0 0 0
7033 0 0 0
6963 0 0 0
6964 0 0 0
6930 0 0 0
6937 0 0 0
6962 0 0 0
7258 0 0 0
7259 0 0 0
7260 0 0 0
7261 0 0 0
7196 0 0 0
7197 0 0 0
7198 0 0 0
7202 0 0 0
7217 0 0 0
7112 0 0 0
7127 0 0 0
7131 0 0 0
7132 0 0 0
7219 0 0 0
7035 0 0 0
7036 0 0 0
7129 0 0 0
7130 0 0 0
7034 0 0 0
7040 0 0 0
7055 0 0 0
7057 0 0 0
6968 0 0 0
6982 0 0 0
6984 0 0 0
6985 0 0 0
6986 0 0 0
7265 0 0 0
7277 0 0 0
7304 0 0 0
7221 0 0 0
7222 0 0 0
7279 0 0 0
7280 0 0 0
7281 0 0 0
7282 0 0 0
7220 0 0 0
7226 0 0 0
7239 0 0 0
7136 0 0 0
7151 0 0 0
7153 0 0 0
7155 0 0 0
7156 0 0 0
7241 0 0 0
7059 0 0 0
7060 0 0 0
7154 0 0 0
6988 0 0 0
6997 0 0 0
7058 0 0 0
7064 0 0 0
7077 0 0 0
7079 0 0 0
7170 0 0 0
7171 0 0 0
7172 0 0 0
7173 0 0 0
7179 0 0 0
7086 0 0 0
7087 0 0 0
7091 0 0 0
7093 0 0 0
7003 0 0 0
7007 0 0 0
7092 0 0 0
7095 0 0 0
6943 0 0 0
7002 0 0 0
7005 0 0 0
7006 0 0 0
7015 0 0 0
6942 0 0 0
6947 0 0 0
6948 0 0 0
6949 0 0 0
6951 0 0 0
6918 0 0 0
6919 0 0 0
6921 0 0 0
6922 0 0 0
7181 0 0 0
7097 0 0 0
7180 0 0 0
7183 0 0 0
7096 0 0 0
7109 0 0 0
7016 0 0 0
7017 0 0 0
7019 0 0 0
6953 0 0 0
6929 0 0 0
6952 0 0 0
6965 0 0 0
7251 0 0 0
7252 0 0 0
7253 0 0 0
7254 0 0 0
7262 0 0 0
7184 0 0 0
7185 0 0 0
7199 0 0 0
7201 0 0 0
7111 0 0 0
7115 0 0 0
7200 0 0 0
7203 0 0 0
7021 0 0 0
7110 0 0 0
7113 0 0 0
7114 0 0 0
7133 0 0 0
7020 0 0 0
7037 0 0 0
7038 0 0 0
7039 0 0 0
7041 0 0 0
6966 0 0 0
6967 0 0 0
6969 0 0 0
6970 0 0 0
7264 0 0 0
7299 0 0 0
7300 0 0 0
7205 0 0 0
7263 0 0 0
7266 0 0 0
7267 0 0 0
7268 0 0 0
7283 0 0 0
7204 0 0 0
7223 0 0 0
7225 0 0 0
7134 0 0 0
7135 0 0 0
7137 0 0 0
7139 0 0 0
7224 0 0 0
7227 0 0 0
7043 0 0 0
7138 0 0 0
7157 0 0 0
6987 0 0 0
7042 0 0 0
7061 0 0 0
7062 0 0 0
7063 0 0 0
7065 0 0 0
7544 0 0 0
7560 0 0 0
7561 0 0 0
7467 0 0 0
7468 0 0 0
7382 0 0 0
7398 0 0 0
7466 0 0 0
7399 0 0 0
7339 0 0 0
7340 0 0 0
7341 0 0 0
7314 0 0 0
7317 0 0 0
7563 0 0 0
7564 0 0 0
7634 0 0 0
7472 0 0 0
7488 0 0 0
7562 0 0 0
7568 0 0 0
7584 0 0 0
7585 0 0 0
7489 0 0 0
7491 0 0 0
7492 0 0 0
7400 0 0 0
7401 0 0 0
7402 0 0 0
7406 0 0 0
7421 0 0 0
7490 0 0 0
7345 0 0 0
7355 0 0 0
7422 0 0 0
7318 0 0 0
7319 0 0 0
7356 0 0 0
7357 0 0 0
7358 0 0 0
7359 0 0 0
7638 0 0 0
7652 0 0 0
7653 0 0 0
7655 0 0 0
7656 0 0 0
7587 0 0 0
7588 0 0 0
7592 0 0 0
7602 0 0 0
7654 0 0 0
7496 0 0 0
7510 0 0 0
7586 0 0 0
7603 0 0 0
7511 0 0 0
7512 0 0 0
7513 0 0 0
7514 0 0 0
7423 0 0 0
7424 0 0 0
7425 0 0 0
7429 0 0 0
7437 0 0 0
7362 0 0 0
7365 0 0 0
7366 0 0 0
7367 0 0 0
7438 0 0 0
7688 0 0 0
7692 0 0 0
7694 0 0 0
7695 0 0 0
7660 0 0 0
7666 0 0 0
7667 0 0 0
7669 0 0 0
7670 0 0 0
7605 0 0 0
7606 0 0 0
7610 0 0 0
7612 0 0 0
7668 0 0 0
7518 0 0 0
7524 0 0 0
7604 0 0 0
7613 0 0 0
7525 0 0 0
7526 0 0 0
7527 0 0 0
7528 0 0 0
7439 0 0 0
7440 0 0 0
7441 0 0 0
7444 0 0 0
7445 0 0 0
7542 0 0 0
7543 0 0 0
7545 0 0 0
7454 0 0 0
7381 0 0 0
7452 0 0 0
7469 0 0 0
7380 0 0 0
7383 0 0 0
7326 0 0 0
7328 0 0 0
7342 0 0 0
7313 0 0 0
7548 0 0 0
7622 0 0 0
7635 0 0 0
7471 0 0 0
7546 0 0 0
7565 0 0 0
7566 0 0 0
7567 0 0 0
7569 0 0 0
7470 0 0 0
7473 0 0 0
7476 0 0 0
7384 0 0 0
7386 0 0 0
7403 0 0 0
7405 0 0 0
7474 0 0 0
7493 0 0 0
7344 0 0 0
7404 0 0 0
7407 0 0 0
7316 0 0 0
7343 0 0 0
7346 0 0 0
7347 0 0 0
7349 0 0 0
7360 0 0 0
7636 0 0 0
7637 0 0 0
7639 0 0 0
7642 0 0 0
7572 0 0 0
7591 0 0 0
7640 0 0 0
7657 0 0 0
7495 0 0 0
7570 0 0 0
7589 0 0 0
7590 0 0 0
7593 0 0 0
7494 0 0 0
7497 0 0 0
7498 0 0 0
7500 0 0 0
7515 0 0 0
7408 0 0 0
7410 0 0 0
7426 0 0 0
7428 0 0 0
7361 0 0 0
7364 0 0 0
7427 0 0 0
7430 0 0 0
7681 0 0 0
7689 0 0 0
7690 0 0 0
7691 0 0 0
7693 0 0 0
7658 0 0 0
7659 0 0 0
7661 0 0 0
7664 0 0 0
7596 0 0 0
7609 0 0 0
7662 0 0 0
7671 0 0 0
7517 0 0 0
7594 0 0 0
7607 0 0 0
7608 0 0 0
7611 0 0 0
7516 0 0 0
7519 0 0 0
7520 0 0 0
7522 0 0 0
7529 0 0 0
7431 0 0 0
7433 0 0 0
7442 0 0 0
7443 0 0 0
7532 0 0 0
7533 0 0 0
7534 0 0 0
7448 0 0 0
7453 0 0 0
7371 0 0 0
7372 0 0 0
7455 0 0 0
7370 0 0 0
7322 0 0 0
7327 0 0 0
7329 0 0 0
7309 0 0 0
7310 0 0 0
7538 0 0 0
7547 0 0 0
7623 0 0 0
7457 0 0 0
7458 0 0 0
7549 0 0 0
7550 0 0 0
7551 0 0 0
7552 0 0 0
7456 0 0 0
7462 0 0 0
7475 0 0 0
7376 0 0 0
7385 0 0 0
7387 0 0 0
7389 0 0 0
7390 0 0 0
7477 0 0 0
7331 0 0 0
7332 0 0 0
7388 0 0 0
7312 0 0 0
7315 0 0 0
7330 0 0 0
7336 0 0 0
7348 0 0 0
7350 0 0 0
7624 0 0 0
7625 0 0 0
7626 0 0 0
7630 0 0 0
7641 0 0 0
7556 0 0 0
7571 0 0 0
7575 0 0 0
7576 0 0 0
7643 0 0 0
7479 0 0 0
7480 0 0 0
7573 0 0 0
7574 0 0 0
7478 0 0 0
7484 0 0 0
7499 0 0 0
7501 0 0 0
7394 0 0 0
7409 0 0 0
7411 0 0 0
7413 0 0 0
7414 0 0 0
7351 0 0 0
7352 0 0 0
7354 0 0 0
7363 0 0 0
7412 0 0 0
7682 0 0 0
7683 0 0 0
7684 0 0 0
7685 0 0 0
7644 0 0 0
7645 0 0 0
7646 0 0 0
7650 0 0 0
7663 0 0 0
7580 0 0 0
7595 0 0 0
7599 0 0 0
7600 0 0 0
7665 0 0 0
7503 0 0 0
7504 0 0 0
7597 0 0 0
7598 0 0 0
7502 0 0 0
7508 0 0 0
7521 0 0 0
7523 0 0 0
7418 0 0 0
7432 0 0 0
7434 0 0 0
7435 0 0 0
7436 0 0 0
7530 0 0 0
7531 0 0 0
7535 0 0 0
7447 0 0 0
7369 0 0 0
7446 0 0 0
7449 0 0 0
7368 0 0 0
7373 0 0 0
7320 0 0 0
7321 0 0 0
7323 0 0 0
7308 0 0 0
7537 0 0 0
7616 0 0 0
7617 0 0 0
7451 0 0 0
7536 0 0 0
7539 0 0 0
7540 0 0 0
7541 0 0 0
7553 0 0 0
7450 0 0 0
7459 0 0 0
7461 0 0 0
7374 0 0 0
7375 0 0 0
7377 0 0 0
7379 0 0 0
7460 0 0 0
7463 0 0 0
7325 0 0 0
7378 0 0 0
7391 0 0 0
7311 0 0 0
7324 0 0 0
7333 0 0 0
7334 0 0 0
7335 0 0 0
7337 0 0 0
7618 0 0 0
7619 0 0 0
7627 0 0 0
7629 0 0 0
7555 0 0 0
7559 0 0 0
7628 0 0 0
7631 0 0 0
7465 0 0 0
7554 0 0 0
7557 0 0 0
7558 0 0 0
7577 0 0 0
7464 0 0 0
7481 0 0 0
7482 0 0 0
7483 0 0 0
7485 0 0 0
7392 0 0 0
7393 0 0 0
7395 0 0 0
7397 0 0 0
7338 0 0 0
7353 0 0 0
7396 0 0 0
7415 0 0 0
7675 0 0 0
7676 0 0 0
7677 0 0 0
7678 0 0 0
7686 0 0 0
7632 0 0 0
7633 0 0 0
7647 0 0 0
7649 0 0 0
7579 0 0 0
7583 0 0 0
7648 0 0 0
7651 0 0 0
7487 0 0 0
7578 0 0 0
7581 0 0 0
7582 0 0 0
7601 0 0 0
7486 0 0 0
7505 0 0 0
7506 0 0 0
7507 0 0 0
7509 0 0 0
7416 0 0 0
7417 0 0 0
7419 0 0 0
7420 0 0 0
7897 0 0 0
7898 0 0 0
7818 0 0 0
7834 0 0 0
7896 0 0 0
7835 0 0 0
7759 0 0 0
7760 0 0 0
7758 0 0 0
7715 0 0 0
7725 0 0 0
7726 0 0 0
7700 0 0 0
7701 0 0 0
7968 0 0 0
7972 0 0 0
7986 0 0 0
7987 0 0 0
7902 0 0 0
7918 0 0 0
7919 0 0 0
7921 0 0 0
7922 0 0 0
7837 0 0 0
7838 0 0 0
7842 0 0 0
7856 0 0 0
7920 0 0 0
7764 0 0 0
7779 0 0 0
7836 0 0 0
7857 0 0 0
7780 0 0 0
7781 0 0 0
7782 0 0 0
7783 0 0 0
7727 0 0 0
7728 0 0 0
7729 0 0 0
7732 0 0 0
7735 0 0 0
7989 0 0 0
7990 0 0 0
8021 0 0 0
7988 0 0 0
7994 0 0 0
8000 0 0 0
8001 0 0 0
7926 0 0 0
7936 0 0 0
7937 0 0 0
7939 0 0 0
7940 0 0 0
7859 0 0 0
7860 0 0 0
7864 0 0 0
7870 0 0 0
7938 0 0 0
7787 0 0 0
7795 0 0 0
7858 0 0 0
7871 0 0 0
7796 0 0 0
7797 0 0 0
7798 0 0 0
7799 0 0 0
8025 0 0 0
8027 0 0 0
8028 0 0 0
8003 0 0 0
8004 0 0 0
7944 0 0 0
7946 0 0 0
8002 0 0 0
7947 0 0 0
7872 0 0 0
7873 0 0 0
7874 0 0 0
7802 0 0 0
7803 0 0 0
7884 0 0 0
7817 0 0 0
7882 0 0 0
7899 0 0 0
7816 0 0 0
7819 0 0 0
7746 0 0 0
7744 0 0 0
7761 0 0 0
7714 0 0 0
7713 0 0 0
7716 0 0 0
7699 0 0 0
7955 0 0 0
7969 0 0 0
7970 0 0 0
7971 0 0 0
7973 0 0 0
7900 0 0 0
7901 0 0 0
7903 0 0 0
7906 0 0 0
7822 0 0 0
7841 0 0 0
7904 0 0 0
7923 0 0 0
7763 0 0 0
7820 0 0 0
7839 0 0 0
7840 0 0 0
7843 0 0 0
7762 0 0 0
7765 0 0 0
7766 0 0 0
7768 0 0 0
7784 0 0 0
7717 0 0 0
7719 0 0 0
7730 0 0 0
7731 0 0 0
7976 0 0 0
8014 0 0 0
8022 0 0 0
7974 0 0 0
7991 0 0 0
7992 0 0 0
7993 0 0 0
7995 0 0 0
7925 0 0 0
7924 0 0 0
7927 0 0 0
7930 0 0 0
7846 0 0 0
7863 0 0 0
7928 0 0 0
7941 0 0 0
7786 0 0 0
7844 0 0 0
7861 0 0 0
7862 0 0 0
7865 0 0 0
7785 0 0 0
7788 0 0 0
7789 0 0 0
7791 0 0 0
7800 0 0 0
8023 0 0 0
8024 0 0 0
8026 0 0 0
7998 0 0 0
7943 0 0 0
7996 0 0 0
8005 0 0 0
7942 0 0 0
7945 0 0 0
7866 0 0 0
7868 0 0 0
7875 0 0 0
7801 0 0 0
7878 0 0 0
7883 0 0 0
7807 0 0 0
7808 0 0 0
7885 0 0 0
7806 0 0 0
7740 0 0 0
7745 0 0 0
7747 0 0 0
7705 0 0 0
7706 0 0 0
7704 0 0 0
7697 0 0 0
7698 0 0 0
7956 0 0 0
7957 0 0 0
7958 0 0 0
7959 0 0 0
7886 0 0 0
7887 0 0 0
7888 0 0 0
7892 0 0 0
7905 0 0 0
7812 0 0 0
7821 0 0 0
7825 0 0 0
7826 0 0 0
7907 0 0 0
7749 0 0 0
7750 0 0 0
7823 0 0 0
7824 0 0 0
7748 0 0 0
7754 0 0 0
7767 0 0 0
7769 0 0 0
7710 0 0 0
7718 0 0 0
7720 0 0 0
7721 0 0 0
7722 0 0 0
7963 0 0 0
7975 0 0 0
8015 0 0 0
7977 0 0 0
7978 0 0 0
7979 0 0 0
7980 0 0 0
7909 0 0 0
7910 0 0 0
7908 0 0 0
7914 0 0 0
7929 0 0 0
7830 0 0 0
7845 0 0 0
7849 0 0 0
7850 0 0 0
7931 0 0 0
7771 0 0 0
7772 0 0 0
7847 0 0 0
7848 0 0 0
7770 0 0 0
7776 0 0 0
7790 0 0 0
7792 0 0 0
8016 0 0 0
8017 0 0 0
8018 0 0 0
7984 0 0 0
7997 0 0 0
7933 0 0 0
7934 0 0 0
7999 0 0 0
7932 0 0 0
7854 0 0 0
7867 0 0 0
7869 0 0 0
7793 0 0 0
7794 0 0 0
7877 0 0 0
7805 0 0 0
7876 0 0 0
7879 0 0 0
7804 0 0 0
7809 0 0 0
7739 0 0 0
7738 0 0 0
7741 0 0 0
7703 0 0 0
7702 0 0 0
7707 0 0 0
7696 0 0 0
7950 0 0 0
7951 0 0 0
7952 0 0 0
7953 0 0 0
7960 0 0 0
7880 0 0 0
7881 0 0 0
7889 0 0 0
7891 0 0 0
7811 0 0 0
7815 0 0 0
7890 0 0 0
7893 0 0 0
7743 0 0 0
7810 0 0 0
7813 0 0 0
7814 0 0 0
7827 0 0 0
7742 0 0 0
7751 0 0 0
7752 0 0 0
7753 0 0 0
7755 0 0 0
7708 0 0 0
7709 0 0 0
7711 0 0 0
7712 0 0 0
7962 0 0 0
8008 0 0 0
8009 0 0 0
7961 0 0 0
7964 0 0 0
7965 0 0 0
7966 0 0 0
7981 0 0 0
7895 0 0 0
7894 0 0 0
7911 0 0 0
7913 0 0 0
7829 0 0 0
7833 0 0 0
7912 0 0 0
7915 0 0 0
7757 0 0 0
7828 0 0 0
7831 0 0 0
7832 0 0 0
7851 0 0 0
7756 0 0 0
7773 0 0 0
7774 0 0 0
7775 0 0 0
7777 0 0 0
8010 0 0 0
8011 0 0 0
8019 0 0 0
7983 0 0 0
7917 0 0 0
7982 0 0 0
7985 0 0 0
7916 0 0 0
7935 0 0 0
7852 0 0 0
7853 0 0 0
7855 0 0 0
7778 0 0 0
2676 0 0 0
2686 0 0 0
8396 0 0 0
8405 0 0 0
8332 0 0 0
8349 0 0 0
8351 0 0 0
8370 0 0 0
8285 0 0 0
8304 0 0 0
8219 0 0 0
8238 0 0 0
8266 0 0 0
8283 0 0 0
8153 0 0 0
8172 0 0 0
8200 0 0 0
8217 0 0 0
8087 0 0 0
8106 0 0 0
8134 0 0 0
8151 0 0 0
2688 0 0 0
8397 0 0 0
8403 0 0 0
8415 0 0 0
8416 0 0 0
8333 0 0 0
8346 0 0 0
8371 0 0 0
8372 0 0 0
8374 0 0 0
8308 0 0 0
8242 0 0 0
8267 0 0 0
8280 0 0 0
8305 0 0 0
8306 0 0 0
8176 0 0 0
8201 0 0 0
8214 0 0 0
8239 0 0 0
8240 0 0 0
8110 0 0 0
8135 0 0 0
8148 0 0 0
8173 0 0 0
8174 0 0 0
2695 0 0 0
2697 0 0 0
8404 0 0 0
8422 0 0 0
8347 0 0 0
8386 0 0 0
8387 0 0 0
8390 0 0 0
8320 0 0 0
8324 0 0 0
8254 0 0 0
8258 0 0 0
8281 0 0 0
8321 0 0 0
8188 0 0 0
8192 0 0 0
8215 0 0 0
8255 0 0 0
8122 0 0 0
8126 0 0 0
8149 0 0 0
8189 0 0 0
2700 0 0 0
8414 0 0 0
8423 0 0 0
8368 0 0 0
8388 0 0 0
8394 0 0 0
8328 0 0 0
8262 0 0 0
8302 0 0 0
8322 0 0 0
8196 0 0 0
8236 0 0 0
8256 0 0 0
8130 0 0 0
8170 0 0 0
8190 0 0 0
2669 0 0 0
2675 0 0 0
2677 0 0 0
2678 0 0 0
8406 0 0 0
8337 0 0 0
8350 0 0 0
8352 0 0 0
8354 0 0 0
8355 0 0 0
8271 0 0 0
8284 0 0 0
8288 0 0 0
8289 0 0 0
8205 0 0 0
8218 0 0 0
8222 0 0 0
8223 0 0 0
8286 0 0 0
8139 0 0 0
8152 0 0 0
8156 0 0 0
8157 0 0 0
8220 0 0 0
8073 0 0 0
8086 0 0 0
8090 0 0 0
8091 0 0 0
8154 0 0 0
2680 0 0 0
2687 0 0 0
8407 0 0 0
8417 0 0 0
8353 0 0 0
8359 0 0 0
8373 0 0 0
8375 0 0 0
8293 0 0 0
8307 0 0 0
8227 0 0 0
8241 0 0 0
8287 0 0 0
8309 0 0 0
8161 0 0 0
8175 0 0 0
8221 0 0 0
8243 0 0 0
8095 0 0 0
8109 0 0 0
8155 0 0 0
8177 0 0 0
2689 0 0 0
2690 0 0 0
2692 0 0 0
2696 0 0 0
8418 0 0 0
8376 0 0 0
8377 0 0 0
8378 0 0 0
8382 0 0 0
8389 0 0 0
8311 0 0 0
8312 0 0 0
8316 0 0 0
8323 0 0 0
8245 0 0 0
8246 0 0 0
8250 0 0 0
8257 0 0 0
8310 0 0 0
8179 0 0 0
8180 0 0 0
8184 0 0 0
8191 0 0 0
8244 0 0 0
8113 0 0 0
8114 0 0 0
8118 0 0 0
8125 0 0 0
8178 0 0 0
2698 0 0 0
2699 0 0 0
8424 0 0 0
8391 0 0 0
8392 0 0 0
8393 0 0 0
8326 0 0 0
8327 0 0 0
8260 0 0 0
8261 0 0 0
8325 0 0 0
8194 0 0 0
8195 0 0 0
8259 0 0 0
8128 0 0 0
8129 0 0 0
8193 0 0 0
2668 0 0 0
2671 0 0 0
8398 0 0 0
8399 0 0 0
8335 0 0 0
8336 0 0 0
8338 0 0 0
8341 0 0 0
8270 0 0 0
8275 0 0 0
8204 0 0 0
8209 0 0 0
8269 0 0 0
8272 0 0 0
8138 0 0 0
8143 0 0 0
8203 0 0 0
8206 0 0 0
8072 0 0 0
8077 0 0 0
8137 0 0 0
8140 0 0 0
2679 0 0 0
8400 0 0 0
8408 0 0 0
8409 0 0 0
8410 0 0 0
8339 0 0 0
8356 0 0 0
8357 0 0 0
8358 0 0 0
8360 0 0 0
8292 0 0 0
8226 0 0 0
8273 0 0 0
8290 0 0 0
8291 0 0 0
8294 0 0 0
8160 0 0 0
8207 0 0 0
8224 0 0 0
8225 0 0 0
8228 0 0 0
8094 0 0 0
8141 0 0 0
8158 0 0 0
8159 0 0 0
8162 0 0 0
2682 0 0 0
2691 0 0 0
8411 0 0 0
8419 0 0 0
8361 0 0 0
8363 0 0 0
8379 0 0 0
8381 0 0 0
8297 0 0 0
8315 0 0 0
8231 0 0 0
8249 0 0 0
8295 0 0 0
8313 0 0 0
8165 0 0 0
8183 0 0 0
8229 0 0 0
8247 0 0 0
8099 0 0 0
8117 0 0 0
8163 0 0 0
8181 0 0 0
2694 0 0 0
8420 0 0 0
8421 0 0 0
8380 0 0 0
8383 0 0 0
8385 0 0 0
8319 0 0 0
8253 0 0 0
8314 0 0 0
8317 0 0 0
8187 0 0 0
8248 0 0 0
8251 0 0 0
8121 0 0 0
8182 0 0 0
8185 0 0 0
2665 0 0 0
2666 0 0 0
2667 0 0 0
2670 0 0 0
8395 0 0 0
8329 0 0 0
8330 0 0 0
8331 0 0 0
8334 0 0 0
8340 0 0 0
8264 0 0 0
8265 0 0 0
8268 0 0 0
8274 0 0 0
8198 0 0 0
8199 0 0 0
8202 0 0 0
8208 0 0 0
8263 0 0 0
8132 0 0 0
8133 0 0 0
8136 0 0 0
8142 0 0 0
8197 0 0 0
8066 0 0 0
8067 0 0 0
8070 0 0 0
8076 0 0 0
8131 0 0 0
2672 0 0 0
2673 0 0 0
8401 0 0 0
8402 0 0 0
8342 0 0 0
8343 0 0 0
8344 0 0 0
8345 0 0 0
8278 0 0 0
8279 0 0 0
8212 0 0 0
8213 0 0 0
8276 0 0 0
8277 0 0 0
8146 0 0 0
8147 0 0 0
8210 0 0 0
8211 0 0 0
8080 0 0 0
8081 0 0 0
8144 0 0 0
8145 0 0 0
2674 0 0 0
2681 0 0 0
2683 0 0 0
2684 0 0 0
8412 0 0 0
8348 0 0 0
8362 0 0 0
8364 0 0 0
8366 0 0 0
8367 0 0 0
8282 0 0 0
8296 0 0 0
8300 0 0 0
8301 0 0 0
8216 0 0 0
8230 0 0 0
8234 0 0 0
8235 0 0 0
8298 0 0 0
8150 0 0 0
8164 0 0 0
8168 0 0 0
8169 0 0 0
8232 0 0 0
8084 0 0 0
8098 0 0 0
8102 0 0 0
8103 0 0 0
8166 0 0 0
2685 0 0 0
2693 0 0 0
8413 0 0 0
8365 0 0 0
8369 0 0 0
8384 0 0 0
8303 0 0 0
8318 0 0 0
8237 0 0 0
8252 0 0 0
8299 0 0 0
8171 0 0 0
8186 0 0 0
8233 0 0 0
8105 0 0 0
8120 0 0 0
8167 0 0 0
3006 0 0 0
8785 0 0 0
8789 0 0 0
8800 0 0 0
8801 0 0 0
8719 0 0 0
8725 0 0 0
8744 0 0 0
8745 0 0 0
8747 0 0 0
8681 0 0 0
8615 0 0 0
8653 0 0 0
8659 0 0 0
8678 0 0 0
8679 0 0 0
8549 0 0 0
8587 0 0 0
8593 0 0 0
8612 0 0 0
8613 0 0 0
8483 0 0 0
8521 0 0 0
8527 0 0 0
8546 0 0 0
8547 0 0 0
3015 0 0 0
3017 0 0 0
8790 0 0 0
8811 0 0 0
8726 0 0 0
8765 0 0 0
8766 0 0 0
8769 0 0 0
8699 0 0 0
8703 0 0 0
8633 0 0 0
8637 0 0 0
8660 0 0 0
8700 0 0 0
8567 0 0 0
8571 0 0 0
8594 0 0 0
8634 0 0 0
8501 0 0 0
8505 0 0 0
8528 0 0 0
8568 0 0 0
3022 0 0 0
8798 0 0 0
8799 0 0 0
8812 0 0 0
8818 0 0 0
8741 0 0 0
8742 0 0 0
8767 0 0 0
8779 0 0 0
8780 0 0 0
8713 0 0 0
8647 0 0 0
8675 0 0 0
8676 0 0 0
8701 0 0 0
8714 0 0 0
8581 0 0 0
8609 0 0 0
8610 0 0 0
8635 0 0 0
8648 0 0 0
8515 0 0 0
8543 0 0 0
8544 0 0 0
8569 0 0 0
8582 0 0 0
3024 0 0 0
3340 0 0 0
8810 0 0 0
8819 0 0 0
8764 0 0 0
8781 0 0 0
8783 0 0 0
9151 0 0 0
8717 0 0 0
9085 0 0 0
8651 0 0 0
8698 0 0 0
8715 0 0 0
9019 0 0 0
8585 0 0 0
8632 0 0 0
8649 0 0 0
8953 0 0 0
8519 0 0 0
8566 0 0 0
8583 0 0 0
8887 0 0 0
2999 0 0 0
3005 0 0 0
8791 0 0 0
8802 0 0 0
8728 0 0 0
8732 0 0 0
8746 0 0 0
8748 0 0 0
8666 0 0 0
8680 0 0 0
8600 0 0 0
8614 0 0 0
8662 0 0 0
8682 0 0 0
8534 0 0 0
8548 0 0 0
8596 0 0 0
8616 0 0 0
8468 0 0 0
8482 0 0 0
8530 0 0 0
8550 0 0 0
3007 0 0 0
3008 0 0 0
3010 0 0 0
3016 0 0 0
8803 0 0 0
8749 0 0 0
8750 0 0 0
8751 0 0 0
8755 0 0 0
8768 0 0 0
8684 0 0 0
8685 0 0 0
8689 0 0 0
8702 0 0 0
8618 0 0 0
8619 0 0 0
8623 0 0 0
8636 0 0 0
8683 0 0 0
8552 0 0 0
8553 0 0 0
8557 0 0 0
8570 0 0 0
8617 0 0 0
8486 0 0 0
8487 0 0 0
8491 0 0 0
8504 0 0 0
8551 0 0 0
3018 0 0 0
3019 0 0 0
8813 0 0 0
8814 0 0 0
8770 0 0 0
8771 0 0 0
8772 0 0 0
8773 0 0 0
8706 0 0 0
8707 0 0 0
8640 0 0 0
8641 0 0 0
8704 0 0 0
8705 0 0 0
8574 0 0 0
8575 0 0 0
8638 0 0 0
8639 0 0 0
8508 0 0 0
8509 0 0 0
8572 0 0 0
8573 0 0 0
3021 0 0 0
3023 0 0 0
3331 0 0 0
3332 0 0 0
8820 0 0 0
8777 0 0 0
8782 0 0 0
8784 0 0 0
9134 0 0 0
9135 0 0 0
8711 0 0 0
8716 0 0 0
9068 0 0 0
9069 0 0 0
8645 0 0 0
8650 0 0 0
8718 0 0 0
9002 0 0 0
9003 0 0 0
8579 0 0 0
8584 0 0 0
8652 0 0 0
8936 0 0 0
8937 0 0 0
8513 0 0 0
8518 0 0 0
8586 0 0 0
8870 0 0 0
8871 0 0 0
2998 0 0 0
8786 0 0 0
8792 0 0 0
8793 0 0 0
8794 0 0 0
8720 0 0 0
8729 0 0 0
8730 0 0 0
8731 0 0 0
8733 0 0 0
8665 0 0 0
8599 0 0 0
8654 0 0 0
8663 0 0 0
8664 0 0 0
8667 0 0 0
8533 0 0 0
8588 0 0 0
8597 0 0 0
8598 0 0 0
8601 0 0 0
8467 0 0 0
8522 0 0 0
8531 0 0 0
8532 0 0 0
8535 0 0 0
3001 0 0 0
3009 0 0 0
8795 0 0 0
8804 0 0 0
8734 0 0 0
8736 0 0 0
8752 0 0 0
8754 0 0 0
8670 0 0 0
8688 0 0 0
8604 0 0 0
8622 0 0 0
8668 0 0 0
8686 0 0 0
8538 0 0 0
8556 0 0 0
8602 0 0 0
8620 0 0 0
8472 0 0 0
8490 0 0 0
8536 0 0 0
8554 0 0 0
3012 0 0 0
8805 0 0 0
8806 0 0 0
8807 0 0 0
8815 0 0 0
8753 0 0 0
8756 0 0 0
8757 0 0 0
8759 0 0 0
8774 0 0 0
8693 0 0 0
8627 0 0 0
8687 0 0 0
8690 0 0 0
8691 0 0 0
8708 0 0 0
8561 0 0 0
8621 0 0 0
8624 0 0 0
8625 0 0 0
8642 0 0 0
8495 0 0 0
8555 0 0 0
8558 0 0 0
8559 0 0 0
8576 0 0 0
3020 0 0 0
3327 0 0 0
8816 0 0 0
8817 0 0 0
8775 0 0 0
8776 0 0 0
8778 0 0 0
9125 0 0 0
8710 0 0 0
9059 0 0 0
8644 0 0 0
8709 0 0 0
8712 0 0 0
8993 0 0 0
8578 0 0 0
8643 0 0 0
8646 0 0 0
8927 0 0 0
8512 0 0 0
8577 0 0 0
8580 0 0 0
8861 0 0 0
2995 0 0 0
2996 0 0 0
8787 0 0 0
8788 0 0 0
8721 0 0 0
8722 0 0 0
8723 0 0 0
8724 0 0 0
8657 0 0 0
8658 0 0 0
8591 0 0 0
8592 0 0 0
8655 0 0 0
8656 0 0 0
8525 0 0 0
8526 0 0 0
8589 0 0 0
8590 0 0 0
8459 0 0 0
8460 0 0 0
8523 0 0 0
8524 0 0 0
2997 0 0 0
3000 0 0 0
3002 0 0 0
3003 0 0 0
8796 0 0 0
8727 0 0 0
8735 0 0 0
8737 0 0 0
8739 0 0 0
8740 0 0 0
8661 0 0 0
8669 0 0 0
8673 0 0 0
8674 0 0 0
8595 0 0 0
8603 0 0 0
8607 0 0 0
8608 0 0 0
8671 0 0 0
8529 0 0 0
8537 0 0 0
8541 0 0 0
8542 0 0 0
8605 0 0 0
8463 0 0 0
8471 0 0 0
8475 0 0 0
8476 0 0 0
8539 0 0 0
3004 0 0 0
3011 0 0 0
8797 0 0 0
8808 0 0 0
8738 0 0 0
8743 0 0 0
8758 0 0 0
8760 0 0 0
8677 0 0 0
8692 0 0 0
8611 0 0 0
8626 0 0 0
8672 0 0 0
8694 0 0 0
8545 0 0 0
8560 0 0 0
8606 0 0 0
8628 0 0 0
8479 0 0 0
8494 0 0 0
8540 0 0 0
8562 0 0 0
3013 0 0 0
3014 0 0 0
3325 0 0 0
3326 0 0 0
8809 0 0 0
8761 0 0 0
8762 0 0 0
8763 0 0 0
9122 0 0 0
9124 0 0 0
8696 0 0 0
8697 0 0 0
9056 0 0 0
9058 0 0 0
8630 0 0 0
8631 0 0 0
8695 0 0 0
8990 0 0 0
8992 0 0 0
8564 0 0 0
8565 0 0 0
8629 0 0 0
8924 0 0 0
8926 0 0 0
8498 0 0 0
8499 0 0 0
8563 0 0 0
8858 0 0 0
8860 0 0 0
3342 0 0 0
9187 0 0 0
9202 0 0 0
9121 0 0 0
9152 0 0 0
9155 0 0 0
9089 0 0 0
9023 0 0 0
9055 0 0 0
9086 0 0 0
8957 0 0 0
8989 0 0 0
9020 0 0 0
8891 0 0 0
8923 0 0 0
8954 0 0 0
3351 0 0 0
9191 0 0 0
9192 0 0 0
9203 0 0 0
9211 0 0 0
9130 0 0 0
9131 0 0 0
9153 0 0 0
9171 0 0 0
9172 0 0 0
9105 0 0 0
9039 0 0 0
9064 0 0 0
9065 0 0 0
9087 0 0 0
9106 0 0 0
8973 0 0 0
8998 0 0 0
8999 0 0 0
9021 0 0 0
9040 0 0 0
8907 0 0 0
8932 0 0 0
8933 0 0 0
8955 0 0 0
8974 0 0 0
3353 0 0 0
3358 0 0 0
9200 0 0 0
9212 0 0 0
9148 0 0 0
9173 0 0 0
9175 0 0 0
9183 0 0 0
9109 0 0 0
9117 0 0 0
9043 0 0 0
9051 0 0 0
9082 0 0 0
9107 0 0 0
8977 0 0 0
8985 0 0 0
9016 0 0 0
9041 0 0 0
8911 0 0 0
8919 0 0 0
8950 0 0 0
8975 0 0 0
3360 0 0 0
9201 0 0 0
9216 0 0 0
9578 0 0 0
9587 0 0 0
9149 0 0 0
9184 0 0 0
9186 0 0 0
9512 0 0 0
9527 0 0 0
9120 0 0 0
9054 0 0 0
9083 0 0 0
9118 0 0 0
9446 0 0 0
9461 0 0 0
8988 0 0 0
9017 0 0 0
9052 0 0 0
9380 0 0 0
9395 0 0 0
8922 0 0 0
8951 0 0 0
8986 0 0 0
9314 0 0 0
9329 0 0 0
3334 0 0 0
3341 0 0 0
9193 0 0 0
9133 0 0 0
9139 0 0 0
9154 0 0 0
9073 0 0 0
9088 0 0 0
9007 0 0 0
9022 0 0 0
9067 0 0 0
8941 0 0 0
8956 0 0 0
9001 0 0 0
8875 0 0 0
8890 0 0 0
8935 0 0 0
3343 0 0 0
3344 0 0 0
9204 0 0 0
9205 0 0 0
9156 0 0 0
9157 0 0 0
9158 0 0 0
9159 0 0 0
9092 0 0 0
9093 0 0 0
9026 0 0 0
9027 0 0 0
9090 0 0 0
9091 0 0 0
8960 0 0 0
8961 0 0 0
9024 0 0 0
9025 0 0 0
8894 0 0 0
8895 0 0 0
8958 0 0 0
8959 0 0 0
3346 0 0 0
3352 0 0 0
3354 0 0 0
3355 0 0 0
9213 0 0 0
9163 0 0 0
9174 0 0 0
9176 0 0 0
9178 0 0 0
9179 0 0 0
9097 0 0 0
9108 0 0 0
9112 0 0 0
9113 0 0 0
9031 0 0 0
9042 0 0 0
9046 0 0 0
9047 0 0 0
9110 0 0 0
8965 0 0 0
8976 0 0 0
8980 0 0 0
8981 0 0 0
9044 0 0 0
8899 0 0 0
8910 0 0 0
8914 0 0 0
8915 0 0 0
8978 0 0 0
3357 0 0 0
3359 0 0 0
9214 0 0 0
9588 0 0 0
9177 0 0 0
9182 0 0 0
9185 0 0 0
9528 0 0 0
9116 0 0 0
9119 0 0 0
9050 0 0 0
9053 0 0 0
9111 0 0 0
9462 0 0 0
8984 0 0 0
8987 0 0 0
9045 0 0 0
9396 0 0 0
8918 0 0 0
8921 0 0 0
8979 0 0 0
9330 0 0 0
3333 0 0 0
9188 0 0 0
9194 0 0 0
9123 0 0 0
9136 0 0 0
9138 0 0 0
9072 0 0 0
9006 0 0 0
9057 0 0 0
9070 0 0 0
8940 0 0 0
8991 0 0 0
9004 0 0 0
8874 0 0 0
8925 0 0 0
8938 0 0 0
3336 0 0 0
9195 0 0 0
9196 0 0 0
9197 0 0 0
9206 0 0 0
9137 0 0 0
9140 0 0 0
9141 0 0 0
9143 0 0 0
9160 0 0 0
9077 0 0 0
9011 0 0 0
9071 0 0 0
9074 0 0 0
9075 0 0 0
9094 0 0 0
8945 0 0 0
9005 0 0 0
9008 0 0 0
9009 0 0 0
9028 0 0 0
8879 0 0 0
8939 0 0 0
8942 0 0 0
8943 0 0 0
8962 0 0 0
3345 0 0 0
3348 0 0 0
9207 0 0 0
9208 0 0 0
9161 0 0 0
9162 0 0 0
9164 0 0 0
9167 0 0 0
9096 0 0 0
9101 0 0 0
9030 0 0 0
9035 0 0 0
9095 0 0 0
9098 0 0 0
8964 0 0 0
8969 0 0 0
9029 0 0 0
9032 0 0 0
8898 0 0 0
8903 0 0 0
8963 0 0 0
8966 0 0 0
3356 0 0 0
9209 0 0 0
9215 0 0 0
9580 0 0 0
9581 0 0 0
9165 0 0 0
9180 0 0 0
9181 0 0 0
9515 0 0 0
9516 0 0 0
9115 0 0 0
9049 0 0 0
9099 0 0 0
9114 0 0 0
9449 0 0 0
9450 0 0 0
8983 0 0 0
9033 0 0 0
9048 0 0 0
9383 0 0 0
9384 0 0 0
8917 0 0 0
8967 0 0 0
8982 0 0 0
9317 0 0 0
9318 0 0 0
3328 0 0 0
3329 0 0 0
9189 0 0 0
9126 0 0 0
9128 0 0 0
9129 0 0 0
9062 0 0 0
9063 0 0 0
8996 0 0 0
8997 0 0 0
9060 0 0 0
8930 0 0 0
8931 0 0 0
8994 0 0 0
8864 0 0 0
8865 0 0 0
8928 0 0 0
3330 0 0 0
3335 0 0 0
9190 0 0 0
9198 0 0 0
9127 0 0 0
9132 0 0 0
9142 0 0 0
9144 0 0 0
9066 0 0 0
9076 0 0 0
9000 0 0 0
9010 0 0 0
9061 0 0 0
9078 0 0 0
8934 0 0 0
8944 0 0 0
8995 0 0 0
9012 0 0 0
8868 0 0 0
8878 0 0 0
8929 0 0 0
8946 0 0 0
3337 0 0 0
3338 0 0 0
3339 0 0 0
3347 0 0 0
9199 0 0 0
9145 0 0 0
9146 0 0 0
9147 0 0 0
9150 0 0 0
9166 0 0 0
9080 0 0 0
9081 0 0 0
9084 0 0 0
9100 0 0 0
9014 0 0 0
9015 0 0 0
9018 0 0 0
9034 0 0 0
9079 0 0 0
8948 0 0 0
8949 0 0 0
8952 0 0 0
8968 0 0 0
9013 0 0 0
8882 0 0 0
8883 0 0 0
8886 0 0 0
8902 0 0 0
8947 0 0 0
3349 0 0 0
3350 0 0 0
9210 0 0 0
9577 0 0 0
9168 0 0 0
9169 0 0 0
9170 0 0 0
9511 0 0 0
9103 0 0 0
9104 0 0 0
9037 0 0 0
9038 0 0 0
9102 0 0 0
9445 0 0 0
8971 0 0 0
8972 0 0 0
9036 0 0 0
9379 0 0 0
8905 0 0 0
8906 0 0 0
8970 0 0 0
9313 0 0 0
3670 0 0 0
9579 0 0 0
9598 0 0 0
9513 0 0 0
9547 0 0 0
9548 0 0 0
9481 0 0 0
9415 0 0 0
9447 0 0 0
9482 0 0 0
9349 0 0 0
9381 0 0 0
9416 0 0 0
9283 0 0 0
9315 0 0 0
9350 0 0 0
3672 0 0 0
3679 0 0 0
9585 0 0 0
9599 0 0 0
9524 0 0 0
9549 0 0 0
9551 0 0 0
9565 0 0 0
9485 0 0 0
9499 0 0 0
9419 0 0 0
9433 0 0 0
9458 0 0 0
9483 0 0 0
9353 0 0 0
9367 0 0 0
9392 0 0 0
9417 0 0 0
9287 0 0 0
9301 0 0 0
9326 0 0 0
9351 0 0 0
3681 0 0 0
9586 0 0 0
9596 0 0 0
9607 0 0 0
9608 0 0 0
9525 0 0 0
9544 0 0 0
9566 0 0 0
9567 0 0 0
9569 0 0 0
9503 0 0 0
9437 0 0 0
9459 0 0 0
9478 0 0 0
9500 0 0 0
9501 0 0 0
9371 0 0 0
9393 0 0 0
9412 0 0 0
9434 0 0 0
9435 0 0 0
9305 0 0 0
9327 0 0 0
9346 0 0 0
9368 0 0 0
9369 0 0 0
3684 0 0 0
3996 0 0 0
9597 0 0 0
9612 0 0 0
9545 0 0 0
9575 0 0 0
9576 0 0 0
9935 0 0 0
9509 0 0 0
9869 0 0 0
9443 0 0 0
9479 0 0 0
9510 0 0 0
9803 0 0 0
9377 0 0 0
9413 0 0 0
9444 0 0 0
9737 0 0 0
9311 0 0 0
9347 0 0 0
9378 0 0 0
9671 0 0 0
3661 0 0 0
3662 0 0 0
9589 0 0 0
9529 0 0 0
9530 0 0 0
9531 0 0 0
9464 0 0 0
9465 0 0 0
9398 0 0 0
9399 0 0 0
9463 0 0 0
9332 0 0 0
9333 0 0 0
9397 0 0 0
9266 0 0 0
9267 0 0 0
9331 0 0 0
3664 0 0 0
3671 0 0 0
3673 0 0 0
3674 0 0 0
9600 0 0 0
9535 0 0 0
9550 0 0 0
9552 0 0 0
9554 0 0 0
9555 0 0 0
9469 0 0 0
9484 0 0 0
9488 0 0 0
9489 0 0 0
9403 0 0 0
9418 0 0 0
9422 0 0 0
9423 0 0 0
9486 0 0 0
9337 0 0 0
9352 0 0 0
9356 0 0 0
9357 0 0 0
9420 0 0 0
9271 0 0 0
9286 0 0 0
9290 0 0 0
9291 0 0 0
9354 0 0 0
3676 0 0 0
3680 0 0 0
9601 0 0 0
9609 0 0 0
9553 0 0 0
9559 0 0 0
9568 0 0 0
9570 0 0 0
9493 0 0 0
9502 0 0 0
9427 0 0 0
9436 0 0 0
9487 0 0 0
9504 0 0 0
9361 0 0 0
9370 0 0 0
9421 0 0 0
9438 0 0 0
9295 0 0 0
9304 0 0 0
9355 0 0 0
9372 0 0 0
3682 0 0 0
3683 0 0 0
3989 0 0 0
3995 0 0 0
9610 0 0 0
9571 0 0 0
9572 0 0 0
9573 0 0 0
9921 0 0 0
9934 0 0 0
9506 0 0 0
9507 0 0 0
9855 0 0 0
9868 0 0 0
9440 0 0 0
9441 0 0 0
9505 0 0 0
9789 0 0 0
9802 0 0 0
9374 0 0 0
9375 0 0 0
9439 0 0 0
9723 0 0 0
9736 0 0 0
9308 0 0 0
9309 0 0 0
9373 0 0 0
9657 0 0 0
9670 0 0 0
3657 0 0 0
9582 0 0 0
9590 0 0 0
9517 0 0 0
9519 0 0 0
9532 0 0 0
9453 0 0 0
9387 0 0 0
9451 0 0 0
9466 0 0 0
9321 0 0 0
9385 0 0 0
9400 0 0 0
9255 0 0 0
9319 0 0 0
9334 0 0 0
3663 0 0 0
3666 0 0 0
9591 0 0 0
9592 0 0 0
9533 0 0 0
9534 0 0 0
9536 0 0 0
9539 0 0 0
9468 0 0 0
9473 0 0 0
9402 0 0 0
9407 0 0 0
9467 0 0 0
9470 0 0 0
9336 0 0 0
9341 0 0 0
9401 0 0 0
9404 0 0 0
9270 0 0 0
9275 0 0 0
9335 0 0 0
9338 0 0 0
3675 0 0 0
9593 0 0 0
9602 0 0 0
9603 0 0 0
9604 0 0 0
9537 0 0 0
9556 0 0 0
9557 0 0 0
9558 0 0 0
9560 0 0 0
9492 0 0 0
9426 0 0 0
9471 0 0 0
9490 0 0 0
9491 0 0 0
9494 0 0 0
9360 0 0 0
9405 0 0 0
9424 0 0 0
9425 0 0 0
9428 0 0 0
9294 0 0 0
9339 0 0 0
9358 0 0 0
9359 0 0 0
9362 0 0 0
3678 0 0 0
3988 0 0 0
9605 0 0 0
9611 0 0 0
9561 0 0 0
9563 0 0 0
9574 0 0 0
9920 0 0 0
9497 0 0 0
9854 0 0 0
9431 0 0 0
9495 0 0 0
9508 0 0 0
9788 0 0 0
9365 0 0 0
9429 0 0 0
9442 0 0 0
9722 0 0 0
9299 0 0 0
9363 0 0 0
9376 0 0 0
9656 0 0 0
3655 0 0 0
3656 0 0 0
9583 0 0 0
9514 0 0 0
9518 0 0 0
9520 0 0 0
9448 0 0 0
9452 0 0 0
9382 0 0 0
9386 0 0 0
9454 0 0 0
9316 0 0 0
9320 0 0 0
9388 0 0 0
9250 0 0 0
9254 0 0 0
9322 0 0 0
3658 0 0 0
3659 0 0 0
3660 0 0 0
3665 0 0 0
9584 0 0 0
9521 0 0 0
9522 0 0 0
9523 0 0 0
9526 0 0 0
9538 0 0 0
9456 0 0 0
9457 0 0 0
9460 0 0 0
9472 0 0 0
9390 0 0 0
9391 0 0 0
9394 0 0 0
9406 0 0 0
9455 0 0 0
9324 0 0 0
9325 0 0 0
9328 0 0 0
9340 0 0 0
9389 0 0 0
9258 0 0 0
9259 0 0 0
9262 0 0 0
9274 0 0 0
9323 0 0 0
3667 0 0 0
3668 0 0 0
9594 0 0 0
9595 0 0 0
9540 0 0 0
9541 0 0 0
9542 0 0 0
9543 0 0 0
9476 0 0 0
9477 0 0 0
9410 0 0 0
9411 0 0 0
9474 0 0 0
9475 0 0 0
9344 0 0 0
9345 0 0 0
9408 0 0 0
9409 0 0 0
9278 0 0 0
9279 0 0 0
9342 0 0 0
9343 0 0 0
3669 0 0 0
3677 0 0 0
3985 0 0 0
3986 0 0 0
9606 0 0 0
9546 0 0 0
9562 0 0 0
9564 0 0 0
9914 0 0 0
9915 0 0 0
9480 0 0 0
9496 0 0 0
9848 0 0 0
9849 0 0 0
9414 0 0 0
9430 0 0 0
9498 0 0 0
9782 0 0 0
9783 0 0 0
9348 0 0 0
9364 0 0 0
9432 0 0 0
9716 0 0 0
9717 0 0 0
9282 0 0 0
9298 0 0 0
9366 0 0 0
9650 0 0 0
9651 0 0 0
4006 0 0 0
9980 0 0 0
9981 0 0 0
9989 0 0 0
9999 0 0 0
9916 0 0 0
9917 0 0 0
9933 0 0 0
9954 0 0 0
9955 0 0 0
9888 0 0 0
9822 0 0 0
9850 0 0 0
9851 0 0 0
9867 0 0 0
9889 0 0 0
9756 0 0 0
9784 0 0 0
9785 0 0 0
9801 0 0 0
9823 0 0 0
9690 0 0 0
9718 0 0 0
9719 0 0 0
9735 0 0 0
9757 0 0 0
4008 0 0 0
9987 0 0 0
10000 0 0 0
9930 0 0 0
9956 0 0 0
9958 0 0 0
9892 0 0 0
9826 0 0 0
9864 0 0 0
9890 0 0 0
9760 0 0 0
9798 0 0 0
9824 0 0 0
9694 0 0 0
9732 0 0 0
9758 0 0 0
4015 0 0 0
4017 0 0 0
9988 0 0 0
10006 0 0 0
9931 0 0 0
9970 0 0 0
9971 0 0 0
9974 0 0 0
9904 0 0 0
9908 0 0 0
9838 0 0 0
9842 0 0 0
9865 0 0 0
9905 0 0 0
9772 0 0 0
9776 0 0 0
9799 0 0 0
9839 0 0 0
9706 0 0 0
9710 0 0 0
9733 0 0 0
9773 0 0 0
4020 0 0 0
9998 0 0 0
10007 0 0 0
10369 0 0 0
10384 0 0 0
9952 0 0 0
9972 0 0 0
9978 0 0 0
10303 0 0 0
10328 0 0 0
9912 0 0 0
9846 0 0 0
9886 0 0 0
9906 0 0 0
10237 0 0 0
10262 0 0 0
9780 0 0 0
9820 0 0 0
9840 0 0 0
10171 0 0 0
10196 0 0 0
9714 0 0 0
9754 0 0 0
9774 0 0 0
10105 0 0 0
10130 0 0 0
3997 0 0 0
3998 0 0 0
9990 0 0 0
9991 0 0 0
9936 0 0 0
9937 0 0 0
9938 0 0 0
9939 0 0 0
9872 0 0 0
9873 0 0 0
9806 0 0 0
9807 0 0 0
9870 0 0 0
9871 0 0 0
9740 0 0 0
9741 0 0 0
9804 0 0 0
9805 0 0 0
9674 0 0 0
9675 0 0 0
9738 0 0 0
9739 0 0 0
4000 0 0 0
4007 0 0 0
10001 0 0 0
9943 0 0 0
9957 0 0 0
9959 0 0 0
9877 0 0 0
9891 0 0 0
9811 0 0 0
9825 0 0 0
9893 0 0 0
9745 0 0 0
9759 0 0 0
9827 0 0 0
9679 0 0 0
9693 0 0 0
9761 0 0 0
4009 0 0 0
4010 0 0 0
4012 0 0 0
4016 0 0 0
10002 0 0 0
9960 0 0 0
9961 0 0 0
9962 0 0 0
9966 0 0 0
9973 0 0 0
9895 0 0 0
9896 0 0 0
9900 0 0 0
9907 0 0 0
9829 0 0 0
9830 0 0 0
9834 0 0 0
9841 0 0 0
9894 0 0 0
9763 0 0 0
9764 0 0 0
9768 0 0 0
9775 0 0 0
9828 0 0 0
9697 0 0 0
9698 0 0 0
9702 0 0 0
9709 0 0 0
9762 0 0 0
4018 0 0 0
4019 0 0 0
10008 0 0 0
10375 0 0 0
9975 0 0 0
9976 0 0 0
9977 0 0 0
10312 0 0 0
9910 0 0 0
9911 0 0 0
9844 0 0 0
9845 0 0 0
9909 0 0 0
10246 0 0 0
9778 0 0 0
9779 0 0 0
9843 0 0 0
10180 0 0 0
9712 0 0 0
9713 0 0 0
9777 0 0 0
10114 0 0 0
3991 0 0 0
9982 0 0 0
9983 0 0 0
9984 0 0 0
9992 0 0 0
9919 0 0 0
9922 0 0 0
9923 0 0 0
9925 0 0 0
9940 0 0 0
9859 0 0 0
9793 0 0 0
9853 0 0 0
9856 0 0 0
9857 0 0 0
9874 0 0 0
9727 0 0 0
9787 0 0 0
9790 0 0 0
9791 0 0 0
9808 0 0 0
9661 0 0 0
9721 0 0 0
9724 0 0 0
9725 0 0 0
9742 0 0 0
3999 0 0 0
9993 0 0 0
9994 0 0 0
9941 0 0 0
9942 0 0 0
9944 0 0 0
9876 0 0 0
9810 0 0 0
9875 0 0 0
9878 0 0 0
9744 0 0 0
9809 0 0 0
9812 0 0 0
9678 0 0 0
9743 0 0 0
9746 0 0 0
4002 0 0 0
4011 0 0 0
9995 0 0 0
10003 0 0 0
9945 0 0 0
9947 0 0 0
9963 0 0 0
9965 0 0 0
9881 0 0 0
9899 0 0 0
9815 0 0 0
9833 0 0 0
9879 0 0 0
9897 0 0 0
9749 0 0 0
9767 0 0 0
9813 0 0 0
9831 0 0 0
9683 0 0 0
9701 0 0 0
9747 0 0 0
9765 0 0 0
4014 0 0 0
10004 0 0 0
10005 0 0 0
10370 0 0 0
10376 0 0 0
9964 0 0 0
9967 0 0 0
9969 0 0 0
10304 0 0 0
10313 0 0 0
9903 0 0 0
9837 0 0 0
9898 0 0 0
9901 0 0 0
10238 0 0 0
10247 0 0 0
9771 0 0 0
9832 0 0 0
9835 0 0 0
10172 0 0 0
10181 0 0 0
9705 0 0 0
9766 0 0 0
9769 0 0 0
10106 0 0 0
10115 0 0 0
3987 0 0 0
3990 0 0 0
9979 0 0 0
9985 0 0 0
9913 0 0 0
9918 0 0 0
9924 0 0 0
9926 0 0 0
9852 0 0 0
9858 0 0 0
9786 0 0 0
9792 0 0 0
9847 0 0 0
9860 0 0 0
9720 0 0 0
9726 0 0 0
9781 0 0 0
9794 0 0 0
9654 0 0 0
9660 0 0 0
9715 0 0 0
9728 0 0 0
3992 0 0 0
3993 0 0 0
9986 0 0 0
9927 0 0 0
9928 0 0 0
9929 0 0 0
9862 0 0 0
9863 0 0 0
9796 0 0 0
9797 0 0 0
9861 0 0 0
9730 0 0 0
9731 0 0 0
9795 0 0 0
9664 0 0 0
9665 0 0 0
9729 0 0 0
3994 0 0 0
4001 0 0 0
4003 0 0 0
4004 0 0 0
9996 0 0 0
9932 0 0 0
9946 0 0 0
9948 0 0 0
9950 0 0 0
9951 0 0 0
9866 0 0 0
9880 0 0 0
9884 0 0 0
9885 0 0 0
9800 0 0 0
9814 0 0 0
9818 0 0 0
9819 0 0 0
9882 0 0 0
9734 0 0 0
9748 0 0 0
9752 0 0 0
9753 0 0 0
9816 0 0 0
9668 0 0 0
9682 0 0 0
9686 0 0 0
9687 0 0 0
9750 0 0 0
4005 0 0 0
4013 0 0 0
9997 0 0 0
10371 0 0 0
9949 0 0 0
9953 0 0 0
9968 0 0 0
10305 0 0 0
9887 0 0 0
9902 0 0 0
9821 0 0 0
9836 0 0 0
9883 0 0 0
10239 0 0 0
9755 0 0 0
9770 0 0 0
9817 0 0 0
10173 0 0 0
9689 0 0 0
9704 0 0 0
9751 0 0 0
10107 0 0 0
4326 0 0 0
4335 0 0 0
10373 0 0 0
10385 0 0 0
10309 0 0 0
10329 0 0 0
10331 0 0 0
10349 0 0 0
10265 0 0 0
10283 0 0 0
10199 0 0 0
10217 0 0 0
10243 0 0 0
10263 0 0 0
10133 0 0 0
10151 0 0 0
10177 0 0 0
10197 0 0 0
10067 0 0 0
10085 0 0 0
10111 0 0 0
10131 0 0 0
4337 0 0 0
10374 0 0 0
10395 0 0 0
10310 0 0 0
10350 0 0 0
10353 0 0 0
10287 0 0 0
10221 0 0 0
10244 0 0 0
10284 0 0 0
10155 0 0 0
10178 0 0 0
10218 0 0 0
10089 0 0 0
10112 0 0 0
10152 0 0 0
4342 0 0 0
10382 0 0 0
10383 0 0 0
10396 0 0 0
10402 0 0 0
10325 0 0 0
10326 0 0 0
10351 0 0 0
10363 0 0 0
10364 0 0 0
10297 0 0 0
10231 0 0 0
10259 0 0 0
10260 0 0 0
10285 0 0 0
10298 0 0 0
10165 0 0 0
10193 0 0 0
10194 0 0 0
10219 0 0 0
10232 0 0 0
10099 0 0 0
10127 0 0 0
10128 0 0 0
10153 0 0 0
10166 0 0 0
4344 0 0 0
4660 0 0 0
10394 0 0 0
10403 0 0 0
10348 0 0 0
10365 0 0 0
10367 0 0 0
10735 0 0 0
10301 0 0 0
10669 0 0 0
10235 0 0 0
10282 0 0 0
10299 0 0 0
10603 0 0 0
10169 0 0 0
10216 0 0 0
10233 0 0 0
10537 0 0 0
10103 0 0 0
10150 0 0 0
10167 0 0 0
10471 0 0 0
4319 0 0 0
4325 0 0 0
4327 0 0 0
4328 0 0 0
10386 0 0 0
10316 0 0 0
10330 0 0 0
10332 0 0 0
10334 0 0 0
10335 0 0 0
10250 0 0 0
10264 0 0 0
10268 0 0 0
10269 0 0 0
10184 0 0 0
10198 0 0 0
10202 0 0 0
10203 0 0 0
10266 0 0 0
10118 0 0 0
10132 0 0 0
10136 0 0 0
10137 0 0 0
10200 0 0 0
10052 0 0 0
10066 0 0 0
10070 0 0 0
10071 0 0 0
10134 0 0 0
4330 0 0 0
4336 0 0 0
10387 0 0 0
10333 0 0 0
10339 0 0 0
10352 0 0 0
10273 0 0 0
10286 0 0 0
10207 0 0 0
10220 0 0 0
10267 0 0 0
10141 0 0 0
10154 0 0 0
10201 0 0 0
10075 0 0 0
10088 0 0 0
10135 0 0 0
4338 0 0 0
4339 0 0 0
10397 0 0 0
10398 0 0 0
10354 0 0 0
10355 0 0 0
10356 0 0 0
10357 0 0 0
10290 0 0 0
10291 0 0 0
10224 0 0 0
10225 0 0 0
10288 0 0 0
10289 0 0 0
10158 0 0 0
10159 0 0 0
10222 0 0 0
10223 0 0 0
10092 0 0 0
10093 0 0 0
10156 0 0 0
10157 0 0 0
4341 0 0 0
4343 0 0 0
4651 0 0 0
4652 0 0 0
10404 0 0 0
10361 0 0 0
10366 0 0 0
10368 0 0 0
10718 0 0 0
10719 0 0 0
10295 0 0 0
10300 0 0 0
10652 0 0 0
10653 0 0 0
10229 0 0 0
10234 0 0 0
10302 0 0 0
10586 0 0 0
10587 0 0 0
10163 0 0 0
10168 0 0 0
10236 0 0 0
10520 0 0 0
10521 0 0 0
10097 0 0 0
10102 0 0 0
10170 0 0 0
10454 0 0 0
10455 0 0 0
4318 0 0 0
4321 0 0 0
10377 0 0 0
10378 0 0 0
10314 0 0 0
10315 0 0 0
10317 0 0 0
10320 0 0 0
10249 0 0 0
10254 0 0 0
10183 0 0 0
10188 0 0 0
10248 0 0 0
10251 0 0 0
10117 0 0 0
10122 0 0 0
10182 0 0 0
10185 0 0 0
10051 0 0 0
10056 0 0 0
10116 0 0 0
10119 0 0 0
4329 0 0 0
10379 0 0 0
10388 0 0 0
10318 0 0 0
10336 0 0 0
10338 0 0 0
10272 0 0 0
10206 0 0 0
10252 0 0 0
10270 0 0 0
10140 0 0 0
10186 0 0 0
10204 0 0 0
10074 0 0 0
10120 0 0 0
10138 0 0 0
4332 0 0 0
10389 0 0 0
10390 0 0 0
10391 0 0 0
10399 0 0 0
10337 0 0 0
10340 0 0 0
10341 0 0 0
10343 0 0 0
10358 0 0 0
10277 0 0 0
10211 0 0 0
10271 0 0 0
10274 0 0 0
10275 0 0 0
10292 0 0 0
10145 0 0 0
10205 0 0 0
10208 0 0 0
10209 0 0 0
10226 0 0 0
10079 0 0 0
10139 0 0 0
10142 0 0 0
10143 0 0 0
10160 0 0 0
4340 0 0 0
4647 0 0 0
10400 0 0 0
10401 0 0 0
10359 0 0 0
10360 0 0 0
10362 0 0 0
10709 0 0 0
10294 0 0 0
10643 0 0 0
10228 0 0 0
10293 0 0 0
10296 0 0 0
10577 0 0 0
10162 0 0 0
10227 0 0 0
10230 0 0 0
10511 0 0 0
10096 0 0 0
10161 0 0 0
10164 0 0 0
10445 0 0 0
4315 0 0 0
4316 0 0 0
4317 0 0 0
4320 0 0 0
10372 0 0 0
10306 0 0 0
10307 0 0 0
10308 0 0 0
10311 0 0 0
10319 0 0 0
10241 0 0 0
10242 0 0 0
10245 0 0 0
10253 0 0 0
10175 0 0 0
10176 0 0 0
10179 0 0 0
10187 0 0 0
10240 0 0 0
10109 0 0 0
10110 0 0 0
10113 0 0 0
10121 0 0 0
10174 0 0 0
10043 0 0 0
10044 0 0 0
10047 0 0 0
10055 0 0 0
10108 0 0 0
4322 0 0 0
4323 0 0 0
10380 0 0 0
10321 0 0 0
10323 0 0 0
10324 0 0 0
10257 0 0 0
10258 0 0 0
10191 0 0 0
10192 0 0 0
10255 0 0 0
10125 0 0 0
10126 0 0 0
10189 0 0 0
10059 0 0 0
10060 0 0 0
10123 0 0 0
4324 0 0 0
4331 0 0 0
10381 0 0 0
10392 0 0 0
10322 0 0 0
10327 0 0 0
10342 0 0 0
10344 0 0 0
10261 0 0 0
10276 0 0 0
10195 0 0 0
10210 0 0 0
10256 0 0 0
10278 0 0 0
10129 0 0 0
10144 0 0 0
10190 0 0 0
10212 0 0 0
10063 0 0 0
10078 0 0 0
10124 0 0 0
10146 0 0 0
4333 0 0 0
4334 0 0 0
4645 0 0 0
4646 0 0 0
10393 0 0 0
10345 0 0 0
10346 0 0 0
10347 0 0 0
10706 0 0 0
10708 0 0 0
10280 0 0 0
10281 0 0 0
10640 0 0 0
10642 0 0 0
10214 0 0 0
10215 0 0 0
10279 0 0 0
10574 0 0 0
10576 0 0 0
10148 0 0 0
10149 0 0 0
10213 0 0 0
10508 0 0 0
10510 0 0 0
10082 0 0 0
10083 0 0 0
10147 0 0 0
10442 0 0 0
10444 0 0 0
4662 0 0 0
10771 0 0 0
10775 0 0 0
10786 0 0 0
10787 0 0 0
10705 0 0 0
10714 0 0 0
10736 0 0 0
10737 0 0 0
10739 0 0 0
10673 0 0 0
10607 0 0 0
10639 0 0 0
10648 0 0 0
10670 0 0 0
10671 0 0 0
10541 0 0 0
10573 0 0 0
10582 0 0 0
10604 0 0 0
10605 0 0 0
10475 0 0 0
10507 0 0 0
10516 0 0 0
10538 0 0 0
10539 0 0 0
4671 0 0 0
10776 0 0 0
10795 0 0 0
4673 0 0 0
10715 0 0 0
10755 0 0 0
10756 0 0 0
10759 0 0 0
10689 0 0 0
10693 0 0 0
10623 0 0 0
10649 0 0 0
10690 0 0 0
10627 0 0 0
10557 0 0 0
10583 0 0 0
10624 0 0 0
10561 0 0 0
10491 0 0 0
10517 0 0 0
10558 0 0 0
10495 0 0 0
4678 0 0 0
10784 0 0 0
10796 0 0 0
10732 0 0 0
10757 0 0 0
10767 0 0 0
10701 0 0 0
10635 0 0 0
10666 0 0 0
10691 0 0 0
10569 0 0 0
10600 0 0 0
10625 0 0 0
10503 0 0 0
10534 0 0 0
10559 0 0 0
4680 0 0 0
10785 0 0 0
10800 0 0 0
11030 0 0 0
11039 0 0 0
10733 0 0 0
10768 0 0 0
10770 0 0 0
10988 0 0 0
11003 0 0 0
10704 0 0 0
10638 0 0 0
10667 0 0 0
10702 0 0 0
10946 0 0 0
10961 0 0 0
10572 0 0 0
10601 0 0 0
10636 0 0 0
10904 0 0 0
10919 0 0 0
10506 0 0 0
10535 0 0 0
10570 0 0 0
10862 0 0 0
10877 0 0 0
4654 0 0 0
4661 0 0 0
10777 0 0 0
10788 0 0 0
10717 0 0 0
10723 0 0 0
10738 0 0 0
10740 0 0 0
10657 0 0 0
10672 0 0 0
10591 0 0 0
10606 0 0 0
10651 0 0 0
10674 0 0 0
10525 0 0 0
10540 0 0 0
10585 0 0 0
10608 0 0 0
10459 0 0 0
10474 0 0 0
10519 0 0 0
10542 0 0 0
4663 0 0 0
4664 0 0 0
10789 0 0 0
4666 0 0 0
4672 0 0 0
10741 0 0 0
10742 0 0 0
10743 0 0 0
10747 0 0 0
10758 0 0 0
10676 0 0 0
10677 0 0 0
10681 0 0 0
10692 0 0 0
10610 0 0 0
10611 0 0 0
10675 0 0 0
10615 0 0 0
10626 0 0 0
10544 0 0 0
10545 0 0 0
10609 0 0 0
10549 0 0 0
10560 0 0 0
10478 0 0 0
10479 0 0 0
10543 0 0 0
10483 0 0 0
10494 0 0 0
4674 0 0 0
4675 0 0 0
10797 0 0 0
10760 0 0 0
10762 0 0 0
10763 0 0 0
10696 0 0 0
10697 0 0 0
10630 0 0 0
10631 0 0 0
10694 0 0 0
10564 0 0 0
10565 0 0 0
10628 0 0 0
10498 0 0 0
10499 0 0 0
10562 0 0 0
4677 0 0 0
4679 0 0 0
10798 0 0 0
11040 0 0 0
10761 0 0 0
10766 0 0 0
10769 0 0 0
11004 0 0 0
10700 0 0 0
10703 0 0 0
10634 0 0 0
10637 0 0 0
10695 0 0 0
10962 0 0 0
10568 0 0 0
10571 0 0 0
10629 0 0 0
10920 0 0 0
10502 0 0 0
10505 0 0 0
10563 0 0 0
10878 0 0 0
4653 0 0 0
10772 0 0 0
10778 0 0 0
10779 0 0 0
10780 0 0 0
10707 0 0 0
10720 0 0 0
10721 0 0 0
10722 0 0 0
10724 0 0 0
10656 0 0 0
10590 0 0 0
10641 0 0 0
10654 0 0 0
10655 0 0 0
10658 0 0 0
10524 0 0 0
10575 0 0 0
10588 0 0 0
10589 0 0 0
10592 0 0 0
10458 0 0 0
10509 0 0 0
10522 0 0 0
10523 0 0 0
10526 0 0 0
4656 0 0 0
10781 0 0 0
10790 0 0 0
4665 0 0 0
10725 0 0 0
10727 0 0 0
10744 0 0 0
10746 0 0 0
10661 0 0 0
10680 0 0 0
10595 0 0 0
10659 0 0 0
10678 0 0 0
10614 0 0 0
10529 0 0 0
10593 0 0 0
10612 0 0 0
10548 0 0 0
10463 0 0 0
10527 0 0 0
10546 0 0 0
10482 0 0 0
4668 0 0 0
10791 0 0 0
10792 0 0 0
10745 0 0 0
10748 0 0 0
10751 0 0 0
10685 0 0 0
10619 0 0 0
10679 0 0 0
10682 0 0 0
10553 0 0 0
10613 0 0 0
10616 0 0 0
10487 0 0 0
10547 0 0 0
10550 0 0 0
4676 0 0 0
10793 0 0 0
10799 0 0 0
11032 0 0 0
11033 0 0 0
10749 0 0 0
10764 0 0 0
10765 0 0 0
10991 0 0 0
10992 0 0 0
10699 0 0 0
10633 0 0 0
10683 0 0 0
10698 0 0 0
10949 0 0 0
10950 0 0 0
10567 0 0 0
10617 0 0 0
10632 0 0 0
10907 0 0 0
10908 0 0 0
10501 0 0 0
10551 0 0 0
10566 0 0 0
10865 0 0 0
10866 0 0 0
4648 0 0 0
4649 0 0 0
10773 0 0 0
10774 0 0 0
10710 0 0 0
10711 0 0 0
10712 0 0 0
10713 0 0 0
10646 0 0 0
10647 0 0 0
10580 0 0 0
10581 0 0 0
10644 0 0 0
10645 0 0 0
10514 0 0 0
10515 0 0 0
10578 0 0 0
10579 0 0 0
10448 0 0 0
10449 0 0 0
10512 0 0 0
10513 0 0 0
4650 0 0 0
4655 0 0 0
10782 0 0 0
4657 0 0 0
4658 0 0 0
10716 0 0 0
10726 0 0 0
10728 0 0 0
10730 0 0 0
10731 0 0 0
10650 0 0 0
10660 0 0 0
10664 0 0 0
10665 0 0 0
10584 0 0 0
10594 0 0 0
10662 0 0 0
10598 0 0 0
10599 0 0 0
10518 0 0 0
10528 0 0 0
10596 0 0 0
10532 0 0 0
10533 0 0 0
10452 0 0 0
10462 0 0 0
10530 0 0 0
10466 0 0 0
10467 0 0 0
4659 0 0 0
4667 0 0 0
10783 0 0 0
10729 0 0 0
10734 0 0 0
10750 0 0 0
10668 0 0 0
10684 0 0 0
10602 0 0 0
10618 0 0 0
10663 0 0 0
10536 0 0 0
10552 0 0 0
10597 0 0 0
10470 0 0 0
10486 0 0 0
10531 0 0 0
4669 0 0 0
4670 0 0 0
10794 0 0 0
11029 0 0 0
10752 0 0 0
10753 0 0 0
10754 0 0 0
10987 0 0 0
10687 0 0 0
10688 0 0 0
10621 0 0 0
10622 0 0 0
10686 0 0 0
10945 0 0 0
10555 0 0 0
10556 0 0 0
10620 0 0 0
10903 0 0 0
10489 0 0 0
10490 0 0 0
10554 0 0 0
10861 0 0 0
4987 0 0 0
4989 0 0 0
11031 0 0 0
11047 0 0 0
10989 0 0 0
11017 0 0 0
11018 0 0 0
11021 0 0 0
10975 0 0 0
10979 0 0 0
10933 0 0 0
10937 0 0 0
10947 0 0 0
10976 0 0 0
10891 0 0 0
10895 0 0 0
10905 0 0 0
10934 0 0 0
10849 0 0 0
10853 0 0 0
10863 0 0 0
10892 0 0 0
4992 0 0 0
11037 0 0 0
11038 0 0 0
11048 0 0 0
11052 0 0 0
11000 0 0 0
11001 0 0 0
11019 0 0 0
11027 0 0 0
11028 0 0 0
10985 0 0 0
10943 0 0 0
10958 0 0 0
10959 0 0 0
10977 0 0 0
10986 0 0 0
10901 0 0 0
10916 0 0 0
10917 0 0 0
10935 0 0 0
10944 0 0 0
10859 0 0 0
10874 0 0 0
10875 0 0 0
10893 0 0 0
10902 0 0 0
4981 0 0 0
4982 0 0 0
4984 0 0 0
4988 0 0 0
11041 0 0 0
11005 0 0 0
11006 0 0 0
11007 0 0 0
11011 0 0 0
11020 0 0 0
10964 0 0 0
10965 0 0 0
10969 0 0 0
10978 0 0 0
10922 0 0 0
10923 0 0 0
10927 0 0 0
10936 0 0 0
10963 0 0 0
10880 0 0 0
10881 0 0 0
10885 0 0 0
10894 0 0 0
10921 0 0 0
10838 0 0 0
10839 0 0 0
10843 0 0 0
10852 0 0 0
10879 0 0 0
4990 0 0 0
4991 0 0 0
11049 0 0 0
11050 0 0 0
11022 0 0 0
11023 0 0 0
11024 0 0 0
11025 0 0 0
10982 0 0 0
10983 0 0 0
10940 0 0 0
10941 0 0 0
10980 0 0 0
10981 0 0 0
10898 0 0 0
10899 0 0 0
10938 0 0 0
10939 0 0 0
10856 0 0 0
10857 0 0 0
10896 0 0 0
10897 0 0 0
4977 0 0 0
4983 0 0 0
11034 0 0 0
11042 0 0 0
10993 0 0 0
10995 0 0 0
11008 0 0 0
11010 0 0 0
10953 0 0 0
10968 0 0 0
10911 0 0 0
10926 0 0 0
10951 0 0 0
10966 0 0 0
10869 0 0 0
10884 0 0 0
10909 0 0 0
10924 0 0 0
10827 0 0 0
10842 0 0 0
10867 0 0 0
10882 0 0 0
4986 0 0 0
11043 0 0 0
11044 0 0 0
11045 0 0 0
11051 0 0 0
11009 0 0 0
11012 0 0 0
11013 0 0 0
11015 0 0 0
11026 0 0 0
10973 0 0 0
10931 0 0 0
10967 0 0 0
10970 0 0 0
10971 0 0 0
10984 0 0 0
10889 0 0 0
10925 0 0 0
10928 0 0 0
10929 0 0 0
10942 0 0 0
10847 0 0 0
10883 0 0 0
10886 0 0 0
10887 0 0 0
10900 0 0 0
4975 0 0 0
4976 0 0 0
4978 0 0 0
4979 0 0 0
11035 0 0 0
10990 0 0 0
10994 0 0 0
10996 0 0 0
10998 0 0 0
10999 0 0 0
10948 0 0 0
10952 0 0 0
10956 0 0 0
10957 0 0 0
10906 0 0 0
10910 0 0 0
10914 0 0 0
10915 0 0 0
10954 0 0 0
10864 0 0 0
10868 0 0 0
10872 0 0 0
10873 0 0 0
10912 0 0 0
10822 0 0 0
10826 0 0 0
10830 0 0 0
10831 0 0 0
10870 0 0 0
4980 0 0 0
4985 0 0 0
11036 0 0 0
11046 0 0 0
10997 0 0 0
11002 0 0 0
11014 0 0 0
11016 0 0 0
10960 0 0 0
10972 0 0 0
10918 0 0 0
10930 0 0 0
10955 0 0 0
10974 0 0 0
10876 0 0 0
10888 0 0 0
10913 0 0 0
10932 0 0 0
10834 0 0 0
10846 0 0 0
10871 0 0 0
10890 0 0 0
